Li24 Ga112
1.0
  13.7450591905995161    0.0000000000000000    5.2616914517635198
   3.6198350968571691   13.2598433635034052    5.2616914517635198
   0.0000000000000000    0.0000000000000000   14.7177467400000008
Li Ga
24 112
direct
   0.0584837300000000    0.2621027900000000    0.0584837300000000 Li
   0.0584837300000000    0.2621027900000000    0.5584837300000001 Li
   0.0584837300000001    0.7621027899999999    0.0584837300000000 Li
   0.0584837300000001    0.7621027899999999    0.5584837300000002 Li
   0.5584837300000000    0.2621027900000000    0.0584837300000000 Li
   0.5584837300000000    0.2621027900000000    0.5584837300000002 Li
   0.5584837300000001    0.7621027899999999    0.0584837300000000 Li
   0.5584837300000001    0.7621027899999999    0.5584837300000001 Li
   0.0584837300000000    0.0584837300000000    0.2621027900000000 Li
   0.0584837300000000    0.0584837300000000    0.7621027900000000 Li
   0.0584837300000000    0.5584837300000000    0.2621027900000000 Li
   0.0584837300000000    0.5584837300000000    0.7621027900000000 Li
   0.5584837300000001    0.0584837300000000    0.2621027900000000 Li
   0.5584837300000001    0.0584837300000000    0.7621027899999999 Li
   0.5584837300000000    0.5584837300000000    0.2621027900000001 Li
   0.5584837300000000    0.5584837300000000    0.7621027899999999 Li
   0.2621027900000000    0.0584837300000000    0.0584837300000000 Li
   0.2621027900000000    0.0584837300000000    0.5584837300000001 Li
   0.2621027900000000    0.5584837300000000    0.0584837300000000 Li
   0.2621027900000000    0.5584837300000000    0.5584837300000002 Li
   0.7621027899999999    0.0584837300000000    0.0584837300000000 Li
   0.7621027899999999    0.0584837300000000    0.5584837300000001 Li
   0.7621027900000000    0.5584837300000000    0.0584837300000000 Li
   0.7621027900000000    0.5584837300000000    0.5584837300000001 Li
   0.2479453350000000    0.0885795400000000    0.2479453350000000 Ga
   0.2479453350000000    0.0885795400000000    0.7479453349999999 Ga
   0.2479453350000000    0.5885795399999999    0.2479453350000001 Ga
   0.2479453350000000    0.5885795399999999    0.7479453350000000 Ga
   0.7479453350000000    0.0885795400000000    0.2479453350000000 Ga
   0.7479453350000000    0.0885795400000000    0.7479453350000000 Ga
   0.7479453349999999    0.5885795399999999    0.2479453350000000 Ga
   0.7479453349999999    0.5885795399999999    0.7479453350000002 Ga
   0.2479453350000000    0.2479453350000000    0.0885795400000000 Ga
   0.2479453350000000    0.2479453350000000    0.5885795400000001 Ga
   0.2479453350000000    0.7479453349999999    0.0885795400000000 Ga
   0.2479453350000000    0.7479453349999999    0.5885795400000000 Ga
   0.7479453349999999    0.2479453350000000    0.0885795400000001 Ga
   0.7479453349999999    0.2479453350000000    0.5885795400000000 Ga
   0.7479453350000002    0.7479453349999999    0.0885795400000000 Ga
   0.7479453350000002    0.7479453349999999    0.5885795400000000 Ga
   0.0885795400000000    0.2479453350000000    0.2479453350000000 Ga
   0.0885795400000000    0.2479453350000000    0.7479453349999999 Ga
   0.0885795400000001    0.7479453349999999    0.2479453350000001 Ga
   0.0885795400000001    0.7479453349999999    0.7479453350000000 Ga
   0.5885795400000000    0.2479453350000000    0.2479453350000000 Ga
   0.5885795400000000    0.2479453350000000    0.7479453350000000 Ga
   0.5885795400000000    0.7479453349999999    0.2479453350000000 Ga
   0.5885795400000000    0.7479453349999999    0.7479453350000002 Ga
   0.2586712850000000    0.4155365150000000    0.2586712850000001 Ga
   0.2586712850000000    0.4155365150000000    0.7586712850000001 Ga
   0.2586712850000000    0.9155365149999999    0.2586712850000001 Ga
   0.2586712850000000    0.9155365149999999    0.7586712850000000 Ga
   0.7586712850000000    0.4155365150000000    0.2586712850000000 Ga
   0.7586712850000000    0.4155365150000000    0.7586712850000000 Ga
   0.7586712850000001    0.9155365149999999    0.2586712850000001 Ga
   0.7586712850000001    0.9155365149999999    0.7586712849999999 Ga
   0.2586712850000000    0.2586712850000000    0.4155365150000001 Ga
   0.2586712850000000    0.2586712850000000    0.9155365150000002 Ga
   0.2586712850000000    0.7586712849999999    0.4155365150000001 Ga
   0.2586712850000000    0.7586712849999999    0.9155365150000002 Ga
   0.7586712849999999    0.2586712850000000    0.4155365150000001 Ga
   0.7586712849999999    0.2586712850000000    0.9155365150000002 Ga
   0.7586712850000001    0.7586712849999999    0.4155365150000001 Ga
   0.7586712850000001    0.7586712849999999    0.9155365150000001 Ga
   0.4155365150000000    0.2586712850000000    0.2586712850000000 Ga
   0.4155365150000000    0.2586712850000000    0.7586712850000001 Ga
   0.4155365150000001    0.7586712849999999    0.2586712850000001 Ga
   0.4155365150000001    0.7586712849999999    0.7586712850000000 Ga
   0.9155365150000001    0.2586712850000000    0.2586712850000001 Ga
   0.9155365150000001    0.2586712850000000    0.7586712850000000 Ga
   0.9155365150000000    0.7586712849999999    0.2586712850000001 Ga
   0.9155365150000000    0.7586712849999999    0.7586712849999999 Ga
   0.0413479150000000    0.0413479150000000    0.0413479150000000 Ga
   0.0413479150000000    0.0413479150000000    0.5413479150000000 Ga
   0.0413479150000000    0.5413479150000000    0.0413479150000000 Ga
   0.0413479150000000    0.5413479150000000    0.5413479150000001 Ga
   0.5413479150000000    0.0413479150000000    0.0413479150000000 Ga
   0.5413479150000000    0.0413479150000000    0.5413479150000001 Ga
   0.5413479150000001    0.5413479150000000    0.0413479150000000 Ga
   0.5413479150000001    0.5413479150000000    0.5413479150000000 Ga
   0.4639428800000001    0.4639428800000000    0.4639428800000000 Ga
   0.4639428800000001    0.4639428800000000    0.9639428799999999 Ga
   0.4639428800000001    0.9639428799999999    0.4639428800000001 Ga
   0.4639428800000001    0.9639428799999999    0.9639428799999999 Ga
   0.9639428800000001    0.4639428800000000    0.4639428800000001 Ga
   0.9639428800000001    0.4639428800000000    0.9639428799999999 Ga
   0.9639428800000003    0.9639428799999999    0.4639428800000000 Ga
   0.9639428800000003    0.9639428799999999    0.9639428800000001 Ga
   0.3533880200000001    0.0947206950000000    0.3533880200000001 Ga
   0.3533880200000001    0.0947206950000000    0.8533880200000001 Ga
   0.3533880200000001    0.5947206949999999    0.3533880200000001 Ga
   0.3533880200000001    0.5947206949999999    0.8533880200000001 Ga
   0.8533880200000000    0.0947206950000000    0.3533880200000001 Ga
   0.8533880200000000    0.0947206950000000    0.8533880200000001 Ga
   0.8533880200000001    0.5947206949999999    0.3533880200000000 Ga
   0.8533880200000001    0.5947206949999999    0.8533880200000001 Ga
   0.3533880200000001    0.3533880200000000    0.0947206950000000 Ga
   0.3533880200000001    0.3533880200000000    0.5947206949999999 Ga
   0.3533880200000002    0.8533880199999999    0.0947206950000000 Ga
   0.3533880200000002    0.8533880199999999    0.5947206950000000 Ga
   0.8533880200000001    0.3533880200000000    0.0947206950000000 Ga
   0.8533880200000001    0.3533880200000000    0.5947206950000000 Ga
   0.8533880200000000    0.8533880199999999    0.0947206950000000 Ga
   0.8533880200000000    0.8533880199999999    0.5947206950000001 Ga
   0.0947206950000000    0.3533880200000000    0.3533880200000001 Ga
   0.0947206950000000    0.3533880200000000    0.8533880200000001 Ga
   0.0947206950000001    0.8533880199999999    0.3533880200000001 Ga
   0.0947206950000001    0.8533880199999999    0.8533880200000002 Ga
   0.5947206949999999    0.3533880200000000    0.3533880200000001 Ga
   0.5947206949999999    0.3533880200000000    0.8533880200000001 Ga
   0.5947206950000000    0.8533880199999999    0.3533880200000000 Ga
   0.5947206950000000    0.8533880199999999    0.8533880200000001 Ga
   0.1501518650000000    0.4094886899999999    0.1501518650000000 Ga
   0.1501518650000000    0.4094886899999999    0.6501518650000001 Ga
   0.1501518650000001    0.9094886899999999    0.1501518650000000 Ga
   0.1501518650000001    0.9094886899999999    0.6501518650000001 Ga
   0.6501518650000001    0.4094886899999999    0.1501518650000000 Ga
   0.6501518650000001    0.4094886899999999    0.6501518650000000 Ga
   0.6501518650000000    0.9094886899999999    0.1501518650000000 Ga
   0.6501518650000000    0.9094886899999999    0.6501518650000000 Ga
   0.1501518650000000    0.1501518650000000    0.4094886900000000 Ga
   0.1501518650000000    0.1501518650000000    0.9094886900000001 Ga
   0.1501518650000000    0.6501518650000000    0.4094886900000000 Ga
   0.1501518650000000    0.6501518650000000    0.9094886900000002 Ga
   0.6501518650000000    0.1501518650000000    0.4094886900000000 Ga
   0.6501518650000000    0.1501518650000000    0.9094886900000002 Ga
   0.6501518650000000    0.6501518650000000    0.4094886900000000 Ga
   0.6501518650000000    0.6501518650000000    0.9094886900000001 Ga
   0.4094886900000000    0.1501518650000000    0.1501518650000000 Ga
   0.4094886900000000    0.1501518650000000    0.6501518650000001 Ga
   0.4094886900000000    0.6501518650000000    0.1501518650000000 Ga
   0.4094886900000000    0.6501518650000000    0.6501518650000000 Ga
   0.9094886900000001    0.1501518650000000    0.1501518650000000 Ga
   0.9094886900000001    0.1501518650000000    0.6501518650000000 Ga
   0.9094886899999999    0.6501518650000000    0.1501518650000000 Ga
   0.9094886899999999    0.6501518650000000    0.6501518650000000 Ga
