Na27                                    
   1.00000000000000     
    -5.5474353546226318    5.5474353546226318    8.2350362503776111
     5.5474353546226318   -5.5474353546226318    8.2350362503776111
     5.5474353546226318    5.5474353546226318   -8.2350362503776111
   Na
    27
Direct
  0.0286605962804169  0.0443440581004201  0.4017162796779208
  0.2988393472003333  0.7552179873546354  0.2915612622982975
  0.1124295272418333  0.0273378972240226  0.0038613152039731
  0.8179893012243908  0.1554058571980014  0.7666389030908591
  0.4439810722852346  0.6879948463028135  0.6760240154676532
  0.9014782389891569  0.7889930995258149  0.0023578477324675
  0.1936663829195750  0.1629232908134693  0.3513854283447083
  0.7139218367705973  0.3491641736148650  0.9863946367449653
  0.6954156982319082  0.8624706909067518  0.6940306223769128
  0.5142692109314585  0.3141145822157337  0.1856051095758266
  0.8886838314089400  0.8424557840347575  0.4665072697361721
  0.0119712094239315  0.5074395409845880  0.9564900861145142
  0.2388584288787969  0.8932882514287501  0.7229227943762546
  0.1815691224369120  0.4087119663222673  0.1942627406415370
  0.6501946630910361  0.4080832527437494  0.6250319141209065
  0.4602668755036642  0.0940365191809927  0.6888581421427390
  0.2351713650479883  0.3270293141119692  0.9241807248841533
  0.0016040932244370  0.6325961800353248  0.2705381590239367
  0.6294120456319233  0.0097282691501689  0.0568814059093077
  0.8946362908011753  0.3070121568290360  0.5661490299756622
  0.9584871011712659  0.3454539432061204  0.2901836670434746
  0.5221700342295048  0.0105537254136452  0.3300435366376707
  0.6258181051772587  0.6844111708289643  0.0594724788761209
  0.8307037523492612  0.5641762245621106  0.4940457789815582
  0.2636782442088388  0.7497699506671583  0.9307051393830374
  0.5420885910660661  0.6137783740844509  0.2850287175173310
  0.3440350342741001  0.4535088931594318  0.7791229941220329
 
  0.13288505E-02  0.49222026E-02  0.31270951E-02
 -0.70115311E-02 -0.42697027E-02  0.92877504E-02
 -0.11137281E-01  0.25907614E-02  0.58885892E-03
  0.28322387E-02 -0.19743414E-02 -0.36641645E-03
  0.47865450E-02 -0.10978818E-01 -0.35668967E-02
  0.54895602E-02  0.18908913E-02  0.70066179E-03
  0.79923504E-03 -0.56537103E-02  0.16799510E-02
  0.27034652E-02  0.78340208E-02 -0.15363998E-02
 -0.26350043E-03  0.89567938E-02 -0.28934929E-02
 -0.19673661E-02 -0.41279617E-02 -0.76509521E-02
 -0.66404831E-02  0.15451632E-02 -0.11893727E-02
  0.47971921E-02 -0.49743483E-02  0.56622269E-02
 -0.13217152E-02 -0.52769032E-02 -0.89208686E-02
 -0.16992380E-02  0.13277396E-03 -0.14052509E-02
 -0.85620381E-02  0.45395147E-03 -0.35742503E-02
  0.58202298E-02  0.32216537E-02 -0.32094372E-02
  0.83909073E-02  0.36997153E-02 -0.62750269E-03
 -0.31021034E-02  0.57161215E-02  0.20264525E-02
  0.46280427E-02 -0.26518706E-02 -0.15811646E-02
  0.22249873E-02  0.10902845E-01  0.25390327E-02
  0.39889035E-02 -0.11045968E-01 -0.39065362E-02
 -0.39037045E-03 -0.69211510E-02  0.16667405E-02
  0.29190500E-02 -0.61479103E-02  0.79898735E-02
 -0.18501359E-03 -0.28183756E-03  0.48807442E-02
  0.46969091E-02  0.60163670E-02  0.60128528E-02
 -0.55807870E-02  0.78134738E-02 -0.42252569E-03
 -0.75446885E-02 -0.13922125E-02 -0.53111737E-02
 
           1
   2.00000000000000     
  0.24906480E+01  0.88751321E-01  0.60495557E-18  0.00000000E+00
  0.29927620E-01  0.44963332E-01  0.40284312E+00
  0.29919751E+00  0.75508190E+00  0.28952767E+00
  0.11296805E+00  0.25401759E-01  0.23206898E-02
  0.81758890E+00  0.15587191E+00  0.76679355E+00
  0.44156886E+00  0.68842455E+00  0.67490777E+00
  0.90190418E+00  0.79006775E+00  0.36882736E-02
  0.19285123E+00  0.16327136E+00  0.35051034E+00
  0.71514746E+00  0.34946494E+00  0.98829416E+00
  0.69667892E+00  0.86207183E+00  0.69559771E+00
  0.51259602E+00  0.31283086E+00  0.18450634E+00
  0.88881794E+00  0.84111432E+00  0.46558877E+00
  0.11762094E-01  0.50899188E+00  0.95645815E+00
  0.23682391E+00  0.89196671E+00  0.72173330E+00
  0.18142241E+00  0.40823501E+00  0.19398036E+00
  0.64984246E+00  0.40610580E+00  0.62357032E+00
  0.46045789E+00  0.94695964E-01  0.69048806E+00
  0.23576209E+00  0.32846569E+00  0.92636022E+00
  0.28805781E-02  0.63228306E+00  0.27100937E+00
  0.62874201E+00  0.10370532E-01  0.57237638E-01
  0.89691000E+00  0.30772156E+00  0.56851550E+00
  0.95602154E+00  0.34569862E+00  0.28891154E+00
  0.52112480E+00  0.10685752E-01  0.32872554E+00
  0.62568009E+00  0.68590760E+00  0.58890433E-01
  0.83124563E+00  0.56473555E+00  0.49396162E+00
  0.26549293E+00  0.75134679E+00  0.93263635E+00
  0.54344577E+00  0.61272105E+00  0.28543119E+00
  0.34313912E+00  0.45150391E+00  0.77751200E+00
  0.13043953E-02  0.64512295E-03  0.11254151E-02
  0.36029094E-03 -0.16749128E-03 -0.20908087E-02
  0.55905736E-03 -0.19587769E-02 -0.15257986E-02
 -0.42849883E-03  0.47546772E-03  0.16833073E-03
 -0.24456627E-02  0.46539489E-03 -0.11109800E-02
  0.44218662E-03  0.10963568E-02  0.13686525E-02
 -0.88261303E-03  0.32867524E-03 -0.92176912E-03
  0.12563383E-02  0.26952627E-03  0.19101746E-02
  0.12827109E-02 -0.40447846E-03  0.15845153E-02
 -0.17070021E-02 -0.12572222E-02 -0.11138045E-02
  0.15030212E-03 -0.13971931E-02 -0.96777107E-03
 -0.19142206E-03  0.15828080E-02 -0.38409210E-08
 -0.20752335E-02 -0.13661094E-02 -0.12216851E-02
 -0.17652820E-03 -0.47752015E-03 -0.32710170E-03
 -0.33209082E-03 -0.20218409E-02 -0.14896886E-02
  0.23226805E-03  0.69631906E-03  0.16906056E-02
  0.62286755E-03  0.14978217E-02  0.22772184E-02
  0.12912164E-02 -0.33792024E-03  0.46178803E-03
 -0.69872232E-03  0.64197123E-03  0.34639252E-03
  0.23112177E-02  0.74308359E-03  0.24331887E-02
 -0.25182133E-02  0.26386401E-03 -0.13065282E-02
 -0.10754185E-02  0.12698178E-03 -0.13529600E-02
 -0.16881032E-03  0.14982309E-02 -0.61009506E-03
  0.51606515E-03  0.54404754E-03 -0.13221910E-03
  0.18652356E-02  0.16161122E-02  0.19752391E-02
  0.13895791E-02 -0.11021258E-02  0.42437709E-03
 -0.88351534E-03 -0.20011054E-02 -0.15946842E-02
  0.00000000E+00  0.00000000E+00  0.00000000E+00
  0.00000000E+00  0.00000000E+00  0.00000000E+00
  0.00000000E+00  0.00000000E+00  0.00000000E+00
  0.00000000E+00  0.00000000E+00  0.00000000E+00
  0.00000000E+00  0.00000000E+00  0.00000000E+00
  0.00000000E+00  0.00000000E+00  0.00000000E+00
  0.00000000E+00  0.00000000E+00  0.00000000E+00
  0.00000000E+00  0.00000000E+00  0.00000000E+00
  0.00000000E+00  0.00000000E+00  0.00000000E+00
  0.00000000E+00  0.00000000E+00  0.00000000E+00
  0.00000000E+00  0.00000000E+00  0.00000000E+00
  0.00000000E+00  0.00000000E+00  0.00000000E+00
  0.00000000E+00  0.00000000E+00  0.00000000E+00
  0.00000000E+00  0.00000000E+00  0.00000000E+00
  0.00000000E+00  0.00000000E+00  0.00000000E+00
  0.00000000E+00  0.00000000E+00  0.00000000E+00
  0.00000000E+00  0.00000000E+00  0.00000000E+00
  0.00000000E+00  0.00000000E+00  0.00000000E+00
  0.00000000E+00  0.00000000E+00  0.00000000E+00
  0.00000000E+00  0.00000000E+00  0.00000000E+00
  0.00000000E+00  0.00000000E+00  0.00000000E+00
  0.00000000E+00  0.00000000E+00  0.00000000E+00
  0.00000000E+00  0.00000000E+00  0.00000000E+00
  0.00000000E+00  0.00000000E+00  0.00000000E+00
  0.00000000E+00  0.00000000E+00  0.00000000E+00
  0.00000000E+00  0.00000000E+00  0.00000000E+00
  0.00000000E+00  0.00000000E+00  0.00000000E+00
