       N       E                     dE             d eps       ncg     rms          rms(c)
DAV:   1     0.174454198911E+04    0.17445E+04   -0.98256E+04  2328   0.144E+03
DAV:   2     0.956818951457E+02   -0.16489E+04   -0.16205E+04  2048   0.416E+02
DAV:   3    -0.279325055429E+02   -0.12361E+03   -0.12024E+03  2272   0.144E+02
DAV:   4    -0.318714203806E+02   -0.39389E+01   -0.38915E+01  2256   0.229E+01
DAV:   5    -0.319642930490E+02   -0.92873E-01   -0.92847E-01  2208   0.375E+00    0.229E+01
RMM:   6    -0.339690003959E+02   -0.20047E+01   -0.26801E+00  2109   0.943E+00    0.910E+00
RMM:   7    -0.349960677607E+02   -0.10271E+01   -0.72443E-01  2048   0.377E+00    0.146E+00
RMM:   8    -0.353297304001E+02   -0.33366E+00   -0.11679E-01  1991   0.745E-01    0.798E-01
RMM:   9    -0.354225973419E+02   -0.92867E-01   -0.11696E-01  1726   0.585E-01    0.226E-01
RMM:  10    -0.354317325482E+02   -0.91352E-02   -0.11140E-02  1408   0.371E-01    0.833E-02
RMM:  11    -0.354334996567E+02   -0.17671E-02   -0.23685E-03  1411   0.149E-01    0.640E-02
RMM:  12    -0.354337187984E+02   -0.21914E-03   -0.48313E-04  1173   0.894E-02
      1 T=   800. E= -.32745071E+02 F= -.35433719E+02 E0= -.35374165E+02  EK= 0.26886E+01 SP= 0.00E+00 SK= 0.61E-12 mag=      0.583
       N       E                     dE             d eps       ncg     rms          rms(c)
DAV:   1    -0.353706340652E+02    0.62866E-01   -0.34908E+01  2416   0.176E+01    0.288E-01
RMM:   2    -0.354150987463E+02   -0.44465E-01   -0.45512E-01  2122   0.272E+00    0.141E-01
RMM:   3    -0.354264997809E+02   -0.11401E-01   -0.11853E-01  2193   0.159E+00    0.693E-02
RMM:   4    -0.354313520124E+02   -0.48522E-02   -0.47562E-02  2517   0.832E-01    0.130E-01
RMM:   5    -0.354314218999E+02   -0.69888E-04   -0.83409E-04  1137   0.112E-01
      2 T=   798. E= -.32750174E+02 F= -.35431422E+02 E0= -.35371240E+02  EK= 0.26812E+01 SP= 0.57E-06 SK= 0.62E-07 mag=      0.370
       N       E                     dE             d eps       ncg     rms          rms(c)
DAV:   1    -0.354202658909E+02    0.11086E-01   -0.22689E-01  1920   0.285E+00    0.256E-01
RMM:   2    -0.354204780774E+02   -0.21219E-03   -0.62733E-03  1943   0.403E-01
      3 T=   791. E= -.32761414E+02 F= -.35420478E+02 E0= -.35360121E+02  EK= 0.26592E+01 SP= -.18E-03 SK= 0.22E-05 mag=      0.078
       N       E                     dE             d eps       ncg     rms          rms(c)
DAV:   1    -0.354039073810E+02    0.16359E-01   -0.31260E-02  2704   0.129E+00    0.447E-01
RMM:   2    -0.354022949059E+02    0.16125E-02   -0.45552E-03  1648   0.355E-01    0.260E-01
RMM:   3    -0.354014954578E+02    0.79945E-03   -0.41475E-03  1379   0.232E-01
      4 T=   783. E= -.32770798E+02 F= -.35401495E+02 E0= -.35341316E+02  EK= 0.26318E+01 SP= -.11E-02 SK= 0.19E-04 mag=     -0.134
       N       E                     dE             d eps       ncg     rms          rms(c)
DAV:   1    -0.353759815036E+02    0.26313E-01   -0.77526E-02  2584   0.149E+00    0.277E-01
RMM:   2    -0.353756659740E+02    0.31553E-03   -0.41228E-03  1555   0.308E-01
      5 T=   775. E= -.32775277E+02 F= -.35375666E+02 E0= -.35315764E+02  EK= 0.26037E+01 SP= -.34E-02 SK= 0.85E-04 mag=     -0.150
       N       E                     dE             d eps       ncg     rms          rms(c)
DAV:   1    -0.353411871703E+02    0.34794E-01   -0.10297E-01  3184   0.166E+00    0.193E-01
RMM:   2    -0.353418293467E+02   -0.64218E-03   -0.43106E-03  1488   0.305E-01
      6 T=   765. E= -.32778134E+02 F= -.35341829E+02 E0= -.35282150E+02  EK= 0.25712E+01 SP= -.78E-02 SK= 0.26E-03 mag=      0.070
       N       E                     dE             d eps       ncg     rms          rms(c)
DAV:   1    -0.352990521869E+02    0.42135E-01   -0.44812E-02  3208   0.133E+00    0.156E-01
RMM:   2    -0.353000937773E+02   -0.10416E-02   -0.49532E-03  1511   0.320E-01
      7 T=   754. E= -.32780758E+02 F= -.35300094E+02 E0= -.35241262E+02  EK= 0.25338E+01 SP= -.15E-01 SK= 0.64E-03 mag=      0.394
       N       E                     dE             d eps       ncg     rms          rms(c)
DAV:   1    -0.352495916013E+02    0.49461E-01   -0.25417E-02  2696   0.120E+00    0.168E-01
RMM:   2    -0.352511797131E+02   -0.15881E-02   -0.51151E-03  1540   0.332E-01    0.104E-01
RMM:   3    -0.352517836502E+02   -0.60394E-03   -0.11000E-03  1336   0.115E-01
      8 T=   742. E= -.32781548E+02 F= -.35251784E+02 E0= -.35193849E+02  EK= 0.24951E+01 SP= -.26E-01 SK= 0.14E-02 mag=      0.407
       N       E                     dE             d eps       ncg     rms          rms(c)
DAV:   1    -0.351979214825E+02    0.53258E-01   -0.34276E-02  2832   0.125E+00    0.146E-01
RMM:   2    -0.351988034643E+02   -0.88198E-03   -0.38727E-03  1499   0.322E-01
      9 T=   731. E= -.32780747E+02 F= -.35198803E+02 E0= -.35140074E+02  EK= 0.24575E+01 SP= -.42E-01 SK= 0.26E-02 mag=      0.046
       N       E                     dE             d eps       ncg     rms          rms(c)
DAV:   1    -0.351340989687E+02    0.63823E-01   -0.22261E-02  3024   0.111E+00    0.104E-01
RMM:   2    -0.351356774719E+02   -0.15785E-02   -0.44490E-03  1574   0.255E-01    0.732E-02
RMM:   3    -0.351366251088E+02   -0.94764E-03   -0.11596E-03  1447   0.122E-01
     10 T=   719. E= -.32778641E+02 F= -.35136625E+02 E0= -.35078829E+02  EK= 0.24170E+01 SP= -.64E-01 SK= 0.47E-02 mag=     -0.277
       N       E                     dE             d eps       ncg     rms          rms(c)
DAV:   1    -0.350662356800E+02    0.69442E-01   -0.20814E-02  2464   0.114E+00    0.112E-01
RMM:   2    -0.350677804663E+02   -0.15448E-02   -0.42488E-03  1445   0.289E-01    0.783E-02
RMM:   3    -0.350689243595E+02   -0.11439E-02   -0.23006E-03  1401   0.129E-01
     11 T=   707. E= -.32778031E+02 F= -.35068924E+02 E0= -.35011355E+02  EK= 0.23751E+01 SP= -.92E-01 SK= 0.78E-02 mag=     -0.282
       N       E                     dE             d eps       ncg     rms          rms(c)
DAV:   1    -0.349942312625E+02    0.73549E-01   -0.14545E-02  2664   0.982E-01    0.620E-02
RMM:   2    -0.349948516063E+02   -0.62034E-03   -0.33028E-03  1506   0.245E-01
     12 T=   695. E= -.32774991E+02 F= -.34994852E+02 E0= -.34937187E+02  EK= 0.23357E+01 SP= -.13E+00 SK= 0.12E-01 mag=      0.046
       N       E                     dE             d eps       ncg     rms          rms(c)
DAV:   1    -0.349104674023E+02    0.83764E-01   -0.20349E-02  2808   0.106E+00    0.874E-02
RMM:   2    -0.349118465370E+02   -0.13791E-02   -0.37604E-03  1513   0.252E-01    0.664E-02
RMM:   3    -0.349126087432E+02   -0.76221E-03   -0.10847E-03  1290   0.108E-01
     13 T=   683. E= -.32771261E+02 F= -.34912609E+02 E0= -.34856352E+02  EK= 0.22957E+01 SP= -.17E+00 SK= 0.19E-01 mag=      0.304
       N       E                     dE             d eps       ncg     rms          rms(c)
DAV:   1    -0.348250122344E+02    0.86834E-01   -0.16740E-02  2576   0.103E+00    0.841E-02
RMM:   2    -0.348258608109E+02   -0.84858E-03   -0.32121E-03  1477   0.240E-01
     14 T=   672. E= -.32769114E+02 F= -.34825861E+02 E0= -.34769631E+02  EK= 0.22572E+01 SP= -.23E+00 SK= 0.27E-01 mag=      0.351
       N       E                     dE             d eps       ncg     rms          rms(c)
DAV:   1    -0.347326427725E+02    0.92369E-01   -0.14547E-02  2672   0.995E-01    0.487E-02
RMM:   2    -0.347332902448E+02   -0.64747E-03   -0.34805E-03  1540   0.228E-01
     15 T=   661. E= -.32766475E+02 F= -.34733290E+02 E0= -.34676822E+02  EK= 0.22214E+01 SP= -.29E+00 SK= 0.38E-01 mag=      0.124
       N       E                     dE             d eps       ncg     rms          rms(c)
DAV:   1    -0.346328330793E+02    0.99810E-01   -0.10675E-02  2240   0.959E-01    0.536E-02
RMM:   2    -0.346336308843E+02   -0.79781E-03   -0.33813E-03  1528   0.274E-01
     16 T=   651. E= -.32762746E+02 F= -.34633631E+02 E0= -.34577909E+02  EK= 0.21883E+01 SP= -.37E+00 SK= 0.52E-01 mag=     -0.293
       N       E                     dE             d eps       ncg     rms          rms(c)
DAV:   1    -0.345242968948E+02    0.10854E+00   -0.14909E-02  2656   0.102E+00    0.107E-01
RMM:   2    -0.345261783217E+02   -0.18814E-02   -0.45675E-03  1544   0.260E-01    0.818E-02
RMM:   3    -0.345273034009E+02   -0.11251E-02   -0.14949E-03  1422   0.112E-01
     17 T=   642. E= -.32757919E+02 F= -.34527303E+02 E0= -.34473214E+02  EK= 0.21588E+01 SP= -.46E+00 SK= 0.69E-01 mag=     -0.314
       N       E                     dE             d eps       ncg     rms          rms(c)
DAV:   1    -0.344179251817E+02    0.10825E+00   -0.21297E-02  2512   0.995E-01    0.887E-02
RMM:   2    -0.344186654743E+02   -0.74029E-03   -0.37988E-03  1565   0.249E-01
     18 T=   635. E= -.32755575E+02 F= -.34418665E+02 E0= -.34363315E+02  EK= 0.21340E+01 SP= -.56E+00 SK= 0.89E-01 mag=      0.068
       N       E                     dE             d eps       ncg     rms          rms(c)
DAV:   1    -0.342980567436E+02    0.11987E+00   -0.29251E-02  2576   0.979E-01    0.106E-01
RMM:   2    -0.342997108555E+02   -0.16541E-02   -0.44300E-03  1517   0.251E-01    0.791E-02
RMM:   3    -0.343011862077E+02   -0.14754E-02   -0.15031E-03  1480   0.107E-01    0.616E-02
RMM:   4    -0.343020829435E+02   -0.89674E-03   -0.85506E-04  1346   0.761E-02
     19 T=   629. E= -.32751524E+02 F= -.34302083E+02 E0= -.34247557E+02  EK= 0.21129E+01 SP= -.68E+00 SK= 0.11E+00 mag=      0.176
       N       E                     dE             d eps       ncg     rms          rms(c)
DAV:   1    -0.341802539789E+02    0.12093E+00   -0.11965E-02  2512   0.935E-01    0.109E-01
RMM:   2    -0.341809813852E+02   -0.72741E-03   -0.31900E-03  1450   0.230E-01
     20 T=   624. E= -.32749498E+02 F= -.34180981E+02 E0= -.34126372E+02  EK= 0.20956E+01 SP= -.81E+00 SK= 0.14E+00 mag=      0.016
       N       E                     dE             d eps       ncg     rms          rms(c)
DAV:   1    -0.340527803776E+02    0.12747E+00   -0.18220E-02  2808   0.976E-01    0.101E-01
RMM:   2    -0.340538253447E+02   -0.10450E-02   -0.40070E-03  1545   0.238E-01
     21 T=   620. E= -.32746318E+02 F= -.34053825E+02 E0= -.34000233E+02  EK= 0.20841E+01 SP= -.95E+00 SK= 0.17E+00 mag=     -0.325
       N       E                     dE             d eps       ncg     rms          rms(c)
DAV:   1    -0.339185504663E+02    0.13423E+00   -0.11631E-02  2368   0.929E-01    0.127E-01
RMM:   2    -0.339206033082E+02   -0.20528E-02   -0.44349E-03  1538   0.283E-01    0.937E-02
RMM:   3    -0.339215046542E+02   -0.90135E-03   -0.14897E-03  1410   0.120E-01
     22 T=   618. E= -.32743402E+02 F= -.33921505E+02 E0= -.33869551E+02  EK= 0.20782E+01 SP= -.11E+01 SK= 0.21E+00 mag=     -0.349
       N       E                     dE             d eps       ncg     rms          rms(c)
DAV:   1    -0.337871157812E+02    0.13349E+00   -0.27598E-02  2488   0.957E-01    0.657E-02
RMM:   2    -0.337880237761E+02   -0.90799E-03   -0.39885E-03  1492   0.260E-01
     23 T=   619. E= -.32741479E+02 F= -.33788024E+02 E0= -.33734780E+02  EK= 0.20818E+01 SP= -.13E+01 SK= 0.25E+00 mag=     -0.039
       N       E                     dE             d eps       ncg     rms          rms(c)
DAV:   1    -0.336433293164E+02    0.14379E+00   -0.33719E-02  2560   0.975E-01    0.953E-02
RMM:   2    -0.336456553170E+02   -0.23260E-02   -0.56181E-03  1520   0.261E-01    0.793E-02
RMM:   3    -0.336470028059E+02   -0.13475E-02   -0.19237E-03  1466   0.110E-01
     24 T=   623. E= -.32736633E+02 F= -.33647003E+02 E0= -.33594992E+02  EK= 0.20929E+01 SP= -.15E+01 SK= 0.29E+00 mag=      0.246
       N       E                     dE             d eps       ncg     rms          rms(c)
DAV:   1    -0.335026585985E+02    0.14300E+00   -0.23215E-02  2496   0.929E-01    0.898E-02
RMM:   2    -0.335038713292E+02   -0.12127E-02   -0.44223E-03  1462   0.255E-01
     25 T=   628. E= -.32734191E+02 F= -.33503871E+02 E0= -.33452282E+02  EK= 0.21121E+01 SP= -.17E+01 SK= 0.34E+00 mag=      0.370
       N       E                     dE             d eps       ncg     rms          rms(c)
DAV:   1    -0.333542744171E+02    0.14838E+00   -0.32420E-02  2664   0.994E-01    0.914E-02
RMM:   2    -0.333563253722E+02   -0.20510E-02   -0.53070E-03  1527   0.259E-01    0.689E-02
RMM:   3    -0.333577398334E+02   -0.14145E-02   -0.24566E-03  1405   0.111E-01    0.509E-02
RMM:   4    -0.333587740099E+02   -0.10342E-02   -0.24128E-03  1405   0.872E-02
     26 T=   637. E= -.32733372E+02 F= -.33358774E+02 E0= -.33306688E+02  EK= 0.21407E+01 SP= -.19E+01 SK= 0.38E+00 mag=      0.096
       N       E                     dE             d eps       ncg     rms          rms(c)
DAV:   1    -0.332043573760E+02    0.15338E+00   -0.22435E-02  2328   0.939E-01    0.121E-01
RMM:   2    -0.332065274342E+02   -0.21701E-02   -0.65053E-03  1528   0.270E-01    0.841E-02
RMM:   3    -0.332079990158E+02   -0.14716E-02   -0.27816E-03  1400   0.125E-01    0.636E-02
RMM:   4    -0.332090293383E+02   -0.10303E-02   -0.17333E-03  1401   0.848E-02
     27 T=   648. E= -.32731747E+02 F= -.33209029E+02 E0= -.33157661E+02  EK= 0.21790E+01 SP= -.21E+01 SK= 0.43E+00 mag=     -0.211
       N       E                     dE             d eps       ncg     rms          rms(c)
DAV:   1    -0.330551964488E+02    0.15280E+00   -0.14925E-02  2448   0.957E-01    0.934E-02
RMM:   2    -0.330564291361E+02   -0.12327E-02   -0.33620E-03  1498   0.234E-01
     28 T=   664. E= -.32727189E+02 F= -.33056429E+02 E0= -.33005869E+02  EK= 0.22316E+01 SP= -.24E+01 SK= 0.47E+00 mag=     -0.354
       N       E                     dE             d eps       ncg     rms          rms(c)
DAV:   1    -0.329026506832E+02    0.15255E+00   -0.15057E-02  2584   0.955E-01    0.649E-02
RMM:   2    -0.329037394993E+02   -0.10888E-02   -0.36991E-03  1522   0.266E-01
     29 T=   684. E= -.32723835E+02 F= -.32903739E+02 E0= -.32853077E+02  EK= 0.22978E+01 SP= -.26E+01 SK= 0.51E+00 mag=     -0.212
       N       E                     dE             d eps       ncg     rms          rms(c)
DAV:   1    -0.327495989010E+02    0.15305E+00   -0.97384E-03  2256   0.983E-01    0.450E-02
RMM:   2    -0.327503446284E+02   -0.74573E-03   -0.33948E-03  1520   0.260E-01
     30 T=   708. E= -.32720494E+02 F= -.32750345E+02 E0= -.32699908E+02  EK= 0.23787E+01 SP= -.29E+01 SK= 0.55E+00 mag=      0.164
       N       E                     dE             d eps       ncg     rms          rms(c)
DAV:   1    -0.325920941266E+02    0.15750E+00   -0.14520E-02  2584   0.102E+00    0.998E-02
RMM:   2    -0.325941140758E+02   -0.20199E-02   -0.48933E-03  1508   0.279E-01    0.777E-02
RMM:   3    -0.325953648351E+02   -0.12508E-02   -0.18613E-03  1430   0.118E-01
     31 T=   737. E= -.32715052E+02 F= -.32595365E+02 E0= -.32546094E+02  EK= 0.24757E+01 SP= -.32E+01 SK= 0.57E+00 mag=      0.253
       N       E                     dE             d eps       ncg     rms          rms(c)
DAV:   1    -0.324432877005E+02    0.15083E+00   -0.15056E-02  2440   0.987E-01    0.655E-02
RMM:   2    -0.324440843967E+02   -0.79670E-03   -0.30310E-03  1498   0.259E-01
     32 T=   771. E= -.32711275E+02 F= -.32444084E+02 E0= -.32394256E+02  EK= 0.25903E+01 SP= -.34E+01 SK= 0.59E+00 mag=      0.032
       N       E                     dE             d eps       ncg     rms          rms(c)
DAV:   1    -0.322909756399E+02    0.15231E+00   -0.23365E-02  2872   0.109E+00    0.736E-02
RMM:   2    -0.322922949949E+02   -0.13194E-02   -0.44335E-03  1535   0.249E-01
     33 T=   810. E= -.32705660E+02 F= -.32292295E+02 E0= -.32243391E+02  EK= 0.27214E+01 SP= -.37E+01 SK= 0.59E+00 mag=     -0.326
       N       E                     dE             d eps       ncg     rms          rms(c)
DAV:   1    -0.321404269055E+02    0.15055E+00   -0.10073E-02  2224   0.100E+00    0.105E-01
RMM:   2    -0.321427176478E+02   -0.22907E-02   -0.62020E-03  1556   0.321E-01    0.786E-02
RMM:   3    -0.321446661940E+02   -0.19485E-02   -0.32089E-03  1401   0.144E-01    0.582E-02
RMM:   4    -0.321458292173E+02   -0.11630E-02   -0.19662E-03  1401   0.101E-01
     34 T=   853. E= -.32704936E+02 F= -.32145829E+02 E0= -.32096813E+02  EK= 0.28664E+01 SP= -.40E+01 SK= 0.58E+00 mag=     -0.110
       N       E                     dE             d eps       ncg     rms          rms(c)
DAV:   1    -0.319991207362E+02    0.14555E+00   -0.21387E-02  2712   0.116E+00    0.968E-02
RMM:   2    -0.320009629208E+02   -0.18422E-02   -0.35069E-03  1511   0.249E-01    0.709E-02
RMM:   3    -0.320021946864E+02   -0.12318E-02   -0.14139E-03  1384   0.102E-01
     35 T=   901. E= -.32700958E+02 F= -.32002195E+02 E0= -.31953886E+02  EK= 0.30287E+01 SP= -.43E+01 SK= 0.56E+00 mag=      0.240
       N       E                     dE             d eps       ncg     rms          rms(c)
DAV:   1    -0.318615795366E+02    0.13938E+00   -0.35905E-02  2672   0.113E+00    0.951E-02
RMM:   2    -0.318636559046E+02   -0.20764E-02   -0.51752E-03  1543   0.305E-01    0.738E-02
RMM:   3    -0.318647690508E+02   -0.11131E-02   -0.15991E-03  1429   0.118E-01
     36 T=   954. E= -.32697149E+02 F= -.31864769E+02 E0= -.31816940E+02  EK= 0.32046E+01 SP= -.46E+01 SK= 0.51E+00 mag=      0.244
       N       E                     dE             d eps       ncg     rms          rms(c)
DAV:   1    -0.317350470973E+02    0.12861E+00   -0.15759E-02  2728   0.116E+00    0.611E-02
RMM:   2    -0.317361570275E+02   -0.11099E-02   -0.41255E-03  1567   0.278E-01
     37 T=  1009. E= -.32694909E+02 F= -.31736157E+02 E0= -.31687650E+02  EK= 0.33901E+01 SP= -.48E+01 SK= 0.46E+00 mag=     -0.082
       N       E                     dE             d eps       ncg     rms          rms(c)
DAV:   1    -0.316088084399E+02    0.12624E+00   -0.33169E-02  3008   0.126E+00    0.915E-02
RMM:   2    -0.316112589532E+02   -0.24505E-02   -0.62041E-03  1558   0.291E-01    0.714E-02
RMM:   3    -0.316125229818E+02   -0.12640E-02   -0.19265E-03  1474   0.120E-01
     38 T=  1064. E= -.32691096E+02 F= -.31612523E+02 E0= -.31565080E+02  EK= 0.35774E+01 SP= -.50E+01 SK= 0.39E+00 mag=     -0.251
       N       E                     dE             d eps       ncg     rms          rms(c)
DAV:   1    -0.314991378149E+02    0.11212E+00   -0.21246E-02  2624   0.122E+00    0.776E-02
RMM:   2    -0.315005661544E+02   -0.14283E-02   -0.37186E-03  1555   0.282E-01    0.454E-02
RMM:   3    -0.315008176629E+02   -0.25151E-03   -0.89081E-04  1226   0.103E-01
     39 T=  1119. E= -.32690436E+02 F= -.31500818E+02 E0= -.31452805E+02  EK= 0.37600E+01 SP= -.53E+01 SK= 0.31E+00 mag=     -0.136
       N       E                     dE             d eps       ncg     rms          rms(c)
DAV:   1    -0.313957650200E+02    0.10480E+00   -0.31415E-02  2952   0.130E+00    0.526E-02
RMM:   2    -0.313972575963E+02   -0.14926E-02   -0.42654E-03  1555   0.282E-01    0.348E-02
RMM:   3    -0.313975189072E+02   -0.26131E-03   -0.10516E-03  1328   0.105E-01
     40 T=  1169. E= -.32687051E+02 F= -.31397519E+02 E0= -.31349595E+02  EK= 0.39300E+01 SP= -.54E+01 SK= 0.23E+00 mag=      0.141
       N       E                     dE             d eps       ncg     rms          rms(c)
DAV:   1    -0.313006465082E+02    0.96611E-01   -0.19747E-02  2480   0.128E+00    0.715E-02
RMM:   2    -0.313027454584E+02   -0.20990E-02   -0.45616E-03  1593   0.290E-01    0.521E-02
RMM:   3    -0.313037068349E+02   -0.96138E-03   -0.17693E-03  1395   0.125E-01
     41 T=  1212. E= -.32684594E+02 F= -.31303707E+02 E0= -.31256285E+02  EK= 0.40742E+01 SP= -.56E+01 SK= 0.15E+00 mag=      0.180
       N       E                     dE             d eps       ncg     rms          rms(c)
DAV:   1    -0.312202888381E+02    0.82457E-01   -0.25986E-02  2912   0.131E+00    0.344E-02
RMM:   2    -0.312218616117E+02   -0.15728E-02   -0.37836E-03  1587   0.291E-01    0.154E-02
RMM:   3    -0.312220026561E+02   -0.14104E-03   -0.80954E-04  1107   0.107E-01
     42 T=  1245. E= -.32683237E+02 F= -.31222003E+02 E0= -.31174133E+02  EK= 0.41846E+01 SP= -.57E+01 SK= 0.85E-01 mag=     -0.011
       N       E                     dE             d eps       ncg     rms          rms(c)
DAV:   1    -0.311467597227E+02    0.75102E-01   -0.30724E-02  3080   0.136E+00    0.547E-02
RMM:   2    -0.311486943292E+02   -0.19346E-02   -0.44086E-03  1535   0.281E-01    0.388E-02
RMM:   3    -0.311491805117E+02   -0.48618E-03   -0.11449E-03  1330   0.108E-01
     43 T=  1265. E= -.32679999E+02 F= -.31149181E+02 E0= -.31101694E+02  EK= 0.42520E+01 SP= -.58E+01 SK= 0.35E-01 mag=     -0.179
       N       E                     dE             d eps       ncg     rms          rms(c)
DAV:   1    -0.310846793389E+02    0.64015E-01   -0.21186E-02  2344   0.132E+00    0.494E-02
RMM:   2    -0.310864391873E+02   -0.17598E-02   -0.37018E-03  1572   0.292E-01    0.292E-02
RMM:   3    -0.310867580235E+02   -0.31884E-03   -0.10554E-03  1270   0.109E-01
     44 T=  1270. E= -.32677254E+02 F= -.31086758E+02 E0= -.31039235E+02  EK= 0.42698E+01 SP= -.59E+01 SK= 0.65E-02 mag=     -0.178
       N       E                     dE             d eps       ncg     rms          rms(c)
DAV:   1    -0.310322528041E+02    0.54186E-01   -0.23086E-02  2304   0.136E+00    0.210E-02
RMM:   2    -0.310338512659E+02   -0.15985E-02   -0.34161E-03  1506   0.278E-01    0.130E-02
RMM:   3    -0.310339724462E+02   -0.12118E-03   -0.65237E-04  1141   0.102E-01
     45 T=  1260. E= -.32674174E+02 F= -.31033972E+02 E0= -.30986239E+02  EK= 0.42359E+01 SP= -.59E+01 SK= 0.64E-03 mag=     -0.007
       N       E                     dE             d eps       ncg     rms          rms(c)
DAV:   1    -0.309866559705E+02    0.47195E-01   -0.21778E-02  2184   0.132E+00    0.406E-02
RMM:   2    -0.309883449143E+02   -0.16889E-02   -0.35519E-03  1584   0.290E-01    0.286E-02
RMM:   3    -0.309886556138E+02   -0.31070E-03   -0.97424E-04  1246   0.111E-01
     46 T=  1235. E= -.32669265E+02 F= -.30988656E+02 E0= -.30941186E+02  EK= 0.41516E+01 SP= -.58E+01 SK= 0.16E-01 mag=      0.168
       N       E                     dE             d eps       ncg     rms          rms(c)
DAV:   1    -0.309492418409E+02    0.39103E-01   -0.20704E-02  2312   0.133E+00    0.443E-02
RMM:   2    -0.309508514486E+02   -0.16096E-02   -0.38285E-03  1596   0.293E-01    0.304E-02
RMM:   3    -0.309511734694E+02   -0.32202E-03   -0.98720E-04  1256   0.110E-01
     47 T=  1197. E= -.32664430E+02 F= -.30951173E+02 E0= -.30903791E+02  EK= 0.40215E+01 SP= -.58E+01 SK= 0.49E-01 mag=      0.158
       N       E                     dE             d eps       ncg     rms          rms(c)
DAV:   1    -0.309194653925E+02    0.31386E-01   -0.19591E-02  2216   0.128E+00    0.185E-02
RMM:   2    -0.309207747446E+02   -0.13094E-02   -0.30545E-03  1468   0.274E-01
     48 T=  1147. E= -.32658797E+02 F= -.30920775E+02 E0= -.30873128E+02  EK= 0.38548E+01 SP= -.57E+01 SK= 0.94E-01 mag=     -0.026
       N       E                     dE             d eps       ncg     rms          rms(c)
DAV:   1    -0.308935231001E+02    0.25942E-01   -0.23514E-02  3064   0.136E+00    0.487E-02
RMM:   2    -0.308949521145E+02   -0.14290E-02   -0.36768E-03  1554   0.259E-01    0.309E-02
RMM:   3    -0.308953337094E+02   -0.38159E-03   -0.10029E-03  1289   0.102E-01
     49 T=  1089. E= -.32654453E+02 F= -.30895334E+02 E0= -.30848001E+02  EK= 0.36583E+01 SP= -.56E+01 SK= 0.14E+00 mag=     -0.187
       N       E                     dE             d eps       ncg     rms          rms(c)
DAV:   1    -0.308735473252E+02    0.21405E-01   -0.14560E-02  2248   0.122E+00    0.413E-02
RMM:   2    -0.308748941369E+02   -0.13468E-02   -0.37510E-03  1571   0.307E-01
     50 T=  1026. E= -.32647614E+02 F= -.30874894E+02 E0= -.30827752E+02  EK= 0.34472E+01 SP= -.54E+01 SK= 0.19E+00 mag=     -0.240
       N       E                     dE             d eps       ncg     rms          rms(c)
DAV:   1    -0.308585023260E+02    0.15045E-01   -0.25418E-02  2752   0.135E+00    0.270E-02
RMM:   2    -0.308595958631E+02   -0.10935E-02   -0.39206E-03  1558   0.259E-01
     51 T=   961. E= -.32641287E+02 F= -.30859596E+02 E0= -.30812281E+02  EK= 0.32294E+01 SP= -.52E+01 SK= 0.23E+00 mag=     -0.153
       N       E                     dE             d eps       ncg     rms          rms(c)
DAV:   1    -0.308473420862E+02    0.11160E-01   -0.91357E-03  2200   0.116E+00    0.203E-02
RMM:   2    -0.308483117230E+02   -0.96964E-03   -0.37652E-03  1515   0.299E-01
     52 T=   896. E= -.32637431E+02 F= -.30848312E+02 E0= -.30800900E+02  EK= 0.30113E+01 SP= -.51E+01 SK= 0.26E+00 mag=      0.053
       N       E                     dE             d eps       ncg     rms          rms(c)
DAV:   1    -0.308388500741E+02    0.84920E-02   -0.20322E-02  2768   0.126E+00    0.385E-02
RMM:   2    -0.308399001480E+02   -0.10501E-02   -0.39042E-03  1516   0.273E-01
     53 T=   834. E= -.32631962E+02 F= -.30839900E+02 E0= -.30793035E+02  EK= 0.28035E+01 SP= -.49E+01 SK= 0.28E+00 mag=      0.260
       N       E                     dE             d eps       ncg     rms          rms(c)
DAV:   1    -0.308344520435E+02    0.43980E-02   -0.11803E-02  2480   0.114E+00    0.518E-02
RMM:   2    -0.308356023076E+02   -0.11503E-02   -0.44521E-03  1521   0.319E-01
     54 T=   777. E= -.32625444E+02 F= -.30835602E+02 E0= -.30789171E+02  EK= 0.26120E+01 SP= -.47E+01 SK= 0.28E+00 mag=      0.355
       N       E                     dE             d eps       ncg     rms          rms(c)
DAV:   1    -0.308352000221E+02   -0.74798E-03   -0.15599E-02  2672   0.115E+00    0.412E-02
RMM:   2    -0.308361489048E+02   -0.94888E-03   -0.41108E-03  1542   0.289E-01
     55 T=   726. E= -.32619346E+02 F= -.30836149E+02 E0= -.30789453E+02  EK= 0.24396E+01 SP= -.45E+01 SK= 0.27E+00 mag=      0.237
       N       E                     dE             d eps       ncg     rms          rms(c)
DAV:   1    -0.308402027072E+02   -0.50027E-02   -0.10094E-02  2392   0.105E+00    0.204E-02
RMM:   2    -0.308408265870E+02   -0.62388E-03   -0.37650E-03  1534   0.294E-01
     56 T=   680. E= -.32614948E+02 F= -.30840827E+02 E0= -.30793800E+02  EK= 0.22865E+01 SP= -.43E+01 SK= 0.24E+00 mag=     -0.066
       N       E                     dE             d eps       ncg     rms          rms(c)
DAV:   1    -0.308466331680E+02   -0.64305E-02   -0.13958E-02  2600   0.106E+00    0.565E-02
RMM:   2    -0.308477366123E+02   -0.11034E-02   -0.43519E-03  1510   0.268E-01
     57 T=   641. E= -.32608173E+02 F= -.30847737E+02 E0= -.30801850E+02  EK= 0.21559E+01 SP= -.41E+01 SK= 0.21E+00 mag=     -0.365
       N       E                     dE             d eps       ncg     rms          rms(c)
DAV:   1    -0.308585526778E+02   -0.11920E-01   -0.12377E-02  2512   0.100E+00    0.740E-02
RMM:   2    -0.308599283066E+02   -0.13756E-02   -0.42845E-03  1510   0.298E-01    0.598E-02
RMM:   3    -0.308607114428E+02   -0.78314E-03   -0.13433E-03  1446   0.115E-01
     58 T=   609. E= -.32603609E+02 F= -.30860711E+02 E0= -.30815009E+02  EK= 0.20471E+01 SP= -.40E+01 SK= 0.18E+00 mag=     -0.219
       N       E                     dE             d eps       ncg     rms          rms(c)
DAV:   1    -0.308782132629E+02   -0.18285E-01   -0.17535E-02  2552   0.938E-01    0.477E-02
RMM:   2    -0.308790553068E+02   -0.84204E-03   -0.32374E-03  1472   0.249E-01
     59 T=   584. E= -.32598799E+02 F= -.30879055E+02 E0= -.30832790E+02  EK= 0.19615E+01 SP= -.38E+01 SK= 0.14E+00 mag=      0.266
       N       E                     dE             d eps       ncg     rms          rms(c)
DAV:   1    -0.308928481534E+02   -0.14635E-01   -0.32667E-02  2536   0.101E+00    0.123E-01
RMM:   2    -0.308958756464E+02   -0.30275E-02   -0.60776E-03  1503   0.258E-01    0.991E-02
RMM:   3    -0.308990327531E+02   -0.31571E-02   -0.38361E-03  1402   0.121E-01    0.712E-02
RMM:   4    -0.309009117132E+02   -0.18790E-02   -0.25151E-03  1410   0.943E-02    0.435E-02
RMM:   5    -0.309019773313E+02   -0.10656E-02   -0.27471E-03  1461   0.842E-02
     60 T=   564. E= -.32595575E+02 F= -.30901977E+02 E0= -.30855529E+02  EK= 0.18959E+01 SP= -.37E+01 SK= 0.10E+00 mag=      0.050
       N       E                     dE             d eps       ncg     rms          rms(c)
DAV:   1    -0.309225663418E+02   -0.21655E-01   -0.15751E-02  2392   0.890E-01    0.102E-01
RMM:   2    -0.309248542652E+02   -0.22879E-02   -0.57710E-03  1444   0.220E-01    0.840E-02
RMM:   3    -0.309266792209E+02   -0.18250E-02   -0.23252E-03  1400   0.869E-02    0.634E-02
RMM:   4    -0.309282713198E+02   -0.15921E-02   -0.21717E-03  1415   0.688E-02    0.385E-02
RMM:   5    -0.309289941188E+02   -0.72280E-03   -0.16951E-03  1398   0.612E-02
     61 T=   550. E= -.32594572E+02 F= -.30928994E+02 E0= -.30882690E+02  EK= 0.18485E+01 SP= -.36E+01 SK= 0.72E-01 mag=     -0.063
       N       E                     dE             d eps       ncg     rms          rms(c)
DAV:   1    -0.309599911687E+02   -0.31720E-01   -0.14552E-02  2384   0.868E-01    0.407E-02
RMM:   2    -0.309606586911E+02   -0.66752E-03   -0.32525E-03  1470   0.232E-01
     62 T=   543. E= -.32591550E+02 F= -.30960659E+02 E0= -.30914482E+02  EK= 0.18234E+01 SP= -.35E+01 SK= 0.44E-01 mag=     -0.056
       N       E                     dE             d eps       ncg     rms          rms(c)
DAV:   1    -0.309968850117E+02   -0.36894E-01   -0.13314E-02  2616   0.945E-01    0.373E-02
RMM:   2    -0.309975693776E+02   -0.68437E-03   -0.34067E-03  1493   0.240E-01
     63 T=   541. E= -.32588150E+02 F= -.30997569E+02 E0= -.30951544E+02  EK= 0.18190E+01 SP= -.34E+01 SK= 0.23E-01 mag=      0.054
       N       E                     dE             d eps       ncg     rms          rms(c)
DAV:   1    -0.310386328113E+02   -0.41748E-01   -0.67373E-03  2136   0.867E-01    0.386E-02
RMM:   2    -0.310391839871E+02   -0.55118E-03   -0.25563E-03  1520   0.226E-01
     64 T=   545. E= -.32585434E+02 F= -.31039184E+02 E0= -.30993469E+02  EK= 0.18331E+01 SP= -.34E+01 SK= 0.86E-02 mag=      0.180
       N       E                     dE             d eps       ncg     rms          rms(c)
DAV:   1    -0.310844133928E+02   -0.45781E-01   -0.84658E-03  2328   0.939E-01    0.395E-02
RMM:   2    -0.310851041418E+02   -0.69075E-03   -0.32024E-03  1511   0.234E-01
     65 T=   555. E= -.32581612E+02 F= -.31085104E+02 E0= -.31039695E+02  EK= 0.18668E+01 SP= -.34E+01 SK= 0.13E-02 mag=      0.240
       N       E                     dE             d eps       ncg     rms          rms(c)
DAV:   1    -0.311344071679E+02   -0.49994E-01   -0.60678E-03  2088   0.873E-01    0.435E-02
RMM:   2    -0.311352126953E+02   -0.80553E-03   -0.35567E-03  1513   0.248E-01
     66 T=   571. E= -.32576828E+02 F= -.31135213E+02 E0= -.31089832E+02  EK= 0.19196E+01 SP= -.34E+01 SK= 0.31E-03 mag=      0.157
       N       E                     dE             d eps       ncg     rms          rms(c)
DAV:   1    -0.311888705534E+02   -0.54463E-01   -0.89308E-03  2208   0.958E-01    0.320E-02
RMM:   2    -0.311894517408E+02   -0.58119E-03   -0.32933E-03  1516   0.259E-01
     67 T=   592. E= -.32572111E+02 F= -.31189452E+02 E0= -.31143971E+02  EK= 0.19903E+01 SP= -.34E+01 SK= 0.45E-02 mag=     -0.050
       N       E                     dE             d eps       ncg     rms          rms(c)
DAV:   1    -0.312448255063E+02   -0.55955E-01   -0.10449E-02  2392   0.907E-01    0.449E-02
RMM:   2    -0.312457054265E+02   -0.87992E-03   -0.40927E-03  1538   0.255E-01
     68 T=   618. E= -.32566935E+02 F= -.31245705E+02 E0= -.31200798E+02  EK= 0.20769E+01 SP= -.34E+01 SK= 0.12E-01 mag=     -0.269
       N       E                     dE             d eps       ncg     rms          rms(c)
DAV:   1    -0.313029552683E+02   -0.58130E-01   -0.11681E-02  2376   0.961E-01    0.652E-02
RMM:   2    -0.313043023275E+02   -0.13471E-02   -0.45558E-03  1540   0.265E-01
     69 T=   648. E= -.32562232E+02 F= -.31304302E+02 E0= -.31259959E+02  EK= 0.21786E+01 SP= -.35E+01 SK= 0.22E-01 mag=     -0.335
       N       E                     dE             d eps       ncg     rms          rms(c)
DAV:   1    -0.313656350434E+02   -0.62680E-01   -0.11359E-02  2352   0.971E-01    0.484E-02
RMM:   2    -0.313665888629E+02   -0.95382E-03   -0.42222E-03  1538   0.269E-01
     70 T=   683. E= -.32559476E+02 F= -.31366589E+02 E0= -.31321777E+02  EK= 0.22943E+01 SP= -.35E+01 SK= 0.33E-01 mag=     -0.175
       N       E                     dE             d eps       ncg     rms          rms(c)
DAV:   1    -0.314282580631E+02   -0.62623E-01   -0.13489E-02  2392   0.996E-01    0.340E-02
RMM:   2    -0.314291835135E+02   -0.92545E-03   -0.53609E-03  1597   0.292E-01
     71 T=   721. E= -.32555390E+02 F= -.31429184E+02 E0= -.31384383E+02  EK= 0.24230E+01 SP= -.36E+01 SK= 0.41E-01 mag=      0.157
       N       E                     dE             d eps       ncg     rms          rms(c)
DAV:   1    -0.314872007362E+02   -0.58943E-01   -0.17490E-02  2560   0.104E+00    0.833E-02
RMM:   2    -0.314892644900E+02   -0.20638E-02   -0.68449E-03  1609   0.304E-01    0.671E-02
RMM:   3    -0.314905230395E+02   -0.12585E-02   -0.25398E-03  1409   0.124E-01
     72 T=   762. E= -.32550698E+02 F= -.31490523E+02 E0= -.31446577E+02  EK= 0.25606E+01 SP= -.37E+01 SK= 0.47E-01 mag=      0.262
       N       E                     dE             d eps       ncg     rms          rms(c)
DAV:   1    -0.315525434662E+02   -0.63279E-01   -0.21056E-02  2536   0.106E+00    0.440E-02
RMM:   2    -0.315533220374E+02   -0.77857E-03   -0.33517E-03  1456   0.245E-01
     73 T=   805. E= -.32547519E+02 F= -.31553322E+02 E0= -.31508822E+02  EK= 0.27052E+01 SP= -.37E+01 SK= 0.48E-01 mag=      0.097
       N       E                     dE             d eps       ncg     rms          rms(c)
DAV:   1    -0.316113486811E+02   -0.58805E-01   -0.26926E-02  2848   0.114E+00    0.530E-02
RMM:   2    -0.316126120567E+02   -0.12634E-02   -0.50832E-03  1572   0.258E-01
     74 T=   848. E= -.32543014E+02 F= -.31612612E+02 E0= -.31568533E+02  EK= 0.28515E+01 SP= -.38E+01 SK= 0.46E-01 mag=     -0.232
       N       E                     dE             d eps       ncg     rms          rms(c)
DAV:   1    -0.316658941842E+02   -0.54546E-01   -0.13133E-02  2224   0.107E+00    0.921E-02
RMM:   2    -0.316681407228E+02   -0.22465E-02   -0.56433E-03  1590   0.312E-01    0.726E-02
RMM:   3    -0.316698470548E+02   -0.17063E-02   -0.28129E-03  1400   0.140E-01    0.505E-02
RMM:   4    -0.316708316327E+02   -0.98458E-03   -0.16844E-03  1402   0.985E-02
     75 T=   890. E= -.32542513E+02 F= -.31670832E+02 E0= -.31626862E+02  EK= 0.29926E+01 SP= -.39E+01 SK= 0.39E-01 mag=     -0.059
       N       E                     dE             d eps       ncg     rms          rms(c)
DAV:   1    -0.317205492168E+02   -0.50702E-01   -0.28069E-02  2632   0.120E+00    0.962E-02
RMM:   2    -0.317229213573E+02   -0.23721E-02   -0.44291E-03  1542   0.261E-01    0.740E-02
RMM:   3    -0.317242510049E+02   -0.13296E-02   -0.18566E-03  1398   0.106E-01
     76 T=   931. E= -.32538671E+02 F= -.31724251E+02 E0= -.31680854E+02  EK= 0.31276E+01 SP= -.40E+01 SK= 0.30E-01 mag=      0.208
       N       E                     dE             d eps       ncg     rms          rms(c)
DAV:   1    -0.317715143396E+02   -0.48593E-01   -0.49559E-02  2672   0.118E+00    0.791E-02
RMM:   2    -0.317733833757E+02   -0.18690E-02   -0.62381E-03  1596   0.321E-01    0.609E-02
RMM:   3    -0.317741162189E+02   -0.73284E-03   -0.16480E-03  1481   0.120E-01
     77 T=   967. E= -.32534813E+02 F= -.31774116E+02 E0= -.31731076E+02  EK= 0.32494E+01 SP= -.40E+01 SK= 0.19E-01 mag=      0.188
       N       E                     dE             d eps       ncg     rms          rms(c)
DAV:   1    -0.318189132985E+02   -0.45530E-01   -0.22959E-02  2608   0.117E+00    0.453E-02
RMM:   2    -0.318202531015E+02   -0.13398E-02   -0.56135E-03  1569   0.300E-01
     78 T=   998. E= -.32530683E+02 F= -.31820253E+02 E0= -.31776791E+02  EK= 0.33532E+01 SP= -.41E+01 SK= 0.95E-02 mag=     -0.090
       N       E                     dE             d eps       ncg     rms          rms(c)
DAV:   1    -0.318553100237E+02   -0.36397E-01   -0.42134E-02  3024   0.125E+00    0.918E-02
RMM:   2    -0.318577727180E+02   -0.24627E-02   -0.71417E-03  1588   0.301E-01    0.683E-02
RMM:   3    -0.318591889483E+02   -0.14162E-02   -0.25168E-03  1473   0.124E-01    0.532E-02
RMM:   4    -0.318601630746E+02   -0.97413E-03   -0.16269E-03  1410   0.831E-02
     79 T=  1021. E= -.32527084E+02 F= -.31860163E+02 E0= -.31817086E+02  EK= 0.34311E+01 SP= -.41E+01 SK= 0.25E-02 mag=     -0.049
       N       E                     dE             d eps       ncg     rms          rms(c)
DAV:   1    -0.318906386039E+02   -0.31450E-01   -0.22907E-02  2616   0.116E+00    0.757E-02
RMM:   2    -0.318926447717E+02   -0.20062E-02   -0.48061E-03  1525   0.271E-01    0.532E-02
RMM:   3    -0.318934531853E+02   -0.80841E-03   -0.18076E-03  1399   0.106E-01
     80 T=  1035. E= -.32524101E+02 F= -.31893453E+02 E0= -.31850635E+02  EK= 0.34789E+01 SP= -.41E+01 SK= 0.38E-05 mag=      0.086
       N       E                     dE             d eps       ncg     rms          rms(c)
DAV:   1    -0.319190140187E+02   -0.26369E-01   -0.41549E-02  2872   0.122E+00    0.564E-02
RMM:   2    -0.319205256534E+02   -0.15116E-02   -0.51303E-03  1553   0.290E-01    0.401E-02
RMM:   3    -0.319209408619E+02   -0.41521E-03   -0.13138E-03  1410   0.110E-01
     81 T=  1040. E= -.32520142E+02 F= -.31920941E+02 E0= -.31878360E+02  EK= 0.34968E+01 SP= -.41E+01 SK= 0.32E-02 mag=      0.132
       N       E                     dE             d eps       ncg     rms          rms(c)
DAV:   1    -0.319407846358E+02   -0.20259E-01   -0.23998E-02  2720   0.116E+00    0.379E-02
RMM:   2    -0.319421382528E+02   -0.13536E-02   -0.47693E-03  1553   0.273E-01    0.251E-02
RMM:   3    -0.319423632813E+02   -0.22503E-03   -0.12489E-03  1231   0.112E-01
     82 T=  1036. E= -.32517519E+02 F= -.31942363E+02 E0= -.31899873E+02  EK= 0.34814E+01 SP= -.41E+01 SK= 0.12E-01 mag=      0.048
       N       E                     dE             d eps       ncg     rms          rms(c)
DAV:   1    -0.319553997078E+02   -0.13261E-01   -0.16871E-02  2312   0.117E+00    0.365E-02
RMM:   2    -0.319566284394E+02   -0.12287E-02   -0.33569E-03  1579   0.245E-01
     83 T=  1023. E= -.32512216E+02 F= -.31956628E+02 E0= -.31914320E+02  EK= 0.34368E+01 SP= -.40E+01 SK= 0.26E-01 mag=     -0.106
       N       E                     dE             d eps       ncg     rms          rms(c)
DAV:   1    -0.319625557316E+02   -0.71560E-02   -0.18707E-02  2840   0.120E+00    0.514E-02
RMM:   2    -0.319641292575E+02   -0.15735E-02   -0.44168E-03  1561   0.259E-01    0.392E-02
RMM:   3    -0.319646977499E+02   -0.56849E-03   -0.16194E-03  1400   0.112E-01
     84 T=  1001. E= -.32507801E+02 F= -.31964698E+02 E0= -.31922555E+02  EK= 0.33629E+01 SP= -.40E+01 SK= 0.44E-01 mag=     -0.080
       N       E                     dE             d eps       ncg     rms          rms(c)
DAV:   1    -0.319652391086E+02   -0.11099E-02   -0.17231E-02  2288   0.109E+00    0.463E-02
RMM:   2    -0.319666247464E+02   -0.13856E-02   -0.30019E-03  1507   0.262E-01    0.317E-02
RMM:   3    -0.319668394509E+02   -0.21470E-03   -0.76533E-04  1215   0.958E-02
     85 T=   971. E= -.32503535E+02 F= -.31966839E+02 E0= -.31924645E+02  EK= 0.32647E+01 SP= -.39E+01 SK= 0.64E-01 mag=      0.037
       N       E                     dE             d eps       ncg     rms          rms(c)
DAV:   1    -0.319613439052E+02    0.52808E-02   -0.21541E-02  2864   0.112E+00    0.442E-02
RMM:   2    -0.319625510350E+02   -0.12071E-02   -0.38012E-03  1514   0.246E-01
     86 T=   937. E= -.32496668E+02 F= -.31962551E+02 E0= -.31920430E+02  EK= 0.31491E+01 SP= -.38E+01 SK= 0.83E-01 mag=      0.153
       N       E                     dE             d eps       ncg     rms          rms(c)
DAV:   1    -0.319516236894E+02    0.97202E-02   -0.14456E-02  2392   0.116E+00    0.487E-02
RMM:   2    -0.319530428683E+02   -0.14192E-02   -0.52717E-03  1552   0.269E-01    0.349E-02
RMM:   3    -0.319534439759E+02   -0.40111E-03   -0.16400E-03  1436   0.110E-01
     87 T=   898. E= -.32493079E+02 F= -.31953444E+02 E0= -.31911252E+02  EK= 0.30170E+01 SP= -.37E+01 SK= 0.99E-01 mag=      0.090
       N       E                     dE             d eps       ncg     rms          rms(c)
DAV:   1    -0.319382967925E+02    0.14746E-01   -0.15364E-02  2224   0.105E+00    0.474E-02
RMM:   2    -0.319393557783E+02   -0.10590E-02   -0.28839E-03  1520   0.252E-01
     88 T=   857. E= -.32487321E+02 F= -.31939356E+02 E0= -.31896975E+02  EK= 0.28787E+01 SP= -.35E+01 SK= 0.11E+00 mag=     -0.097
       N       E                     dE             d eps       ncg     rms          rms(c)
DAV:   1    -0.319180315738E+02    0.20265E-01   -0.21873E-02  3008   0.116E+00    0.697E-02
RMM:   2    -0.319195896708E+02   -0.15581E-02   -0.43537E-03  1503   0.233E-01    0.521E-02
RMM:   3    -0.319206149183E+02   -0.10252E-02   -0.20646E-03  1403   0.108E-01
     89 T=   815. E= -.32481167E+02 F= -.31920615E+02 E0= -.31878161E+02  EK= 0.27374E+01 SP= -.34E+01 SK= 0.12E+00 mag=     -0.061
       N       E                     dE             d eps       ncg     rms          rms(c)
DAV:   1    -0.318966716820E+02    0.22918E-01   -0.14961E-02  2512   0.984E-01    0.573E-02
RMM:   2    -0.318979407569E+02   -0.12691E-02   -0.35621E-03  1461   0.253E-01
     90 T=   773. E= -.32475856E+02 F= -.31897941E+02 E0= -.31855219E+02  EK= 0.25965E+01 SP= -.33E+01 SK= 0.11E+00 mag=      0.110
       N       E                     dE             d eps       ncg     rms          rms(c)
DAV:   1    -0.318693383238E+02    0.27333E-01   -0.26226E-02  2968   0.112E+00    0.802E-02
RMM:   2    -0.318710039646E+02   -0.16656E-02   -0.43128E-03  1517   0.237E-01    0.601E-02
RMM:   3    -0.318719491717E+02   -0.94521E-03   -0.15037E-03  1407   0.101E-01
     91 T=   732. E= -.32470772E+02 F= -.31871949E+02 E0= -.31829133E+02  EK= 0.24607E+01 SP= -.32E+01 SK= 0.11E+00 mag=      0.072
       N       E                     dE             d eps       ncg     rms          rms(c)
DAV:   1    -0.318423157250E+02    0.28688E-01   -0.17640E-02  2456   0.960E-01    0.724E-02
RMM:   2    -0.318435698563E+02   -0.12541E-02   -0.34020E-03  1449   0.241E-01
     92 T=   694. E= -.32466253E+02 F= -.31843570E+02 E0= -.31800359E+02  EK= 0.23328E+01 SP= -.31E+01 SK= 0.95E-01 mag=     -0.095
       N       E                     dE             d eps       ncg     rms          rms(c)
DAV:   1    -0.318094475636E+02    0.32868E-01   -0.30703E-02  2864   0.107E+00    0.876E-02
RMM:   2    -0.318113443881E+02   -0.18968E-02   -0.48887E-03  1515   0.251E-01    0.642E-02
RMM:   3    -0.318125646984E+02   -0.12203E-02   -0.20984E-03  1428   0.107E-01
     93 T=   659. E= -.32461190E+02 F= -.31812565E+02 E0= -.31769207E+02  EK= 0.22155E+01 SP= -.29E+01 SK= 0.78E-01 mag=     -0.079
       N       E                     dE             d eps       ncg     rms          rms(c)
DAV:   1    -0.317783762738E+02    0.32968E-01   -0.13968E-02  2448   0.919E-01    0.810E-02
RMM:   2    -0.317798069354E+02   -0.14307E-02   -0.48621E-03  1458   0.263E-01    0.545E-02
RMM:   3    -0.317802159432E+02   -0.40901E-03   -0.11147E-03  1353   0.106E-01
     94 T=   627. E= -.32458638E+02 F= -.31780216E+02 E0= -.31736430E+02  EK= 0.21083E+01 SP= -.28E+01 SK= 0.60E-01 mag=      0.011
       N       E                     dE             d eps       ncg     rms          rms(c)
DAV:   1    -0.317445671451E+02    0.35240E-01   -0.32166E-02  2464   0.928E-01    0.609E-02
RMM:   2    -0.317455449311E+02   -0.97779E-03   -0.39727E-03  1521   0.253E-01
     95 T=   600. E= -.32453627E+02 F= -.31745545E+02 E0= -.31701615E+02  EK= 0.20157E+01 SP= -.28E+01 SK= 0.41E-01 mag=      0.113
       N       E                     dE             d eps       ncg     rms          rms(c)
DAV:   1    -0.317089107217E+02    0.35656E-01   -0.26801E-02  2624   0.982E-01    0.604E-02
RMM:   2    -0.317099537483E+02   -0.10430E-02   -0.39672E-03  1520   0.252E-01
     96 T=   576. E= -.32448915E+02 F= -.31709954E+02 E0= -.31665844E+02  EK= 0.19367E+01 SP= -.27E+01 SK= 0.24E-01 mag=      0.144
       N       E                     dE             d eps       ncg     rms          rms(c)
DAV:   1    -0.316739306688E+02    0.34980E-01   -0.12128E-02  2560   0.939E-01    0.381E-02
RMM:   2    -0.316746371229E+02   -0.70645E-03   -0.37262E-03  1519   0.269E-01
     97 T=   557. E= -.32444937E+02 F= -.31674637E+02 E0= -.31630092E+02  EK= 0.18722E+01 SP= -.27E+01 SK= 0.10E-01 mag=      0.071
       N       E                     dE             d eps       ncg     rms          rms(c)
DAV:   1    -0.316374256197E+02    0.36505E-01   -0.13088E-02  2232   0.954E-01    0.453E-02
RMM:   2    -0.316381934366E+02   -0.76782E-03   -0.40336E-03  1518   0.258E-01
     98 T=   542. E= -.32439852E+02 F= -.31638193E+02 E0= -.31593385E+02  EK= 0.18225E+01 SP= -.26E+01 SK= 0.19E-02 mag=     -0.069
       N       E                     dE             d eps       ncg     rms          rms(c)
DAV:   1    -0.315997300451E+02    0.37696E-01   -0.10400E-02  2424   0.882E-01    0.617E-02
RMM:   2    -0.316009034589E+02   -0.11734E-02   -0.42627E-03  1535   0.261E-01
     99 T=   532. E= -.32434410E+02 F= -.31600903E+02 E0= -.31556137E+02  EK= 0.17871E+01 SP= -.26E+01 SK= 0.27E-03 mag=     -0.168
       N       E                     dE             d eps       ncg     rms          rms(c)
DAV:   1    -0.315640729166E+02    0.35657E-01   -0.99434E-03  2512   0.941E-01    0.553E-02
RMM:   2    -0.315649996313E+02   -0.92671E-03   -0.41233E-03  1531   0.265E-01
    100 T=   526. E= -.32429815E+02 F= -.31565000E+02 E0= -.31519925E+02  EK= 0.17671E+01 SP= -.26E+01 SK= 0.61E-02 mag=     -0.135
       N       E                     dE             d eps       ncg     rms          rms(c)
DAV:   1    -0.315286263516E+02    0.35447E-01   -0.13053E-02  2200   0.881E-01    0.383E-02
RMM:   2    -0.315293592570E+02   -0.73291E-03   -0.43570E-03  1522   0.285E-01
    101 T=   524. E= -.32425355E+02 F= -.31529359E+02 E0= -.31483872E+02  EK= 0.17622E+01 SP= -.27E+01 SK= 0.20E-01 mag=      0.021
       N       E                     dE             d eps       ncg     rms          rms(c)
DAV:   1    -0.314910252173E+02    0.37601E-01   -0.17776E-02  2512   0.917E-01    0.749E-02
RMM:   2    -0.314925119986E+02   -0.14868E-02   -0.49792E-03  1518   0.260E-01    0.584E-02
RMM:   3    -0.314935533100E+02   -0.10413E-02   -0.23938E-03  1402   0.114E-01
    102 T=   527. E= -.32421358E+02 F= -.31493553E+02 E0= -.31448063E+02  EK= 0.17718E+01 SP= -.27E+01 SK= 0.41E-01 mag=      0.072
       N       E                     dE             d eps       ncg     rms          rms(c)
DAV:   1    -0.314581994789E+02    0.34313E-01   -0.14812E-02  2416   0.850E-01    0.642E-02
RMM:   2    -0.314591011616E+02   -0.90168E-03   -0.38049E-03  1448   0.241E-01
    103 T=   535. E= -.32418189E+02 F= -.31459101E+02 E0= -.31413324E+02  EK= 0.17973E+01 SP= -.28E+01 SK= 0.70E-01 mag=      0.012
       N       E                     dE             d eps       ncg     rms          rms(c)
DAV:   1    -0.314226779152E+02    0.35522E-01   -0.30890E-02  2520   0.933E-01    0.758E-02
RMM:   2    -0.314242319295E+02   -0.15540E-02   -0.45679E-03  1540   0.246E-01    0.579E-02
RMM:   3    -0.314251453426E+02   -0.91341E-03   -0.16279E-03  1426   0.103E-01
    104 T=   547. E= -.32415142E+02 F= -.31425145E+02 E0= -.31379342E+02  EK= 0.18393E+01 SP= -.29E+01 SK= 0.10E+00 mag=     -0.033
       N       E                     dE             d eps       ncg     rms          rms(c)
DAV:   1    -0.313917902227E+02    0.32442E-01   -0.15068E-02  2504   0.856E-01    0.787E-02
RMM:   2    -0.313928228068E+02   -0.10326E-02   -0.39922E-03  1414   0.230E-01
    105 T=   565. E= -.32413346E+02 F= -.31392823E+02 E0= -.31346874E+02  EK= 0.18982E+01 SP= -.31E+01 SK= 0.14E+00 mag=     -0.041
       N       E                     dE             d eps       ncg     rms          rms(c)
DAV:   1    -0.313576401929E+02    0.34150E-01   -0.32329E-02  2568   0.955E-01    0.944E-02
RMM:   2    -0.313596889117E+02   -0.20487E-02   -0.52675E-03  1524   0.270E-01    0.706E-02
RMM:   3    -0.313611076587E+02   -0.14187E-02   -0.23808E-03  1422   0.115E-01    0.510E-02
RMM:   4    -0.313621747988E+02   -0.10671E-02   -0.23147E-03  1426   0.904E-02
    106 T=   588. E= -.32412445E+02 F= -.31362175E+02 E0= -.31316081E+02  EK= 0.19752E+01 SP= -.32E+01 SK= 0.18E+00 mag=     -0.009
       N       E                     dE             d eps       ncg     rms          rms(c)
DAV:   1    -0.313287916366E+02    0.32316E-01   -0.18770E-02  2432   0.896E-01    0.115E-01
RMM:   2    -0.313304467804E+02   -0.16551E-02   -0.53377E-03  1490   0.244E-01    0.780E-02
RMM:   3    -0.313315086348E+02   -0.10619E-02   -0.23044E-03  1400   0.105E-01
    107 T=   616. E= -.32410551E+02 F= -.31331509E+02 E0= -.31285580E+02  EK= 0.20711E+01 SP= -.34E+01 SK= 0.23E+00 mag=      0.026
       N       E                     dE             d eps       ncg     rms          rms(c)
DAV:   1    -0.313019544565E+02    0.28492E-01   -0.26282E-02  2512   0.964E-01    0.900E-02
RMM:   2    -0.313030342954E+02   -0.10798E-02   -0.37787E-03  1481   0.261E-01
    108 T=   651. E= -.32407680E+02 F= -.31303034E+02 E0= -.31257206E+02  EK= 0.21888E+01 SP= -.36E+01 SK= 0.26E+00 mag=      0.042
       N       E                     dE             d eps       ncg     rms          rms(c)
DAV:   1    -0.312762406993E+02    0.25714E-01   -0.18976E-02  2776   0.103E+00    0.608E-02
RMM:   2    -0.312770689888E+02   -0.82829E-03   -0.38830E-03  1519   0.258E-01
    109 T=   692. E= -.32406965E+02 F= -.31277069E+02 E0= -.31231130E+02  EK= 0.23258E+01 SP= -.37E+01 SK= 0.29E+00 mag=      0.030
       N       E                     dE             d eps       ncg     rms          rms(c)
DAV:   1    -0.312509744260E+02    0.25266E-01   -0.15147E-02  2408   0.973E-01    0.652E-02
RMM:   2    -0.312518345131E+02   -0.86009E-03   -0.43667E-03  1526   0.275E-01
    110 T=   739. E= -.32405198E+02 F= -.31251835E+02 E0= -.31206023E+02  EK= 0.24830E+01 SP= -.40E+01 SK= 0.32E+00 mag=     -0.010
       N       E                     dE             d eps       ncg     rms          rms(c)
DAV:   1    -0.312249618785E+02    0.26013E-01   -0.18068E-02  2624   0.112E+00    0.735E-02
RMM:   2    -0.312266842505E+02   -0.17224E-02   -0.54947E-03  1542   0.286E-01    0.562E-02
RMM:   3    -0.312278927379E+02   -0.12085E-02   -0.28752E-03  1401   0.124E-01
    111 T=   791. E= -.32402297E+02 F= -.31227893E+02 E0= -.31182375E+02  EK= 0.26599E+01 SP= -.42E+01 SK= 0.32E+00 mag=     -0.024
       N       E                     dE             d eps       ncg     rms          rms(c)
DAV:   1    -0.312049148664E+02    0.21769E-01   -0.16829E-02  2600   0.107E+00    0.768E-02
RMM:   2    -0.312058771782E+02   -0.96231E-03   -0.33093E-03  1457   0.265E-01
    112 T=   849. E= -.32398310E+02 F= -.31205877E+02 E0= -.31160519E+02  EK= 0.28549E+01 SP= -.44E+01 SK= 0.32E+00 mag=     -0.007
       N       E                     dE             d eps       ncg     rms          rms(c)
DAV:   1    -0.311812958450E+02    0.23619E-01   -0.31650E-02  3080   0.122E+00    0.826E-02
RMM:   2    -0.311832658796E+02   -0.19700E-02   -0.55572E-03  1529   0.268E-01    0.611E-02
RMM:   3    -0.311842864237E+02   -0.10205E-02   -0.17045E-03  1409   0.111E-01
    113 T=   911. E= -.32394095E+02 F= -.31184286E+02 E0= -.31139384E+02  EK= 0.30614E+01 SP= -.46E+01 SK= 0.30E+00 mag=      0.016
       N       E                     dE             d eps       ncg     rms          rms(c)
DAV:   1    -0.311633457822E+02    0.19920E-01   -0.20044E-02  2592   0.113E+00    0.917E-02
RMM:   2    -0.311647451702E+02   -0.13994E-02   -0.47311E-03  1525   0.288E-01    0.560E-02
RMM:   3    -0.311649922615E+02   -0.24709E-03   -0.11433E-03  1275   0.113E-01
    114 T=   973. E= -.32393860E+02 F= -.31164992E+02 E0= -.31120265E+02  EK= 0.32712E+01 SP= -.48E+01 SK= 0.27E+00 mag=      0.016
       N       E                     dE             d eps       ncg     rms          rms(c)
DAV:   1    -0.311436135052E+02    0.21132E-01   -0.36850E-02  2784   0.126E+00    0.693E-02
RMM:   2    -0.311450764858E+02   -0.14630E-02   -0.52617E-03  1586   0.312E-01    0.467E-02
RMM:   3    -0.311454649903E+02   -0.38850E-03   -0.15944E-03  1455   0.115E-01
    115 T=  1035. E= -.32391571E+02 F= -.31145465E+02 E0= -.31101231E+02  EK= 0.34799E+01 SP= -.49E+01 SK= 0.22E+00 mag=     -0.006
       N       E                     dE             d eps       ncg     rms          rms(c)
DAV:   1    -0.311253584990E+02    0.19718E-01   -0.19938E-02  2656   0.127E+00    0.424E-02
RMM:   2    -0.311266609794E+02   -0.13025E-02   -0.43349E-03  1604   0.317E-01
    116 T=  1095. E= -.32387865E+02 F= -.31126661E+02 E0= -.31082855E+02  EK= 0.36784E+01 SP= -.51E+01 SK= 0.17E+00 mag=     -0.032
       N       E                     dE             d eps       ncg     rms          rms(c)
DAV:   1    -0.311055996095E+02    0.19759E-01   -0.25017E-02  2632   0.134E+00    0.419E-02
RMM:   2    -0.311072321244E+02   -0.16325E-02   -0.58679E-03  1624   0.320E-01    0.252E-02
RMM:   3    -0.311075035264E+02   -0.27140E-03   -0.14930E-03  1458   0.121E-01
    117 T=  1146. E= -.32385397E+02 F= -.31107504E+02 E0= -.31064170E+02  EK= 0.38524E+01 SP= -.52E+01 SK= 0.11E+00 mag=     -0.023
       N       E                     dE             d eps       ncg     rms          rms(c)
DAV:   1    -0.310857076528E+02    0.21524E-01   -0.20624E-02  2264   0.132E+00    0.481E-02
RMM:   2    -0.310873431072E+02   -0.16355E-02   -0.35689E-03  1591   0.288E-01    0.317E-02
RMM:   3    -0.310876255186E+02   -0.28241E-03   -0.97333E-04  1301   0.111E-01
    118 T=  1188. E= -.32382838E+02 F= -.31087626E+02 E0= -.31044852E+02  EK= 0.39919E+01 SP= -.54E+01 SK= 0.64E-01 mag=      0.007
       N       E                     dE             d eps       ncg     rms          rms(c)
DAV:   1    -0.310653346331E+02    0.22008E-01   -0.25052E-02  2504   0.134E+00    0.334E-02
RMM:   2    -0.310669096270E+02   -0.15750E-02   -0.41878E-03  1629   0.300E-01    0.194E-02
RMM:   3    -0.310670924133E+02   -0.18279E-03   -0.99481E-04  1207   0.108E-01
    119 T=  1217. E= -.32378575E+02 F= -.31067092E+02 E0= -.31024875E+02  EK= 0.40890E+01 SP= -.54E+01 SK= 0.26E-01 mag=      0.020
       N       E                     dE             d eps       ncg     rms          rms(c)
DAV:   1    -0.310436697823E+02    0.23240E-01   -0.20495E-02  2272   0.132E+00    0.278E-02
RMM:   2    -0.310453570563E+02   -0.16873E-02   -0.40886E-03  1617   0.295E-01    0.183E-02
RMM:   3    -0.310455073919E+02   -0.15034E-03   -0.78208E-04  1190   0.113E-01
    120 T=  1230. E= -.32375465E+02 F= -.31045507E+02 E0= -.31003884E+02  EK= 0.41332E+01 SP= -.55E+01 SK= 0.41E-02 mag=      0.006
       N       E                     dE             d eps       ncg     rms          rms(c)
DAV:   1    -0.310201653079E+02    0.25192E-01   -0.24170E-02  2248   0.136E+00    0.301E-02
RMM:   2    -0.310219071594E+02   -0.17419E-02   -0.39239E-03  1634   0.302E-01    0.187E-02
RMM:   3    -0.310221064403E+02   -0.19928E-03   -0.90275E-04  1232   0.114E-01
    121 T=  1227. E= -.32370967E+02 F= -.31022106E+02 E0= -.30981087E+02  EK= 0.41228E+01 SP= -.55E+01 SK= 0.11E-02 mag=     -0.015
       N       E                     dE             d eps       ncg     rms          rms(c)
DAV:   1    -0.309954645277E+02    0.26443E-01   -0.21899E-02  2184   0.132E+00    0.198E-02
RMM:   2    -0.309971447297E+02   -0.16802E-02   -0.36725E-03  1505   0.294E-01    0.109E-02
RMM:   3    -0.309972653742E+02   -0.12064E-03   -0.72116E-04  1133   0.110E-01
    122 T=  1207. E= -.32365699E+02 F= -.30997265E+02 E0= -.30956816E+02  EK= 0.40579E+01 SP= -.54E+01 SK= 0.17E-01 mag=     -0.022
       N       E                     dE             d eps       ncg     rms          rms(c)
DAV:   1    -0.309694070295E+02    0.27738E-01   -0.21840E-02  2160   0.129E+00    0.239E-02
RMM:   2    -0.309710838629E+02   -0.16768E-02   -0.33942E-03  1520   0.291E-01    0.149E-02
RMM:   3    -0.309712276187E+02   -0.14376E-03   -0.72358E-04  1172   0.110E-01
    123 T=  1173. E= -.32359822E+02 F= -.30971228E+02 E0= -.30931361E+02  EK= 0.39433E+01 SP= -.54E+01 SK= 0.47E-01 mag=     -0.006
       N       E                     dE             d eps       ncg     rms          rms(c)
DAV:   1    -0.309426221986E+02    0.28462E-01   -0.20296E-02  2080   0.129E+00    0.246E-02
RMM:   2    -0.309442166232E+02   -0.15944E-02   -0.34657E-03  1549   0.295E-01    0.157E-02
RMM:   3    -0.309443668996E+02   -0.15028E-03   -0.72764E-04  1175   0.110E-01
    124 T=  1127. E= -.32353777E+02 F= -.30944367E+02 E0= -.30905057E+02  EK= 0.37869E+01 SP= -.53E+01 SK= 0.88E-01 mag=      0.013
       N       E                     dE             d eps       ncg     rms          rms(c)
DAV:   1    -0.309155924231E+02    0.28624E-01   -0.18924E-02  2232   0.125E+00    0.166E-02
RMM:   2    -0.309170403191E+02   -0.14479E-02   -0.32107E-03  1411   0.281E-01    0.893E-03
RMM:   3    -0.309171418096E+02   -0.10149E-03   -0.60840E-04  1118   0.104E-01
    125 T=  1071. E= -.32347929E+02 F= -.30917142E+02 E0= -.30878351E+02  EK= 0.35989E+01 SP= -.52E+01 SK= 0.13E+00 mag=      0.017
       N       E                     dE             d eps       ncg     rms          rms(c)
DAV:   1    -0.308888295421E+02    0.28211E-01   -0.17856E-02  2192   0.122E+00    0.235E-02
RMM:   2    -0.308901802526E+02   -0.13507E-02   -0.30821E-03  1547   0.279E-01    0.161E-02
RMM:   3    -0.308903120489E+02   -0.13180E-03   -0.63653E-04  1170   0.102E-01
    126 T=  1009. E= -.32342137E+02 F= -.30890312E+02 E0= -.30852029E+02  EK= 0.33910E+01 SP= -.50E+01 SK= 0.18E+00 mag=      0.002
       N       E                     dE             d eps       ncg     rms          rms(c)
DAV:   1    -0.308635088567E+02    0.26671E-01   -0.15813E-02  2280   0.118E+00    0.206E-02
RMM:   2    -0.308646907796E+02   -0.11819E-02   -0.30114E-03  1464   0.270E-01
    127 T=   945. E= -.32335398E+02 F= -.30864691E+02 E0= -.30826869E+02  EK= 0.31754E+01 SP= -.49E+01 SK= 0.21E+00 mag=     -0.020
       N       E                     dE             d eps       ncg     rms          rms(c)
DAV:   1    -0.308397531069E+02    0.23756E-01   -0.18097E-02  2720   0.121E+00    0.175E-02
RMM:   2    -0.308408800954E+02   -0.11270E-02   -0.31320E-03  1521   0.248E-01
    128 T=   880. E= -.32331232E+02 F= -.30840880E+02 E0= -.30803481E+02  EK= 0.29584E+01 SP= -.47E+01 SK= 0.24E+00 mag=     -0.031
       N       E                     dE             d eps       ncg     rms          rms(c)
DAV:   1    -0.308185571468E+02    0.21196E-01   -0.12253E-02  2168   0.112E+00    0.197E-02
RMM:   2    -0.308196608170E+02   -0.11037E-02   -0.31655E-03  1534   0.282E-01
    129 T=   818. E= -.32326764E+02 F= -.30819661E+02 E0= -.30782661E+02  EK= 0.27508E+01 SP= -.45E+01 SK= 0.25E+00 mag=     -0.019
       N       E                     dE             d eps       ncg     rms          rms(c)
DAV:   1    -0.308008689108E+02    0.17688E-01   -0.17401E-02  2616   0.115E+00    0.224E-02
RMM:   2    -0.308018717670E+02   -0.10029E-02   -0.33117E-03  1526   0.256E-01
    130 T=   762. E= -.32321264E+02 F= -.30801872E+02 E0= -.30765242E+02  EK= 0.25594E+01 SP= -.43E+01 SK= 0.24E+00 mag=      0.007
       N       E                     dE             d eps       ncg     rms          rms(c)
DAV:   1    -0.307872811085E+02    0.13588E-01   -0.84637E-03  2384   0.104E+00    0.210E-02
RMM:   2    -0.307881319883E+02   -0.85088E-03   -0.32304E-03  1517   0.279E-01
    131 T=   710. E= -.32316754E+02 F= -.30788132E+02 E0= -.30751813E+02  EK= 0.23862E+01 SP= -.41E+01 SK= 0.23E+00 mag=      0.029
       N       E                     dE             d eps       ncg     rms          rms(c)
DAV:   1    -0.307780406408E+02    0.92405E-02   -0.11785E-02  2400   0.104E+00    0.147E-02
RMM:   2    -0.307788181073E+02   -0.77747E-03   -0.34914E-03  1535   0.262E-01
    132 T=   665. E= -.32311694E+02 F= -.30778818E+02 E0= -.30742768E+02  EK= 0.22351E+01 SP= -.40E+01 SK= 0.21E+00 mag=      0.028
       N       E                     dE             d eps       ncg     rms          rms(c)
DAV:   1    -0.307734420126E+02    0.45986E-02   -0.93397E-03  2304   0.966E-01    0.212E-02
RMM:   2    -0.307741672454E+02   -0.72523E-03   -0.32610E-03  1515   0.270E-01
    133 T=   627. E= -.32306500E+02 F= -.30774167E+02 E0= -.30738373E+02  EK= 0.21066E+01 SP= -.38E+01 SK= 0.17E+00 mag=      0.005
       N       E                     dE             d eps       ncg     rms          rms(c)
DAV:   1    -0.307738765355E+02   -0.43452E-03   -0.10623E-02  2512   0.990E-01    0.276E-02
RMM:   2    -0.307746097682E+02   -0.73323E-03   -0.32644E-03  1524   0.250E-01
    134 T=   596. E= -.32301052E+02 F= -.30774610E+02 E0= -.30739036E+02  EK= 0.20013E+01 SP= -.37E+01 SK= 0.14E+00 mag=     -0.017
       N       E                     dE             d eps       ncg     rms          rms(c)
DAV:   1    -0.307802125147E+02   -0.63360E-02   -0.82561E-03  2216   0.931E-01    0.203E-02
RMM:   2    -0.307807810483E+02   -0.56853E-03   -0.31790E-03  1511   0.271E-01
    135 T=   571. E= -.32295965E+02 F= -.30780781E+02 E0= -.30745358E+02  EK= 0.19189E+01 SP= -.35E+01 SK= 0.11E+00 mag=     -0.025
       N       E                     dE             d eps       ncg     rms          rms(c)
DAV:   1    -0.307917907436E+02   -0.11578E-01   -0.10389E-02  2416   0.935E-01    0.244E-02
RMM:   2    -0.307923802091E+02   -0.58947E-03   -0.31321E-03  1514   0.252E-01
    136 T=   553. E= -.32290725E+02 F= -.30792380E+02 E0= -.30757101E+02  EK= 0.18587E+01 SP= -.34E+01 SK= 0.74E-01 mag=     -0.012
       N       E                     dE             d eps       ncg     rms          rms(c)
DAV:   1    -0.308087882901E+02   -0.16998E-01   -0.69487E-03  2144   0.889E-01    0.330E-02
RMM:   2    -0.308094921685E+02   -0.70388E-03   -0.34714E-03  1522   0.255E-01
    137 T=   542. E= -.32285394E+02 F= -.30809492E+02 E0= -.30774333E+02  EK= 0.18203E+01 SP= -.33E+01 SK= 0.46E-01 mag=      0.011
       N       E                     dE             d eps       ncg     rms          rms(c)
DAV:   1    -0.308319718374E+02   -0.23184E-01   -0.86920E-03  2288   0.924E-01    0.235E-02
RMM:   2    -0.308325205179E+02   -0.54868E-03   -0.30982E-03  1521   0.254E-01
    138 T=   536. E= -.32280294E+02 F= -.30832521E+02 E0= -.30797403E+02  EK= 0.18029E+01 SP= -.33E+01 SK= 0.24E-01 mag=      0.025
       N       E                     dE             d eps       ncg     rms          rms(c)
DAV:   1    -0.308602804641E+02   -0.28309E-01   -0.84161E-03  2160   0.875E-01    0.187E-02
RMM:   2    -0.308607904354E+02   -0.50997E-03   -0.31621E-03  1523   0.250E-01
    139 T=   537. E= -.32275280E+02 F= -.30860790E+02 E0= -.30825693E+02  EK= 0.18056E+01 SP= -.32E+01 SK= 0.90E-02 mag=      0.020
       N       E                     dE             d eps       ncg     rms          rms(c)
DAV:   1    -0.308932522455E+02   -0.32972E-01   -0.89877E-03  2328   0.900E-01    0.377E-02
RMM:   2    -0.308940212131E+02   -0.76897E-03   -0.37700E-03  1528   0.250E-01
    140 T=   544. E= -.32270201E+02 F= -.30894021E+02 E0= -.30858959E+02  EK= 0.18279E+01 SP= -.32E+01 SK= 0.13E-02 mag=      0.000
       N       E                     dE             d eps       ncg     rms          rms(c)
DAV:   1    -0.309325086788E+02   -0.39256E-01   -0.99901E-03  2304   0.902E-01    0.328E-02
RMM:   2    -0.309331214176E+02   -0.61274E-03   -0.33269E-03  1533   0.257E-01
    141 T=   556. E= -.32266004E+02 F= -.30933121E+02 E0= -.30897992E+02  EK= 0.18696E+01 SP= -.32E+01 SK= 0.44E-03 mag=     -0.018
       N       E                     dE             d eps       ncg     rms          rms(c)
DAV:   1    -0.309764226210E+02   -0.43914E-01   -0.10056E-02  2336   0.906E-01    0.181E-02
RMM:   2    -0.309770111743E+02   -0.58855E-03   -0.39145E-03  1537   0.267E-01
    142 T=   574. E= -.32261956E+02 F= -.30977011E+02 E0= -.30941775E+02  EK= 0.19302E+01 SP= -.32E+01 SK= 0.55E-02 mag=     -0.022
       N       E                     dE             d eps       ncg     rms          rms(c)
DAV:   1    -0.310241787538E+02   -0.47756E-01   -0.96015E-03  2280   0.914E-01    0.380E-02
RMM:   2    -0.310249907375E+02   -0.81198E-03   -0.39381E-03  1525   0.261E-01
    143 T=   598. E= -.32257905E+02 F= -.31024991E+02 E0= -.30989681E+02  EK= 0.20092E+01 SP= -.33E+01 SK= 0.15E-01 mag=     -0.009
       N       E                     dE             d eps       ncg     rms          rms(c)
DAV:   1    -0.310767774484E+02   -0.52599E-01   -0.11000E-02  2336   0.969E-01    0.417E-02
RMM:   2    -0.310775587558E+02   -0.78131E-03   -0.36153E-03  1536   0.269E-01
    144 T=   627. E= -.32254283E+02 F= -.31077559E+02 E0= -.31042099E+02  EK= 0.21063E+01 SP= -.33E+01 SK= 0.27E-01 mag=      0.011
       N       E                     dE             d eps       ncg     rms          rms(c)
DAV:   1    -0.311332936131E+02   -0.56516E-01   -0.92358E-03  2272   0.957E-01    0.226E-02
RMM:   2    -0.311339899972E+02   -0.69638E-03   -0.42843E-03  1558   0.284E-01
    145 T=   661. E= -.32250955E+02 F= -.31133990E+02 E0= -.31098296E+02  EK= 0.22206E+01 SP= -.34E+01 SK= 0.41E-01 mag=      0.020
       N       E                     dE             d eps       ncg     rms          rms(c)
DAV:   1    -0.311921711042E+02   -0.58877E-01   -0.12644E-02  2408   0.100E+00    0.346E-02
RMM:   2    -0.311930795441E+02   -0.90844E-03   -0.47848E-03  1564   0.289E-01
    146 T=   700. E= -.32247095E+02 F= -.31193080E+02 E0= -.31157190E+02  EK= 0.23510E+01 SP= -.35E+01 SK= 0.52E-01 mag=      0.015
       N       E                     dE             d eps       ncg     rms          rms(c)
DAV:   1    -0.312534939150E+02   -0.61323E-01   -0.14123E-02  2552   0.105E+00    0.517E-02
RMM:   2    -0.312547032499E+02   -0.12093E-02   -0.47101E-03  1564   0.283E-01
    147 T=   742. E= -.32243430E+02 F= -.31254703E+02 E0= -.31218605E+02  EK= 0.24953E+01 SP= -.35E+01 SK= 0.61E-01 mag=      0.004
       N       E                     dE             d eps       ncg     rms          rms(c)
DAV:   1    -0.313182685712E+02   -0.64775E-01   -0.13084E-02  2520   0.107E+00    0.284E-02
RMM:   2    -0.313191086940E+02   -0.84012E-03   -0.45662E-03  1558   0.312E-01
    148 T=   789. E= -.32240673E+02 F= -.31319109E+02 E0= -.31282640E+02  EK= 0.26508E+01 SP= -.36E+01 SK= 0.65E-01 mag=     -0.008
       N       E                     dE             d eps       ncg     rms          rms(c)
DAV:   1    -0.313825790001E+02   -0.64310E-01   -0.17954E-02  2728   0.111E+00    0.384E-02
RMM:   2    -0.313837131871E+02   -0.11342E-02   -0.52226E-03  1563   0.303E-01
    149 T=   837. E= -.32237095E+02 F= -.31383713E+02 E0= -.31346940E+02  EK= 0.28137E+01 SP= -.37E+01 SK= 0.63E-01 mag=     -0.016
       N       E                     dE             d eps       ncg     rms          rms(c)
DAV:   1    -0.314468793252E+02   -0.64300E-01   -0.15795E-02  2432   0.115E+00    0.568E-02
RMM:   2    -0.314484013085E+02   -0.15220E-02   -0.52677E-03  1584   0.311E-01    0.436E-02
RMM:   3    -0.314489000563E+02   -0.49875E-03   -0.15097E-03  1478   0.123E-01
    150 T=   886. E= -.32234653E+02 F= -.31448900E+02 E0= -.31411803E+02  EK= 0.29784E+01 SP= -.38E+01 SK= 0.57E-01 mag=     -0.014
       N       E                     dE             d eps       ncg     rms          rms(c)
DAV:   1    -0.315122082137E+02   -0.63807E-01   -0.21697E-02  2384   0.118E+00    0.422E-02
RMM:   2    -0.315134148698E+02   -0.12067E-02   -0.33189E-03  1446   0.272E-01
    151 T=   935. E= -.32229495E+02 F= -.31513415E+02 E0= -.31475903E+02  EK= 0.31424E+01 SP= -.39E+01 SK= 0.45E-01 mag=      0.004
       N       E                     dE             d eps       ncg     rms          rms(c)
DAV:   1    -0.315728100316E+02   -0.60602E-01   -0.28698E-02  3040   0.128E+00    0.784E-02
RMM:   2    -0.315747932335E+02   -0.19832E-02   -0.54120E-03  1559   0.273E-01    0.555E-02
RMM:   3    -0.315759426796E+02   -0.11494E-02   -0.21924E-03  1400   0.120E-01
    152 T=   980. E= -.32225206E+02 F= -.31575943E+02 E0= -.31538076E+02  EK= 0.32950E+01 SP= -.40E+01 SK= 0.31E-01 mag=      0.022
       N       E                     dE             d eps       ncg     rms          rms(c)
DAV:   1    -0.316341053415E+02   -0.59312E-01   -0.21616E-02  2552   0.118E+00    0.606E-02
RMM:   2    -0.316359302103E+02   -0.18249E-02   -0.40345E-03  1444   0.277E-01    0.437E-02
RMM:   3    -0.316364392063E+02   -0.50900E-03   -0.11040E-03  1339   0.104E-01
    153 T=  1020. E= -.32223483E+02 F= -.31636439E+02 E0= -.31598127E+02  EK= 0.34282E+01 SP= -.40E+01 SK= 0.17E-01 mag=     -0.009
       N       E                     dE             d eps       ncg     rms          rms(c)
DAV:   1    -0.316918859316E+02   -0.55956E-01   -0.38215E-02  2744   0.126E+00    0.486E-02
RMM:   2    -0.316933058150E+02   -0.14199E-02   -0.48990E-03  1595   0.309E-01    0.299E-02
RMM:   3    -0.316935780549E+02   -0.27224E-03   -0.13061E-03  1437   0.116E-01
    154 T=  1053. E= -.32219955E+02 F= -.31693578E+02 E0= -.31654854E+02  EK= 0.35387E+01 SP= -.41E+01 SK= 0.60E-02 mag=     -0.030
       N       E                     dE             d eps       ncg     rms          rms(c)
DAV:   1    -0.317449778942E+02   -0.51672E-01   -0.20623E-02  2648   0.125E+00    0.251E-02
RMM:   2    -0.317462574622E+02   -0.12796E-02   -0.42439E-03  1610   0.298E-01
    155 T=  1077. E= -.32214379E+02 F= -.31746257E+02 E0= -.31707112E+02  EK= 0.36204E+01 SP= -.41E+01 SK= 0.29E-03 mag=     -0.027
       N       E                     dE             d eps       ncg     rms          rms(c)
DAV:   1    -0.317924011397E+02   -0.47423E-01   -0.22092E-02  2480   0.128E+00    0.321E-02
RMM:   2    -0.317939112943E+02   -0.15102E-02   -0.52083E-03  1590   0.295E-01    0.217E-02
RMM:   3    -0.317941761112E+02   -0.26482E-03   -0.14450E-03  1469   0.114E-01
    156 T=  1091. E= -.32210410E+02 F= -.31794176E+02 E0= -.31754651E+02  EK= 0.36650E+01 SP= -.41E+01 SK= 0.23E-02 mag=      0.005
       N       E                     dE             d eps       ncg     rms          rms(c)
DAV:   1    -0.318350489670E+02   -0.41138E-01   -0.15424E-02  2216   0.124E+00    0.292E-02
RMM:   2    -0.318364337151E+02   -0.13847E-02   -0.31660E-03  1485   0.274E-01    0.174E-02
RMM:   3    -0.318365733694E+02   -0.13965E-03   -0.66835E-04  1147   0.994E-02
    157 T=  1092. E= -.32206687E+02 F= -.31836573E+02 E0= -.31796684E+02  EK= 0.36711E+01 SP= -.41E+01 SK= 0.13E-01 mag=      0.025
       N       E                     dE             d eps       ncg     rms          rms(c)
DAV:   1    -0.318718189058E+02   -0.35385E-01   -0.20071E-02  2304   0.124E+00    0.228E-02
RMM:   2    -0.318730915550E+02   -0.12726E-02   -0.34562E-03  1566   0.273E-01
    158 T=  1084. E= -.32199692E+02 F= -.31873092E+02 E0= -.31832873E+02  EK= 0.36418E+01 SP= -.40E+01 SK= 0.32E-01 mag=      0.019
       N       E                     dE             d eps       ncg     rms          rms(c)
DAV:   1    -0.319021475789E+02   -0.30329E-01   -0.19206E-02  2824   0.129E+00    0.330E-02
RMM:   2    -0.319036389217E+02   -0.14913E-02   -0.41702E-03  1564   0.266E-01    0.234E-02
RMM:   3    -0.319039161817E+02   -0.27726E-03   -0.11750E-03  1312   0.108E-01
    159 T=  1063. E= -.32196388E+02 F= -.31903916E+02 E0= -.31863420E+02  EK= 0.35726E+01 SP= -.39E+01 SK= 0.59E-01 mag=     -0.007
       N       E                     dE             d eps       ncg     rms          rms(c)
DAV:   1    -0.319273774019E+02   -0.23738E-01   -0.16037E-02  2072   0.118E+00    0.349E-02
RMM:   2    -0.319288287103E+02   -0.14513E-02   -0.37685E-03  1577   0.286E-01    0.206E-02
RMM:   3    -0.319289659897E+02   -0.13728E-03   -0.69978E-04  1205   0.989E-02
    160 T=  1033. E= -.32192675E+02 F= -.31928966E+02 E0= -.31888227E+02  EK= 0.34720E+01 SP= -.38E+01 SK= 0.89E-01 mag=     -0.018
       N       E                     dE             d eps       ncg     rms          rms(c)
DAV:   1    -0.319468746420E+02   -0.18046E-01   -0.18745E-02  2352   0.121E+00    0.283E-02
RMM:   2    -0.319481762033E+02   -0.13016E-02   -0.44439E-03  1644   0.278E-01
    161 T=   997. E= -.32184794E+02 F= -.31948176E+02 E0= -.31907268E+02  EK= 0.33494E+01 SP= -.37E+01 SK= 0.12E+00 mag=     -0.005
       N       E                     dE             d eps       ncg     rms          rms(c)
DAV:   1    -0.319612712131E+02   -0.14397E-01   -0.19979E-02  2888   0.125E+00    0.313E-02
RMM:   2    -0.319625591932E+02   -0.12880E-02   -0.38803E-03  1577   0.272E-01
    162 T=   953. E= -.32180417E+02 F= -.31962559E+02 E0= -.31921535E+02  EK= 0.32045E+01 SP= -.36E+01 SK= 0.15E+00 mag=      0.019
       N       E                     dE             d eps       ncg     rms          rms(c)
DAV:   1    -0.319710226597E+02   -0.97514E-02   -0.13984E-02  2128   0.114E+00    0.247E-02
RMM:   2    -0.319723071509E+02   -0.12845E-02   -0.46417E-03  1586   0.317E-01
    163 T=   907. E= -.32174807E+02 F= -.31972307E+02 E0= -.31931194E+02  EK= 0.30489E+01 SP= -.34E+01 SK= 0.17E+00 mag=      0.038
       N       E                     dE             d eps       ncg     rms          rms(c)
DAV:   1    -0.319767168553E+02   -0.56942E-02   -0.26467E-02  2944   0.124E+00    0.290E-02
RMM:   2    -0.319779659120E+02   -0.12491E-02   -0.46668E-03  1596   0.284E-01
    164 T=   860. E= -.32167516E+02 F= -.31977966E+02 E0= -.31936847E+02  EK= 0.28897E+01 SP= -.33E+01 SK= 0.19E+00 mag=      0.030
       N       E                     dE             d eps       ncg     rms          rms(c)
DAV:   1    -0.319790045559E+02   -0.22877E-02   -0.16092E-02  2712   0.110E+00    0.313E-02
RMM:   2    -0.319802115605E+02   -0.12070E-02   -0.45498E-03  1582   0.295E-01
    165 T=   812. E= -.32161789E+02 F= -.31980212E+02 E0= -.31939138E+02  EK= 0.27296E+01 SP= -.31E+01 SK= 0.20E+00 mag=     -0.005
       N       E                     dE             d eps       ncg     rms          rms(c)
DAV:   1    -0.319790882906E+02   -0.83735E-04   -0.17633E-02  2528   0.113E+00    0.269E-02
RMM:   2    -0.319801032536E+02   -0.10150E-02   -0.39454E-03  1550   0.280E-01
    166 T=   766. E= -.32156250E+02 F= -.31980103E+02 E0= -.31939103E+02  EK= 0.25753E+01 SP= -.29E+01 SK= 0.19E+00 mag=     -0.044
       N       E                     dE             d eps       ncg     rms          rms(c)
DAV:   1    -0.319770828168E+02    0.20055E-02   -0.13186E-02  2672   0.104E+00    0.227E-02
RMM:   2    -0.319779556591E+02   -0.87284E-03   -0.36301E-03  1523   0.273E-01
    167 T=   723. E= -.32151033E+02 F= -.31977956E+02 E0= -.31937060E+02  EK= 0.24302E+01 SP= -.28E+01 SK= 0.18E+00 mag=     -0.055
       N       E                     dE             d eps       ncg     rms          rms(c)
DAV:   1    -0.319732724331E+02    0.38104E-02   -0.15727E-02  2832   0.106E+00    0.338E-02
RMM:   2    -0.319742219921E+02   -0.94956E-03   -0.37853E-03  1540   0.261E-01
    168 T=   684. E= -.32145429E+02 F= -.31974222E+02 E0= -.31933500E+02  EK= 0.22976E+01 SP= -.26E+01 SK= 0.16E+00 mag=     -0.020
       N       E                     dE             d eps       ncg     rms          rms(c)
DAV:   1    -0.319693718932E+02    0.39005E-02   -0.11221E-02  2528   0.998E-01    0.316E-02
RMM:   2    -0.319702263025E+02   -0.85441E-03   -0.40301E-03  1554   0.271E-01
    169 T=   648. E= -.32140455E+02 F= -.31970226E+02 E0= -.31929667E+02  EK= 0.21793E+01 SP= -.25E+01 SK= 0.14E+00 mag=      0.039
       N       E                     dE             d eps       ncg     rms          rms(c)
DAV:   1    -0.319652986964E+02    0.40732E-02   -0.10885E-02  2408   0.979E-01    0.244E-02
RMM:   2    -0.319660811955E+02   -0.78250E-03   -0.43773E-03  1572   0.273E-01
    170 T=   618. E= -.32135202E+02 F= -.31966081E+02 E0= -.31925703E+02  EK= 0.20769E+01 SP= -.24E+01 SK= 0.11E+00 mag=      0.075
       N       E                     dE             d eps       ncg     rms          rms(c)
DAV:   1    -0.319612318668E+02    0.40668E-02   -0.11929E-02  2504   0.931E-01    0.334E-02
RMM:   2    -0.319620584407E+02   -0.82657E-03   -0.40705E-03  1552   0.259E-01
    171 T=   592. E= -.32129790E+02 F= -.31962058E+02 E0= -.31921896E+02  EK= 0.19908E+01 SP= -.22E+01 SK= 0.86E-01 mag=      0.049
       N       E                     dE             d eps       ncg     rms          rms(c)
DAV:   1    -0.319583727117E+02    0.28592E-02   -0.11073E-02  2568   0.944E-01    0.381E-02
RMM:   2    -0.319591633619E+02   -0.79065E-03   -0.36776E-03  1533   0.259E-01
    172 T=   572. E= -.32124714E+02 F= -.31959163E+02 E0= -.31919217E+02  EK= 0.19213E+01 SP= -.21E+01 SK= 0.59E-01 mag=     -0.022
       N       E                     dE             d eps       ncg     rms          rms(c)
DAV:   1    -0.319571872231E+02    0.11855E-02   -0.87888E-03  2424   0.892E-01    0.281E-02
RMM:   2    -0.319577910432E+02   -0.60382E-03   -0.32819E-03  1518   0.245E-01
    173 T=   556. E= -.32120024E+02 F= -.31957791E+02 E0= -.31918023E+02  EK= 0.18686E+01 SP= -.21E+01 SK= 0.36E-01 mag=     -0.082
       N       E                     dE             d eps       ncg     rms          rms(c)
DAV:   1    -0.319568243518E+02    0.36287E-03   -0.82900E-03  2224   0.881E-01    0.349E-02
RMM:   2    -0.319575201171E+02   -0.69577E-03   -0.35557E-03  1518   0.248E-01
    174 T=   545. E= -.32114683E+02 F= -.31957520E+02 E0= -.31917968E+02  EK= 0.18329E+01 SP= -.20E+01 SK= 0.18E-01 mag=     -0.070
       N       E                     dE             d eps       ncg     rms          rms(c)
DAV:   1    -0.319582944798E+02   -0.14701E-02   -0.91839E-03  2520   0.890E-01    0.412E-02
RMM:   2    -0.319590388703E+02   -0.74439E-03   -0.33991E-03  1529   0.240E-01
    175 T=   540. E= -.32109443E+02 F= -.31959039E+02 E0= -.31919664E+02  EK= 0.18138E+01 SP= -.20E+01 SK= 0.55E-02 mag=      0.006
       N       E                     dE             d eps       ncg     rms          rms(c)
DAV:   1    -0.319620525823E+02   -0.37581E-02   -0.83473E-03  2312   0.865E-01    0.350E-02
RMM:   2    -0.319626916647E+02   -0.63908E-03   -0.32697E-03  1519   0.247E-01
    176 T=   539. E= -.32104985E+02 F= -.31962692E+02 E0= -.31923470E+02  EK= 0.18109E+01 SP= -.20E+01 SK= 0.23E-03 mag=      0.082
       N       E                     dE             d eps       ncg     rms          rms(c)
DAV:   1    -0.319676176603E+02   -0.55651E-02   -0.82344E-03  2232   0.875E-01    0.354E-02
RMM:   2    -0.319682909809E+02   -0.67332E-03   -0.38138E-03  1548   0.241E-01
    177 T=   543. E= -.32100449E+02 F= -.31968291E+02 E0= -.31929207E+02  EK= 0.18247E+01 SP= -.20E+01 SK= 0.19E-02 mag=      0.093
       N       E                     dE             d eps       ncg     rms          rms(c)
DAV:   1    -0.319747992017E+02   -0.71815E-02   -0.10232E-02  2488   0.869E-01    0.467E-02
RMM:   2    -0.319757230428E+02   -0.92384E-03   -0.42438E-03  1554   0.252E-01
    178 T=   552. E= -.32095853E+02 F= -.31975723E+02 E0= -.31936773E+02  EK= 0.18550E+01 SP= -.20E+01 SK= 0.10E-01 mag=      0.025
       N       E                     dE             d eps       ncg     rms          rms(c)
DAV:   1    -0.319848045577E+02   -0.10005E-01   -0.10314E-02  2368   0.888E-01    0.429E-02
RMM:   2    -0.319855565181E+02   -0.75196E-03   -0.35469E-03  1522   0.251E-01
    179 T=   566. E= -.32092299E+02 F= -.31985557E+02 E0= -.31946640E+02  EK= 0.19016E+01 SP= -.20E+01 SK= 0.24E-01 mag=     -0.072
       N       E                     dE             d eps       ncg     rms          rms(c)
DAV:   1    -0.319961204509E+02   -0.11316E-01   -0.92432E-03  2384   0.880E-01    0.380E-02
RMM:   2    -0.319968388121E+02   -0.71836E-03   -0.37322E-03  1530   0.247E-01
    180 T=   585. E= -.32088579E+02 F= -.31996839E+02 E0= -.31957975E+02  EK= 0.19647E+01 SP= -.21E+01 SK= 0.43E-01 mag=     -0.116
       N       E                     dE             d eps       ncg     rms          rms(c)
DAV:   1    -0.320081590167E+02   -0.12039E-01   -0.10393E-02  2512   0.919E-01    0.526E-02
RMM:   2    -0.320091657293E+02   -0.10067E-02   -0.42210E-03  1524   0.258E-01
    181 T=   608. E= -.32084573E+02 F= -.32009166E+02 E0= -.31970329E+02  EK= 0.20442E+01 SP= -.22E+01 SK= 0.64E-01 mag=     -0.068
       N       E                     dE             d eps       ncg     rms          rms(c)
DAV:   1    -0.320219493983E+02   -0.13790E-01   -0.89033E-03  2408   0.925E-01    0.548E-02
RMM:   2    -0.320230332629E+02   -0.10839E-02   -0.41914E-03  1529   0.257E-01
    182 T=   637. E= -.32081071E+02 F= -.32023033E+02 E0= -.31984139E+02  EK= 0.21399E+01 SP= -.23E+01 SK= 0.87E-01 mag=      0.035
       N       E                     dE             d eps       ncg     rms          rms(c)
DAV:   1    -0.320372011349E+02   -0.15252E-01   -0.12231E-02  2456   0.968E-01    0.430E-02
RMM:   2    -0.320380017899E+02   -0.80066E-03   -0.42623E-03  1521   0.281E-01
    183 T=   670. E= -.32077936E+02 F= -.32038002E+02 E0= -.31998964E+02  EK= 0.22513E+01 SP= -.24E+01 SK= 0.11E+00 mag=      0.126
       N       E                     dE             d eps       ncg     rms          rms(c)
DAV:   1    -0.320501693141E+02   -0.12968E-01   -0.14883E-02  2576   0.984E-01    0.647E-02
RMM:   2    -0.320516309948E+02   -0.14617E-02   -0.55469E-03  1540   0.280E-01    0.506E-02
RMM:   3    -0.320523563676E+02   -0.72537E-03   -0.19364E-03  1455   0.115E-01
    184 T=   707. E= -.32074958E+02 F= -.32052356E+02 E0= -.32013231E+02  EK= 0.23761E+01 SP= -.25E+01 SK= 0.12E+00 mag=      0.041
       N       E                     dE             d eps       ncg     rms          rms(c)
DAV:   1    -0.320654343831E+02   -0.13803E-01   -0.19922E-02  2512   0.102E+00    0.547E-02
RMM:   2    -0.320665076874E+02   -0.10733E-02   -0.36416E-03  1490   0.246E-01
    185 T=   748. E= -.32071346E+02 F= -.32066508E+02 E0= -.32027166E+02  EK= 0.25144E+01 SP= -.27E+01 SK= 0.14E+00 mag=     -0.133
       N       E                     dE             d eps       ncg     rms          rms(c)
DAV:   1    -0.320759383755E+02   -0.10504E-01   -0.32343E-02  2688   0.111E+00    0.779E-02
RMM:   2    -0.320777438739E+02   -0.18055E-02   -0.55150E-03  1573   0.280E-01    0.604E-02
RMM:   3    -0.320787537492E+02   -0.10099E-02   -0.18061E-03  1468   0.117E-01
    186 T=   792. E= -.32067884E+02 F= -.32078754E+02 E0= -.32039294E+02  EK= 0.26618E+01 SP= -.28E+01 SK= 0.14E+00 mag=     -0.063
       N       E                     dE             d eps       ncg     rms          rms(c)
DAV:   1    -0.320874962977E+02   -0.97524E-02   -0.18826E-02  2576   0.106E+00    0.686E-02
RMM:   2    -0.320889238414E+02   -0.14275E-02   -0.41252E-03  1446   0.260E-01    0.500E-02
RMM:   3    -0.320893360834E+02   -0.41224E-03   -0.10088E-03  1291   0.103E-01
    187 T=   837. E= -.32066595E+02 F= -.32089336E+02 E0= -.32049495E+02  EK= 0.28136E+01 SP= -.29E+01 SK= 0.14E+00 mag=      0.066
       N       E                     dE             d eps       ncg     rms          rms(c)
DAV:   1    -0.320950356253E+02   -0.61118E-02   -0.36468E-02  2512   0.114E+00    0.622E-02
RMM:   2    -0.320962617082E+02   -0.12261E-02   -0.51118E-03  1586   0.304E-01
    188 T=   884. E= -.32062026E+02 F= -.32096262E+02 E0= -.32056244E+02  EK= 0.29695E+01 SP= -.31E+01 SK= 0.13E+00 mag=      0.160
       N       E                     dE             d eps       ncg     rms          rms(c)
DAV:   1    -0.320981670358E+02   -0.31314E-02   -0.27014E-02  2696   0.123E+00    0.575E-02
RMM:   2    -0.320995817932E+02   -0.14148E-02   -0.53340E-03  1601   0.301E-01    0.417E-02
RMM:   3    -0.321000760406E+02   -0.49425E-03   -0.14902E-03  1479   0.121E-01
    189 T=   929. E= -.32059050E+02 F= -.32100076E+02 E0= -.32059672E+02  EK= 0.31206E+01 SP= -.32E+01 SK= 0.11E+00 mag=      0.060
       N       E                     dE             d eps       ncg     rms          rms(c)
DAV:   1    -0.320976398252E+02    0.19420E-02   -0.23016E-02  2576   0.121E+00    0.655E-02
RMM:   2    -0.320988214541E+02   -0.11816E-02   -0.36709E-03  1523   0.276E-01
    190 T=   971. E= -.32053650E+02 F= -.32098821E+02 E0= -.32058118E+02  EK= 0.32633E+01 SP= -.33E+01 SK= 0.91E-01 mag=     -0.146
       N       E                     dE             d eps       ncg     rms          rms(c)
DAV:   1    -0.320881771962E+02    0.94626E-02   -0.33394E-02  3176   0.135E+00    0.870E-02
RMM:   2    -0.320905780382E+02   -0.24008E-02   -0.61123E-03  1562   0.288E-01    0.679E-02
RMM:   3    -0.320919516101E+02   -0.13736E-02   -0.23486E-03  1401   0.123E-01    0.495E-02
RMM:   4    -0.320929323865E+02   -0.98078E-03   -0.19969E-03  1406   0.934E-02
    191 T=  1008. E= -.32049012E+02 F= -.32092932E+02 E0= -.32051807E+02  EK= 0.33889E+01 SP= -.34E+01 SK= 0.67E-01 mag=     -0.016
       N       E                     dE             d eps       ncg     rms          rms(c)
DAV:   1    -0.320765512688E+02    0.15400E-01   -0.21755E-02  2424   0.120E+00    0.102E-01
RMM:   2    -0.320788686089E+02   -0.23173E-02   -0.58427E-03  1591   0.301E-01    0.717E-02
RMM:   3    -0.320798345216E+02   -0.96591E-03   -0.17938E-03  1401   0.121E-01
    192 T=  1038. E= -.32045138E+02 F= -.32079835E+02 E0= -.32038676E+02  EK= 0.34888E+01 SP= -.35E+01 SK= 0.43E-01 mag=      0.137
       N       E                     dE             d eps       ncg     rms          rms(c)
DAV:   1    -0.320596375542E+02    0.19231E-01   -0.40963E-02  2864   0.133E+00    0.838E-02
RMM:   2    -0.320615200329E+02   -0.18825E-02   -0.54561E-03  1546   0.323E-01    0.590E-02
RMM:   3    -0.320621448701E+02   -0.62484E-03   -0.13537E-03  1388   0.124E-01
    193 T=  1060. E= -.32040865E+02 F= -.32062145E+02 E0= -.32020579E+02  EK= 0.35614E+01 SP= -.36E+01 SK= 0.23E-01 mag=      0.102
       N       E                     dE             d eps       ncg     rms          rms(c)
DAV:   1    -0.320370351648E+02    0.24485E-01   -0.23735E-02  2832   0.132E+00    0.574E-02
RMM:   2    -0.320386030500E+02   -0.15679E-02   -0.50242E-03  1611   0.313E-01    0.355E-02
RMM:   3    -0.320388136470E+02   -0.21060E-03   -0.12575E-03  1223   0.123E-01
    194 T=  1071. E= -.32037921E+02 F= -.32038814E+02 E0= -.31996771E+02  EK= 0.35998E+01 SP= -.36E+01 SK= 0.82E-02 mag=     -0.053
       N       E                     dE             d eps       ncg     rms          rms(c)
DAV:   1    -0.320061213293E+02    0.32482E-01   -0.27912E-02  2912   0.132E+00    0.669E-02
RMM:   2    -0.320080575894E+02   -0.19363E-02   -0.46278E-03  1585   0.291E-01    0.474E-02
RMM:   3    -0.320086796802E+02   -0.62209E-03   -0.14290E-03  1395   0.120E-01
    195 T=  1072. E= -.32033515E+02 F= -.32008680E+02 E0= -.31966554E+02  EK= 0.36032E+01 SP= -.36E+01 SK= 0.83E-03 mag=     -0.094
       N       E                     dE             d eps       ncg     rms          rms(c)
DAV:   1    -0.319730190416E+02    0.35039E-01   -0.23387E-02  2328   0.133E+00    0.349E-02
RMM:   2    -0.319745758070E+02   -0.15568E-02   -0.39333E-03  1590   0.297E-01    0.166E-02
RMM:   3    -0.319747241853E+02   -0.14838E-03   -0.86237E-04  1233   0.111E-01
    196 T=  1063. E= -.32029577E+02 F= -.31974724E+02 E0= -.31932146E+02  EK= 0.35721E+01 SP= -.36E+01 SK= 0.10E-02 mag=     -0.012
       N       E                     dE             d eps       ncg     rms          rms(c)
DAV:   1    -0.319338203603E+02    0.40755E-01   -0.25940E-02  2872   0.127E+00    0.361E-02
RMM:   2    -0.319355129410E+02   -0.16926E-02   -0.39523E-03  1577   0.276E-01    0.241E-02
RMM:   3    -0.319357834637E+02   -0.27052E-03   -0.99013E-04  1244   0.109E-01
    197 T=  1044. E= -.32024847E+02 F= -.31935783E+02 E0= -.31893053E+02  EK= 0.35082E+01 SP= -.36E+01 SK= 0.81E-02 mag=      0.083
       N       E                     dE             d eps       ncg     rms          rms(c)
DAV:   1    -0.318916195109E+02    0.43893E-01   -0.21695E-02  2352   0.126E+00    0.410E-02
RMM:   2    -0.318933000627E+02   -0.16806E-02   -0.33308E-03  1555   0.264E-01    0.260E-02
RMM:   3    -0.318935692163E+02   -0.26915E-03   -0.82716E-04  1226   0.104E-01
    198 T=  1016. E= -.32020527E+02 F= -.31893569E+02 E0= -.31850670E+02  EK= 0.34154E+01 SP= -.36E+01 SK= 0.20E-01 mag=      0.071
       N       E                     dE             d eps       ncg     rms          rms(c)
DAV:   1    -0.318477182623E+02    0.45582E-01   -0.23556E-02  2240   0.118E+00    0.196E-02
RMM:   2    -0.318492180184E+02   -0.14998E-02   -0.25891E-03  1379   0.244E-01    0.106E-02
RMM:   3    -0.318493170026E+02   -0.98984E-04   -0.52837E-04  1141   0.923E-02
    199 T=   982. E= -.32016539E+02 F= -.31849317E+02 E0= -.31806171E+02  EK= 0.32994E+01 SP= -.35E+01 SK= 0.35E-01 mag=     -0.025
       N       E                     dE             d eps       ncg     rms          rms(c)
DAV:   1    -0.318014357406E+02    0.47782E-01   -0.22101E-02  2472   0.117E+00    0.356E-02
RMM:   2    -0.318030583748E+02   -0.16226E-02   -0.31850E-03  1538   0.253E-01    0.241E-02
RMM:   3    -0.318033204900E+02   -0.26212E-03   -0.85287E-04  1256   0.966E-02
    200 T=   942. E= -.32012302E+02 F= -.31803320E+02 E0= -.31760130E+02  EK= 0.31667E+01 SP= -.34E+01 SK= 0.50E-01 mag=     -0.081
       N       E                     dE             d eps       ncg     rms          rms(c)
DAV:   1    -0.317559695351E+02    0.47089E-01   -0.20284E-02  2368   0.112E+00    0.264E-02
RMM:   2    -0.317574205353E+02   -0.14510E-02   -0.28647E-03  1471   0.249E-01    0.139E-02
RMM:   3    -0.317575649443E+02   -0.14441E-03   -0.67439E-04  1197   0.961E-02
    201 T=   900. E= -.32008412E+02 F= -.31757565E+02 E0= -.31714194E+02  EK= 0.30241E+01 SP= -.33E+01 SK= 0.64E-01 mag=     -0.058
       N       E                     dE             d eps       ncg     rms          rms(c)
DAV:   1    -0.317109966249E+02    0.46424E-01   -0.19906E-02  2384   0.110E+00    0.190E-02
RMM:   2    -0.317123454169E+02   -0.13488E-02   -0.23798E-03  1408   0.236E-01
    202 T=   857. E= -.32003345E+02 F= -.31712345E+02 E0= -.31668849E+02  EK= 0.28789E+01 SP= -.32E+01 SK= 0.73E-01 mag=      0.032
       N       E                     dE             d eps       ncg     rms          rms(c)
DAV:   1    -0.316670007034E+02    0.43996E-01   -0.21424E-02  2712   0.114E+00    0.284E-02
RMM:   2    -0.316684418425E+02   -0.14411E-02   -0.30733E-03  1544   0.225E-01    0.224E-02
RMM:   3    -0.316686698764E+02   -0.22803E-03   -0.82830E-04  1220   0.907E-02
    203 T=   813. E= -.31999719E+02 F= -.31668670E+02 E0= -.31625174E+02  EK= 0.27340E+01 SP= -.31E+01 SK= 0.77E-01 mag=      0.052
       N       E                     dE             d eps       ncg     rms          rms(c)
DAV:   1    -0.316262354042E+02    0.42206E-01   -0.17313E-02  2160   0.100E+00    0.301E-02
RMM:   2    -0.316276726603E+02   -0.14373E-02   -0.27371E-03  1472   0.252E-01    0.133E-02
RMM:   3    -0.316277731085E+02   -0.10045E-03   -0.51403E-04  1140   0.804E-02
    204 T=   772. E= -.31996301E+02 F= -.31627773E+02 E0= -.31584128E+02  EK= 0.25958E+01 SP= -.30E+01 SK= 0.76E-01 mag=      0.001
       N       E                     dE             d eps       ncg     rms          rms(c)
DAV:   1    -0.315883170303E+02    0.39356E-01   -0.20049E-02  2608   0.101E+00    0.265E-02
RMM:   2    -0.315894777571E+02   -0.11607E-02   -0.25558E-03  1538   0.223E-01
    205 T=   735. E= -.31991019E+02 F= -.31589478E+02 E0= -.31545819E+02  EK= 0.24691E+01 SP= -.29E+01 SK= 0.70E-01 mag=     -0.083
       N       E                     dE             d eps       ncg     rms          rms(c)
DAV:   1    -0.315530771683E+02    0.35240E-01   -0.13975E-02  2160   0.102E+00    0.307E-02
RMM:   2    -0.315543614630E+02   -0.12843E-02   -0.35430E-03  1545   0.249E-01
    206 T=   700. E= -.31986734E+02 F= -.31554361E+02 E0= -.31510758E+02  EK= 0.23540E+01 SP= -.28E+01 SK= 0.61E-01 mag=     -0.130
       N       E                     dE             d eps       ncg     rms          rms(c)
DAV:   1    -0.315222756349E+02    0.30802E-01   -0.15434E-02  2312   0.996E-01    0.261E-02
RMM:   2    -0.315235023505E+02   -0.12267E-02   -0.34602E-03  1527   0.264E-01
    207 T=   671. E= -.31981758E+02 F= -.31523502E+02 E0= -.31479786E+02  EK= 0.22546E+01 SP= -.28E+01 SK= 0.49E-01 mag=     -0.100
       N       E                     dE             d eps       ncg     rms          rms(c)
DAV:   1    -0.314957945188E+02    0.26481E-01   -0.17214E-02  2480   0.998E-01    0.160E-02
RMM:   2    -0.314968913799E+02   -0.10969E-02   -0.32389E-03  1526   0.243E-01
    208 T=   646. E= -.31977161E+02 F= -.31496891E+02 E0= -.31453045E+02  EK= 0.21708E+01 SP= -.27E+01 SK= 0.35E-01 mag=     -0.000
       N       E                     dE             d eps       ncg     rms          rms(c)
DAV:   1    -0.314730620695E+02    0.22732E-01   -0.13035E-02  2224   0.916E-01    0.264E-02
RMM:   2    -0.314741736169E+02   -0.11115E-02   -0.30843E-03  1509   0.246E-01
    209 T=   626. E= -.31972935E+02 F= -.31474174E+02 E0= -.31430389E+02  EK= 0.21027E+01 SP= -.26E+01 SK= 0.23E-01 mag=      0.122
       N       E                     dE             d eps       ncg     rms          rms(c)
DAV:   1    -0.314544987961E+02    0.18563E-01   -0.16408E-02  2496   0.962E-01    0.387E-02
RMM:   2    -0.314557079725E+02   -0.12092E-02   -0.31724E-03  1499   0.241E-01
    210 T=   611. E= -.31967975E+02 F= -.31455708E+02 E0= -.31412060E+02  EK= 0.20523E+01 SP= -.26E+01 SK= 0.12E-01 mag=      0.164
       N       E                     dE             d eps       ncg     rms          rms(c)
DAV:   1    -0.314413290050E+02    0.13170E-01   -0.11855E-02  2368   0.928E-01    0.262E-02
RMM:   2    -0.314423070714E+02   -0.97807E-03   -0.31357E-03  1507   0.254E-01
    211 T=   601. E= -.31963863E+02 F= -.31442307E+02 E0= -.31398385E+02  EK= 0.20187E+01 SP= -.25E+01 SK= 0.42E-02 mag=      0.089
       N       E                     dE             d eps       ncg     rms          rms(c)
DAV:   1    -0.314317636350E+02    0.95654E-02   -0.14279E-02  2336   0.954E-01    0.210E-02
RMM:   2    -0.314327641287E+02   -0.10005E-02   -0.38396E-03  1581   0.258E-01
    212 T=   596. E= -.31959250E+02 F= -.31432764E+02 E0= -.31388754E+02  EK= 0.20021E+01 SP= -.25E+01 SK= 0.37E-03 mag=     -0.072
       N       E                     dE             d eps       ncg     rms          rms(c)
DAV:   1    -0.314255226117E+02    0.62410E-02   -0.13331E-02  2256   0.921E-01    0.453E-02
RMM:   2    -0.314267728251E+02   -0.12502E-02   -0.37035E-03  1530   0.255E-01
    213 T=   596. E= -.31954617E+02 F= -.31426773E+02 E0= -.31383063E+02  EK= 0.20019E+01 SP= -.25E+01 SK= 0.75E-03 mag=     -0.201
       N       E                     dE             d eps       ncg     rms          rms(c)
DAV:   1    -0.314245579131E+02    0.96470E-03   -0.12987E-02  2376   0.994E-01    0.454E-02
RMM:   2    -0.314257367056E+02   -0.11788E-02   -0.38106E-03  1549   0.270E-01
    214 T=   601. E= -.31950788E+02 F= -.31425737E+02 E0= -.31381923E+02  EK= 0.20185E+01 SP= -.25E+01 SK= 0.54E-02 mag=     -0.197
       N       E                     dE             d eps       ncg     rms          rms(c)
DAV:   1    -0.314280571855E+02   -0.34993E-02   -0.13178E-02  2264   0.945E-01    0.196E-02
RMM:   2    -0.314290753687E+02   -0.10182E-02   -0.48050E-03  1622   0.282E-01
    215 T=   611. E= -.31947247E+02 F= -.31429075E+02 E0= -.31384841E+02  EK= 0.20519E+01 SP= -.26E+01 SK= 0.14E-01 mag=     -0.041
       N       E                     dE             d eps       ncg     rms          rms(c)
DAV:   1    -0.314337108469E+02   -0.56537E-02   -0.16525E-02  2400   0.960E-01    0.395E-02
RMM:   2    -0.314348793092E+02   -0.11685E-02   -0.45939E-03  1571   0.279E-01
    216 T=   625. E= -.31943417E+02 F= -.31434879E+02 E0= -.31390826E+02  EK= 0.21008E+01 SP= -.26E+01 SK= 0.25E-01 mag=      0.173
       N       E                     dE             d eps       ncg     rms          rms(c)
DAV:   1    -0.314421198814E+02   -0.84090E-02   -0.16488E-02  2592   0.102E+00    0.652E-02
RMM:   2    -0.314436973288E+02   -0.15774E-02   -0.43518E-03  1541   0.275E-01    0.519E-02
RMM:   3    -0.314444858774E+02   -0.78855E-03   -0.16564E-03  1434   0.113E-01
    217 T=   644. E= -.31941189E+02 F= -.31444486E+02 E0= -.31400483E+02  EK= 0.21645E+01 SP= -.27E+01 SK= 0.39E-01 mag=      0.060
       N       E                     dE             d eps       ncg     rms          rms(c)
DAV:   1    -0.314548524158E+02   -0.11155E-01   -0.24458E-02  2560   0.100E+00    0.639E-02
RMM:   2    -0.314565979781E+02   -0.17456E-02   -0.41339E-03  1489   0.273E-01    0.519E-02
RMM:   3    -0.314570760742E+02   -0.47810E-03   -0.10841E-03  1330   0.945E-02
    218 T=   668. E= -.31938891E+02 F= -.31457076E+02 E0= -.31412918E+02  EK= 0.22435E+01 SP= -.28E+01 SK= 0.53E-01 mag=     -0.111
       N       E                     dE             d eps       ncg     rms          rms(c)
DAV:   1    -0.314706742194E+02   -0.14076E-01   -0.52279E-02  2520   0.107E+00    0.624E-02
RMM:   2    -0.314719398847E+02   -0.12657E-02   -0.47451E-03  1533   0.298E-01
    219 T=   696. E= -.31935678E+02 F= -.31471940E+02 E0= -.31427713E+02  EK= 0.23376E+01 SP= -.29E+01 SK= 0.66E-01 mag=     -0.209
       N       E                     dE             d eps       ncg     rms          rms(c)
DAV:   1    -0.314881884835E+02   -0.17514E-01   -0.29090E-02  2768   0.110E+00    0.437E-02
RMM:   2    -0.314893053548E+02   -0.11169E-02   -0.45504E-03  1564   0.285E-01
    220 T=   727. E= -.31934556E+02 F= -.31489305E+02 E0= -.31444798E+02  EK= 0.24431E+01 SP= -.30E+01 SK= 0.77E-01 mag=     -0.147
       N       E                     dE             d eps       ncg     rms          rms(c)
DAV:   1    -0.315071727709E+02   -0.18984E-01   -0.16492E-02  2608   0.111E+00    0.323E-02
RMM:   2    -0.315082064441E+02   -0.10337E-02   -0.45848E-03  1588   0.316E-01
    221 T=   762. E= -.31933686E+02 F= -.31508206E+02 E0= -.31463418E+02  EK= 0.25596E+01 SP= -.31E+01 SK= 0.84E-01 mag=      0.042
       N       E                     dE             d eps       ncg     rms          rms(c)
DAV:   1    -0.315252354915E+02   -0.18063E-01   -0.18697E-02  2392   0.118E+00    0.550E-02
RMM:   2    -0.315267004512E+02   -0.14650E-02   -0.47406E-03  1571   0.297E-01    0.434E-02
RMM:   3    -0.315272828740E+02   -0.58242E-03   -0.15260E-03  1483   0.118E-01
    222 T=   799. E= -.31931683E+02 F= -.31527283E+02 E0= -.31482583E+02  EK= 0.26850E+01 SP= -.32E+01 SK= 0.86E-01 mag=      0.080
       N       E                     dE             d eps       ncg     rms          rms(c)
DAV:   1    -0.315460003824E+02   -0.19300E-01   -0.17641E-02  2552   0.113E+00    0.474E-02
RMM:   2    -0.315470531095E+02   -0.10527E-02   -0.38549E-03  1529   0.292E-01
    223 T=   839. E= -.31927220E+02 F= -.31547053E+02 E0= -.31502058E+02  EK= 0.28189E+01 SP= -.33E+01 SK= 0.84E-01 mag=     -0.013
       N       E                     dE             d eps       ncg     rms          rms(c)
DAV:   1    -0.315644752457E+02   -0.18475E-01   -0.28522E-02  2896   0.126E+00    0.503E-02
RMM:   2    -0.315658184933E+02   -0.13432E-02   -0.55444E-03  1640   0.288E-01
    224 T=   879. E= -.31922738E+02 F= -.31565818E+02 E0= -.31520846E+02  EK= 0.29536E+01 SP= -.34E+01 SK= 0.76E-01 mag=     -0.133
       N       E                     dE             d eps       ncg     rms          rms(c)
DAV:   1    -0.315821740510E+02   -0.17699E-01   -0.15929E-02  2000   0.113E+00    0.525E-02
RMM:   2    -0.315836400346E+02   -0.14660E-02   -0.54613E-03  1623   0.328E-01    0.374E-02
RMM:   3    -0.315840625413E+02   -0.42251E-03   -0.16772E-03  1401   0.132E-01
    225 T=   917. E= -.31922474E+02 F= -.31584063E+02 E0= -.31538966E+02  EK= 0.30813E+01 SP= -.35E+01 SK= 0.65E-01 mag=     -0.094
       N       E                     dE             d eps       ncg     rms          rms(c)
DAV:   1    -0.315992463811E+02   -0.15606E-01   -0.29222E-02  2576   0.130E+00    0.424E-02
RMM:   2    -0.316006023356E+02   -0.13560E-02   -0.48935E-03  1666   0.326E-01    0.271E-02
RMM:   3    -0.316008243321E+02   -0.22200E-03   -0.11668E-03  1185   0.116E-01
    226 T=   953. E= -.31919999E+02 F= -.31600824E+02 E0= -.31555447E+02  EK= 0.32029E+01 SP= -.36E+01 SK= 0.50E-01 mag=      0.035
       N       E                     dE             d eps       ncg     rms          rms(c)
DAV:   1    -0.316131483886E+02   -0.12546E-01   -0.24492E-02  2808   0.123E+00    0.520E-02
RMM:   2    -0.316144421412E+02   -0.12938E-02   -0.40802E-03  1590   0.280E-01
    227 T=   986. E= -.31914992E+02 F= -.31614442E+02 E0= -.31569077E+02  EK= 0.33123E+01 SP= -.36E+01 SK= 0.34E-01 mag=      0.151
       N       E                     dE             d eps       ncg     rms          rms(c)
DAV:   1    -0.316235391302E+02   -0.10391E-01   -0.21293E-02  2464   0.131E+00    0.477E-02
RMM:   2    -0.316251009853E+02   -0.15619E-02   -0.55153E-03  1611   0.307E-01    0.340E-02
RMM:   3    -0.316254847438E+02   -0.38376E-03   -0.15785E-03  1460   0.122E-01
    228 T=  1012. E= -.31912940E+02 F= -.31625485E+02 E0= -.31579888E+02  EK= 0.33998E+01 SP= -.37E+01 SK= 0.20E-01 mag=      0.078
       N       E                     dE             d eps       ncg     rms          rms(c)
DAV:   1    -0.316313848396E+02   -0.62839E-02   -0.25220E-02  2224   0.129E+00    0.495E-02
RMM:   2    -0.316328370069E+02   -0.14522E-02   -0.33332E-03  1563   0.287E-01    0.325E-02
RMM:   3    -0.316330795639E+02   -0.24256E-03   -0.80266E-04  1182   0.106E-01
    229 T=  1030. E= -.31910705E+02 F= -.31633080E+02 E0= -.31587205E+02  EK= 0.34633E+01 SP= -.37E+01 SK= 0.80E-02 mag=     -0.055
       N       E                     dE             d eps       ncg     rms          rms(c)
DAV:   1    -0.316348900351E+02   -0.20530E-02   -0.29021E-02  2880   0.128E+00    0.478E-02
RMM:   2    -0.316363624330E+02   -0.14724E-02   -0.46924E-03  1608   0.296E-01    0.334E-02
RMM:   3    -0.316367409174E+02   -0.37848E-03   -0.11800E-03  1382   0.113E-01
    230 T=  1042. E= -.31906237E+02 F= -.31636741E+02 E0= -.31590699E+02  EK= 0.35012E+01 SP= -.38E+01 SK= 0.13E-02 mag=     -0.070
       N       E                     dE             d eps       ncg     rms          rms(c)
DAV:   1    -0.316350476654E+02    0.13148E-02   -0.21893E-02  2240   0.129E+00    0.279E-02
RMM:   2    -0.316363351197E+02   -0.12875E-02   -0.40365E-03  1611   0.287E-01
    231 T=  1044. E= -.31901224E+02 F= -.31636335E+02 E0= -.31589958E+02  EK= 0.35097E+01 SP= -.38E+01 SK= 0.38E-03 mag=      0.018
       N       E                     dE             d eps       ncg     rms          rms(c)
DAV:   1    -0.316298172926E+02    0.52304E-02   -0.29486E-02  3040   0.133E+00    0.483E-02
RMM:   2    -0.316313828657E+02   -0.15656E-02   -0.46529E-03  1602   0.284E-01    0.333E-02
RMM:   3    -0.316318395981E+02   -0.45673E-03   -0.14157E-03  1423   0.114E-01
    232 T=  1037. E= -.31897699E+02 F= -.31631840E+02 E0= -.31585265E+02  EK= 0.34863E+01 SP= -.38E+01 SK= 0.55E-02 mag=      0.041
       N       E                     dE             d eps       ncg     rms          rms(c)
DAV:   1    -0.316220873555E+02    0.92955E-02   -0.21029E-02  2256   0.121E+00    0.316E-02
RMM:   2    -0.316235462006E+02   -0.14588E-02   -0.39041E-03  1605   0.306E-01    0.185E-02
RMM:   3    -0.316237199522E+02   -0.17375E-03   -0.10638E-03  1181   0.108E-01
    233 T=  1022. E= -.31894222E+02 F= -.31623720E+02 E0= -.31576821E+02  EK= 0.34342E+01 SP= -.37E+01 SK= 0.16E-01 mag=      0.008
       N       E                     dE             d eps       ncg     rms          rms(c)
DAV:   1    -0.316098433307E+02    0.13703E-01   -0.27871E-02  2576   0.125E+00    0.358E-02
RMM:   2    -0.316111967367E+02   -0.13534E-02   -0.42067E-03  1589   0.278E-01    0.239E-02
RMM:   3    -0.316114478220E+02   -0.25109E-03   -0.10511E-03  1281   0.107E-01
    234 T=   999. E= -.31888683E+02 F= -.31611448E+02 E0= -.31564311E+02  EK= 0.33577E+01 SP= -.37E+01 SK= 0.31E-01 mag=     -0.025
       N       E                     dE             d eps       ncg     rms          rms(c)
DAV:   1    -0.315947889200E+02    0.16408E-01   -0.17728E-02  2144   0.122E+00    0.304E-02
RMM:   2    -0.315959831590E+02   -0.11942E-02   -0.36224E-03  1575   0.282E-01
    235 T=   970. E= -.31883206E+02 F= -.31595983E+02 E0= -.31548561E+02  EK= 0.32595E+01 SP= -.36E+01 SK= 0.47E-01 mag=     -0.036
       N       E                     dE             d eps       ncg     rms          rms(c)
DAV:   1    -0.315767710163E+02    0.18018E-01   -0.27924E-02  2680   0.127E+00    0.286E-02
RMM:   2    -0.315780193287E+02   -0.12483E-02   -0.38304E-03  1588   0.267E-01
    236 T=   935. E= -.31879489E+02 F= -.31578019E+02 E0= -.31530348E+02  EK= 0.31432E+01 SP= -.35E+01 SK= 0.63E-01 mag=     -0.025
       N       E                     dE             d eps       ncg     rms          rms(c)
DAV:   1    -0.315564609722E+02    0.20310E-01   -0.17971E-02  2424   0.117E+00    0.325E-02
RMM:   2    -0.315579168593E+02   -0.14559E-02   -0.49545E-03  1593   0.314E-01    0.230E-02
RMM:   3    -0.315581831664E+02   -0.26631E-03   -0.16320E-03  1400   0.116E-01
    237 T=   897. E= -.31876961E+02 F= -.31558183E+02 E0= -.31510282E+02  EK= 0.30148E+01 SP= -.34E+01 SK= 0.77E-01 mag=     -0.001
       N       E                     dE             d eps       ncg     rms          rms(c)
DAV:   1    -0.315359942908E+02    0.21923E-01   -0.26813E-02  2352   0.117E+00    0.247E-02
RMM:   2    -0.315371852082E+02   -0.11909E-02   -0.34115E-03  1508   0.281E-01
    238 T=   858. E= -.31870384E+02 F= -.31537185E+02 E0= -.31489033E+02  EK= 0.28852E+01 SP= -.33E+01 SK= 0.87E-01 mag=      0.023
       N       E                     dE             d eps       ncg     rms          rms(c)
DAV:   1    -0.315148007179E+02    0.21194E-01   -0.24355E-02  2736   0.122E+00    0.298E-02
RMM:   2    -0.315159558750E+02   -0.11552E-02   -0.41743E-03  1564   0.259E-01
    239 T=   819. E= -.31865999E+02 F= -.31515956E+02 E0= -.31467621E+02  EK= 0.27531E+01 SP= -.32E+01 SK= 0.93E-01 mag=      0.033
       N       E                     dE             d eps       ncg     rms          rms(c)
DAV:   1    -0.314940503709E+02    0.20750E-01   -0.16905E-02  2440   0.107E+00    0.362E-02
RMM:   2    -0.314952759211E+02   -0.12256E-02   -0.39400E-03  1544   0.297E-01
    240 T=   780. E= -.31863851E+02 F= -.31495276E+02 E0= -.31446790E+02  EK= 0.26231E+01 SP= -.31E+01 SK= 0.92E-01 mag=      0.022
       N       E                     dE             d eps       ncg     rms          rms(c)
DAV:   1    -0.314749379241E+02    0.19112E-01   -0.28996E-02  2896   0.117E+00    0.336E-02
RMM:   2    -0.314761500148E+02   -0.12121E-02   -0.40548E-03  1568   0.269E-01
    241 T=   744. E= -.31861316E+02 F= -.31476150E+02 E0= -.31427496E+02  EK= 0.25017E+01 SP= -.30E+01 SK= 0.87E-01 mag=     -0.002
       N       E                     dE             d eps       ncg     rms          rms(c)
DAV:   1    -0.314580518854E+02    0.16886E-01   -0.17274E-02  2576   0.101E+00    0.282E-02
RMM:   2    -0.314592136674E+02   -0.11618E-02   -0.44357E-03  1561   0.279E-01
    242 T=   712. E= -.31858678E+02 F= -.31459214E+02 E0= -.31410377E+02  EK= 0.23915E+01 SP= -.29E+01 SK= 0.78E-01 mag=     -0.027
       N       E                     dE             d eps       ncg     rms          rms(c)
DAV:   1    -0.314434135028E+02    0.14638E-01   -0.22540E-02  2792   0.106E+00    0.368E-02
RMM:   2    -0.314446442133E+02   -0.12307E-02   -0.43925E-03  1556   0.267E-01
    243 T=   683. E= -.31855084E+02 F= -.31444644E+02 E0= -.31395739E+02  EK= 0.22951E+01 SP= -.28E+01 SK= 0.65E-01 mag=     -0.031
       N       E                     dE             d eps       ncg     rms          rms(c)
DAV:   1    -0.314323858550E+02    0.11028E-01   -0.19940E-02  2384   0.100E+00    0.402E-02
RMM:   2    -0.314335687816E+02   -0.11829E-02   -0.43094E-03  1557   0.279E-01
    244 T=   659. E= -.31851915E+02 F= -.31433569E+02 E0= -.31384571E+02  EK= 0.22131E+01 SP= -.27E+01 SK= 0.51E-01 mag=     -0.013
       N       E                     dE             d eps       ncg     rms          rms(c)
DAV:   1    -0.314252246010E+02    0.71613E-02   -0.20384E-02  2816   0.987E-01    0.393E-02
RMM:   2    -0.314264781137E+02   -0.12535E-02   -0.45459E-03  1571   0.263E-01
    245 T=   639. E= -.31849093E+02 F= -.31426478E+02 E0= -.31377361E+02  EK= 0.21467E+01 SP= -.26E+01 SK= 0.37E-01 mag=      0.011
       N       E                     dE             d eps       ncg     rms          rms(c)
DAV:   1    -0.314223667511E+02    0.28578E-02   -0.21453E-02  2536   0.959E-01    0.359E-02
RMM:   2    -0.314235138394E+02   -0.11471E-02   -0.46196E-03  1577   0.276E-01
    246 T=   624. E= -.31846432E+02 F= -.31423514E+02 E0= -.31374276E+02  EK= 0.20965E+01 SP= -.25E+01 SK= 0.23E-01 mag=      0.026
       N       E                     dE             d eps       ncg     rms          rms(c)
DAV:   1    -0.314226890720E+02   -0.32232E-03   -0.23071E-02  2800   0.961E-01    0.513E-02
RMM:   2    -0.314241830808E+02   -0.14940E-02   -0.52368E-03  1570   0.263E-01    0.420E-02
RMM:   3    -0.314249708106E+02   -0.78773E-03   -0.22700E-03  1417   0.109E-01
    247 T=   614. E= -.31844268E+02 F= -.31424971E+02 E0= -.31375647E+02  EK= 0.20625E+01 SP= -.25E+01 SK= 0.13E-01 mag=      0.008
       N       E                     dE             d eps       ncg     rms          rms(c)
DAV:   1    -0.314287731276E+02   -0.45900E-02   -0.30376E-02  2616   0.957E-01    0.600E-02
RMM:   2    -0.314302933611E+02   -0.15202E-02   -0.33708E-03  1442   0.236E-01    0.462E-02
RMM:   3    -0.314307697275E+02   -0.47637E-03   -0.89470E-04  1282   0.863E-02
    248 T=   609. E= -.31842027E+02 F= -.31430770E+02 E0= -.31381401E+02  EK= 0.20452E+01 SP= -.25E+01 SK= 0.47E-02 mag=     -0.010
       N       E                     dE             d eps       ncg     rms          rms(c)
DAV:   1    -0.314406127665E+02   -0.10319E-01   -0.41513E-02  2536   0.956E-01    0.447E-02
RMM:   2    -0.314415705296E+02   -0.95776E-03   -0.35530E-03  1547   0.245E-01
    249 T=   609. E= -.31839466E+02 F= -.31441571E+02 E0= -.31392058E+02  EK= 0.20455E+01 SP= -.24E+01 SK= 0.64E-03 mag=     -0.020
       N       E                     dE             d eps       ncg     rms          rms(c)
DAV:   1    -0.314557751524E+02   -0.15162E-01   -0.26793E-02  2608   0.977E-01    0.327E-02
RMM:   2    -0.314566666328E+02   -0.89148E-03   -0.35882E-03  1545   0.247E-01
    250 T=   613. E= -.31837804E+02 F= -.31456667E+02 E0= -.31407053E+02  EK= 0.20613E+01 SP= -.24E+01 SK= 0.31E-03 mag=     -0.015
       N       E                     dE             d eps       ncg     rms          rms(c)
DAV:   1    -0.314749668818E+02   -0.19192E-01   -0.17032E-02  2616   0.940E-01    0.351E-02
RMM:   2    -0.314759407783E+02   -0.97390E-03   -0.36037E-03  1543   0.268E-01
    251 T=   623. E= -.31836056E+02 F= -.31475941E+02 E0= -.31426246E+02  EK= 0.20933E+01 SP= -.25E+01 SK= 0.35E-02 mag=     -0.000
       N       E                     dE             d eps       ncg     rms          rms(c)
DAV:   1    -0.314979809135E+02   -0.23014E-01   -0.19495E-02  2248   0.101E+00    0.408E-02
RMM:   2    -0.314990655144E+02   -0.10846E-02   -0.36079E-03  1547   0.252E-01
    252 T=   637. E= -.31833571E+02 F= -.31499066E+02 E0= -.31449358E+02  EK= 0.21417E+01 SP= -.25E+01 SK= 0.95E-02 mag=      0.016
       N       E                     dE             d eps       ncg     rms          rms(c)
DAV:   1    -0.315251863725E+02   -0.27205E-01   -0.15973E-02  2648   0.946E-01    0.374E-02
RMM:   2    -0.315262590940E+02   -0.10727E-02   -0.39429E-03  1567   0.259E-01
    253 T=   656. E= -.31831621E+02 F= -.31526259E+02 E0= -.31476454E+02  EK= 0.22052E+01 SP= -.25E+01 SK= 0.18E-01 mag=      0.024
       N       E                     dE             d eps       ncg     rms          rms(c)
DAV:   1    -0.315554611276E+02   -0.30275E-01   -0.20305E-02  2600   0.101E+00    0.358E-02
RMM:   2    -0.315565717874E+02   -0.11107E-02   -0.40247E-03  1557   0.263E-01
    254 T=   679. E= -.31829739E+02 F= -.31556572E+02 E0= -.31506644E+02  EK= 0.22828E+01 SP= -.26E+01 SK= 0.26E-01 mag=      0.017
       N       E                     dE             d eps       ncg     rms          rms(c)
DAV:   1    -0.315879381118E+02   -0.32477E-01   -0.21068E-02  2424   0.101E+00    0.401E-02
RMM:   2    -0.315892143724E+02   -0.12763E-02   -0.48442E-03  1582   0.281E-01
    255 T=   706. E= -.31827792E+02 F= -.31589214E+02 E0= -.31539246E+02  EK= 0.23732E+01 SP= -.26E+01 SK= 0.35E-01 mag=     -0.005
       N       E                     dE             d eps       ncg     rms          rms(c)
DAV:   1    -0.316220613231E+02   -0.34123E-01   -0.25684E-02  2680   0.105E+00    0.525E-02
RMM:   2    -0.316236180345E+02   -0.15567E-02   -0.49782E-03  1577   0.288E-01    0.419E-02
RMM:   3    -0.316242444435E+02   -0.62641E-03   -0.18435E-03  1423   0.113E-01
    256 T=   736. E= -.31826608E+02 F= -.31624244E+02 E0= -.31574185E+02  EK= 0.24745E+01 SP= -.27E+01 SK= 0.42E-01 mag=     -0.013
       N       E                     dE             d eps       ncg     rms          rms(c)
DAV:   1    -0.316581333916E+02   -0.34515E-01   -0.33338E-02  2640   0.107E+00    0.644E-02
RMM:   2    -0.316597468339E+02   -0.16134E-02   -0.36441E-03  1457   0.256E-01    0.472E-02
RMM:   3    -0.316602617430E+02   -0.51491E-03   -0.10470E-03  1343   0.921E-02
    257 T=   769. E= -.31824895E+02 F= -.31660262E+02 E0= -.31610106E+02  EK= 0.25851E+01 SP= -.28E+01 SK= 0.47E-01 mag=      0.002
       N       E                     dE             d eps       ncg     rms          rms(c)
DAV:   1    -0.316952816087E+02   -0.35535E-01   -0.39233E-02  2552   0.107E+00    0.502E-02
RMM:   2    -0.316964587671E+02   -0.11772E-02   -0.39515E-03  1577   0.264E-01
    258 T=   804. E= -.31822034E+02 F= -.31696459E+02 E0= -.31646250E+02  EK= 0.27027E+01 SP= -.29E+01 SK= 0.48E-01 mag=      0.025
       N       E                     dE             d eps       ncg     rms          rms(c)
DAV:   1    -0.317310961767E+02   -0.35815E-01   -0.28215E-02  2704   0.114E+00    0.370E-02
RMM:   2    -0.317322491011E+02   -0.11529E-02   -0.42034E-03  1587   0.276E-01
    259 T=   839. E= -.31821145E+02 F= -.31732249E+02 E0= -.31681920E+02  EK= 0.28212E+01 SP= -.30E+01 SK= 0.46E-01 mag=      0.039
       N       E                     dE             d eps       ncg     rms          rms(c)
DAV:   1    -0.317648683621E+02   -0.33772E-01   -0.23322E-02  2320   0.111E+00    0.398E-02
RMM:   2    -0.317662175475E+02   -0.13492E-02   -0.45328E-03  1587   0.305E-01
    260 T=   874. E= -.31819339E+02 F= -.31766218E+02 E0= -.31715834E+02  EK= 0.29386E+01 SP= -.30E+01 SK= 0.41E-01 mag=      0.028
       N       E                     dE             d eps       ncg     rms          rms(c)
DAV:   1    -0.317959522488E+02   -0.31084E-01   -0.33053E-02  2800   0.124E+00    0.456E-02
RMM:   2    -0.317974998493E+02   -0.15476E-02   -0.46512E-03  1575   0.295E-01    0.341E-02
RMM:   3    -0.317979000012E+02   -0.40015E-03   -0.13712E-03  1466   0.114E-01
    261 T=   908. E= -.31816538E+02 F= -.31797900E+02 E0= -.31747538E+02  EK= 0.30512E+01 SP= -.31E+01 SK= 0.33E-01 mag=     -0.006
       N       E                     dE             d eps       ncg     rms          rms(c)
DAV:   1    -0.318249672474E+02   -0.27467E-01   -0.27128E-02  2544   0.114E+00    0.475E-02
RMM:   2    -0.318263682999E+02   -0.14011E-02   -0.34960E-03  1521   0.268E-01    0.309E-02
RMM:   3    -0.318265735756E+02   -0.20528E-03   -0.76548E-04  1203   0.950E-02
    262 T=   938. E= -.31813826E+02 F= -.31826574E+02 E0= -.31776142E+02  EK= 0.31532E+01 SP= -.32E+01 SK= 0.23E-01 mag=     -0.025
       N       E                     dE             d eps       ncg     rms          rms(c)
DAV:   1    -0.318493853296E+02   -0.23017E-01   -0.30439E-02  2776   0.117E+00    0.427E-02
RMM:   2    -0.318508208263E+02   -0.14355E-02   -0.46543E-03  1613   0.274E-01    0.286E-02
RMM:   3    -0.318511334671E+02   -0.31264E-03   -0.11518E-03  1370   0.111E-01
    263 T=   964. E= -.31810069E+02 F= -.31851133E+02 E0= -.31800756E+02  EK= 0.32406E+01 SP= -.32E+01 SK= 0.14E-01 mag=     -0.006
       N       E                     dE             d eps       ncg     rms          rms(c)
DAV:   1    -0.318700966385E+02   -0.19276E-01   -0.24441E-02  2024   0.119E+00    0.331E-02
RMM:   2    -0.318714187352E+02   -0.13221E-02   -0.38286E-03  1605   0.288E-01
    264 T=   985. E= -.31805521E+02 F= -.31871419E+02 E0= -.31821095E+02  EK= 0.33094E+01 SP= -.32E+01 SK= 0.61E-02 mag=      0.034
       N       E                     dE             d eps       ncg     rms          rms(c)
DAV:   1    -0.318852814568E+02   -0.15185E-01   -0.29990E-02  2960   0.124E+00    0.389E-02
RMM:   2    -0.318867352314E+02   -0.14538E-02   -0.42485E-03  1577   0.271E-01    0.265E-02
RMM:   3    -0.318870594259E+02   -0.32419E-03   -0.12790E-03  1348   0.107E-01
    265 T=   998. E= -.31802595E+02 F= -.31887059E+02 E0= -.31836831E+02  EK= 0.33537E+01 SP= -.33E+01 SK= 0.12E-02 mag=      0.031
       N       E                     dE             d eps       ncg     rms          rms(c)
DAV:   1    -0.318961864023E+02   -0.94512E-02   -0.23203E-02  2248   0.117E+00    0.344E-02
RMM:   2    -0.318975630519E+02   -0.13766E-02   -0.34442E-03  1558   0.276E-01    0.221E-02
RMM:   3    -0.318977300942E+02   -0.16704E-03   -0.87915E-04  1173   0.992E-02
    266 T=  1004. E= -.31799400E+02 F= -.31897730E+02 E0= -.31847623E+02  EK= 0.33732E+01 SP= -.33E+01 SK= 0.12E-03 mag=     -0.006
       N       E                     dE             d eps       ncg     rms          rms(c)
DAV:   1    -0.319018317210E+02   -0.42687E-02   -0.27798E-02  2360   0.121E+00    0.325E-02
RMM:   2    -0.319031583281E+02   -0.13266E-02   -0.39085E-03  1575   0.280E-01
    267 T=  1003. E= -.31792724E+02 F= -.31903158E+02 E0= -.31853256E+02  EK= 0.33697E+01 SP= -.33E+01 SK= 0.33E-02 mag=     -0.052
       N       E                     dE             d eps       ncg     rms          rms(c)
DAV:   1    -0.319029240654E+02   -0.10923E-02   -0.23309E-02  2840   0.126E+00    0.374E-02
RMM:   2    -0.319043670792E+02   -0.14430E-02   -0.44474E-03  1538   0.277E-01    0.269E-02
RMM:   3    -0.319046751884E+02   -0.30811E-03   -0.11870E-03  1322   0.109E-01
    268 T=   993. E= -.31789684E+02 F= -.31904675E+02 E0= -.31854969E+02  EK= 0.33379E+01 SP= -.32E+01 SK= 0.10E-01 mag=     -0.037
       N       E                     dE             d eps       ncg     rms          rms(c)
DAV:   1    -0.319007077835E+02    0.36593E-02   -0.21621E-02  2264   0.116E+00    0.401E-02
RMM:   2    -0.319021112295E+02   -0.14034E-02   -0.40825E-03  1557   0.294E-01    0.259E-02
RMM:   3    -0.319022990431E+02   -0.18781E-03   -0.92910E-04  1185   0.107E-01
    269 T=   977. E= -.31786020E+02 F= -.31902299E+02 E0= -.31852824E+02  EK= 0.32835E+01 SP= -.32E+01 SK= 0.21E-01 mag=      0.014
       N       E                     dE             d eps       ncg     rms          rms(c)
DAV:   1    -0.318950302374E+02    0.70810E-02   -0.25045E-02  2488   0.120E+00    0.394E-02
RMM:   2    -0.318962902327E+02   -0.12600E-02   -0.40323E-03  1597   0.274E-01
    270 T=   956. E= -.31779082E+02 F= -.31896290E+02 E0= -.31847151E+02  EK= 0.32122E+01 SP= -.31E+01 SK= 0.33E-01 mag=      0.063
       N       E                     dE             d eps       ncg     rms          rms(c)
DAV:   1    -0.318874341255E+02    0.75961E-02   -0.20650E-02  2856   0.127E+00    0.350E-02
RMM:   2    -0.318886892220E+02   -0.12551E-02   -0.43228E-03  1574   0.276E-01
    271 T=   929. E= -.31775870E+02 F= -.31888689E+02 E0= -.31839857E+02  EK= 0.31222E+01 SP= -.31E+01 SK= 0.46E-01 mag=      0.071
       N       E                     dE             d eps       ncg     rms          rms(c)
DAV:   1    -0.318791379433E+02    0.82962E-02   -0.17327E-02  2400   0.116E+00    0.234E-02
RMM:   2    -0.318803694766E+02   -0.12315E-02   -0.49594E-03  1602   0.328E-01
    272 T=   899. E= -.31771431E+02 F= -.31880369E+02 E0= -.31831831E+02  EK= 0.30230E+01 SP= -.30E+01 SK= 0.58E-01 mag=      0.030
       N       E                     dE             d eps       ncg     rms          rms(c)
DAV:   1    -0.318701567888E+02    0.89812E-02   -0.29822E-02  2856   0.126E+00    0.386E-02
RMM:   2    -0.318715049668E+02   -0.13482E-02   -0.50579E-03  1601   0.301E-01
    273 T=   869. E= -.31765009E+02 F= -.31871505E+02 E0= -.31823404E+02  EK= 0.29192E+01 SP= -.29E+01 SK= 0.67E-01 mag=     -0.032
       N       E                     dE             d eps       ncg     rms          rms(c)
DAV:   1    -0.318627354212E+02    0.74214E-02   -0.17915E-02  2624   0.118E+00    0.435E-02
RMM:   2    -0.318640648933E+02   -0.13295E-02   -0.50592E-03  1610   0.331E-01
    274 T=   837. E= -.31759257E+02 F= -.31864065E+02 E0= -.31816403E+02  EK= 0.28137E+01 SP= -.28E+01 SK= 0.74E-01 mag=     -0.078
       N       E                     dE             d eps       ncg     rms          rms(c)
DAV:   1    -0.318581181674E+02    0.46173E-02   -0.21045E-02  2552   0.119E+00    0.295E-02
RMM:   2    -0.318592269166E+02   -0.11087E-02   -0.45402E-03  1583   0.303E-01
    275 T=   807. E= -.31753870E+02 F= -.31859227E+02 E0= -.31811929E+02  EK= 0.27111E+01 SP= -.27E+01 SK= 0.77E-01 mag=     -0.077
       N       E                     dE             d eps       ncg     rms          rms(c)
DAV:   1    -0.318558234260E+02    0.22947E-02   -0.15048E-02  2512   0.112E+00    0.286E-02
RMM:   2    -0.318569102812E+02   -0.10869E-02   -0.49363E-03  1585   0.310E-01
    276 T=   778. E= -.31748792E+02 F= -.31856910E+02 E0= -.31810064E+02  EK= 0.26138E+01 SP= -.26E+01 SK= 0.76E-01 mag=     -0.027
       N       E                     dE             d eps       ncg     rms          rms(c)
DAV:   1    -0.318564211579E+02   -0.59773E-03   -0.19656E-02  2776   0.113E+00    0.537E-02
RMM:   2    -0.318578957736E+02   -0.14746E-02   -0.51151E-03  1568   0.305E-01    0.427E-02
RMM:   3    -0.318585742419E+02   -0.67847E-03   -0.19606E-03  1405   0.119E-01
    277 T=   751. E= -.31744195E+02 F= -.31858574E+02 E0= -.31812224E+02  EK= 0.25252E+01 SP= -.25E+01 SK= 0.71E-01 mag=      0.001
       N       E                     dE             d eps       ncg     rms          rms(c)
DAV:   1    -0.318631296163E+02   -0.52338E-02   -0.19334E-02  2568   0.107E+00    0.532E-02
RMM:   2    -0.318644194327E+02   -0.12898E-02   -0.43039E-03  1539   0.300E-01
    278 T=   729. E= -.31737904E+02 F= -.31864419E+02 E0= -.31818569E+02  EK= 0.24493E+01 SP= -.24E+01 SK= 0.64E-01 mag=      0.016
       N       E                     dE             d eps       ncg     rms          rms(c)
DAV:   1    -0.318722237615E+02   -0.90941E-02   -0.34748E-02  3008   0.113E+00    0.770E-02
RMM:   2    -0.318740594871E+02   -0.18357E-02   -0.52035E-03  1580   0.264E-01    0.577E-02
RMM:   3    -0.318755110381E+02   -0.14516E-02   -0.28341E-03  1404   0.116E-01    0.310E-02
RMM:   4    -0.318759100356E+02   -0.39900E-03   -0.11458E-03  1384   0.786E-02
    279 T=   710. E= -.31733634E+02 F= -.31875910E+02 E0= -.31830494E+02  EK= 0.23848E+01 SP= -.23E+01 SK= 0.55E-01 mag=      0.029
       N       E                     dE             d eps       ncg     rms          rms(c)
DAV:   1    -0.318882514671E+02   -0.12740E-01   -0.16879E-02  2568   0.101E+00    0.826E-02
RMM:   2    -0.318902136318E+02   -0.19622E-02   -0.59729E-03  1469   0.252E-01    0.620E-02
RMM:   3    -0.318914947348E+02   -0.12811E-02   -0.26303E-03  1400   0.110E-01
    280 T=   694. E= -.31731129E+02 F= -.31891495E+02 E0= -.31846681E+02  EK= 0.23311E+01 SP= -.22E+01 SK= 0.45E-01 mag=     -0.022
       N       E                     dE             d eps       ncg     rms          rms(c)
DAV:   1    -0.319124209365E+02   -0.22207E-01   -0.29777E-02  2664   0.103E+00    0.549E-02
RMM:   2    -0.319132888598E+02   -0.86792E-03   -0.37591E-03  1543   0.268E-01
    281 T=   682. E= -.31727906E+02 F= -.31913289E+02 E0= -.31868987E+02  EK= 0.22933E+01 SP= -.21E+01 SK= 0.35E-01 mag=     -0.086
       N       E                     dE             d eps       ncg     rms          rms(c)
DAV:   1    -0.319393281877E+02   -0.26907E-01   -0.26672E-02  2768   0.104E+00    0.384E-02
RMM:   2    -0.319401401155E+02   -0.81193E-03   -0.38035E-03  1542   0.255E-01
    282 T=   675. E= -.31726024E+02 F= -.31940140E+02 E0= -.31896382E+02  EK= 0.22684E+01 SP= -.21E+01 SK= 0.25E-01 mag=     -0.107
       N       E                     dE             d eps       ncg     rms          rms(c)
DAV:   1    -0.319710156689E+02   -0.31687E-01   -0.11772E-02  2552   0.961E-01    0.433E-02
RMM:   2    -0.319718690101E+02   -0.85334E-03   -0.37057E-03  1535   0.258E-01
    283 T=   672. E= -.31723697E+02 F= -.31971869E+02 E0= -.31928664E+02  EK= 0.22580E+01 SP= -.20E+01 SK= 0.17E-01 mag=     -0.052
       N       E                     dE             d eps       ncg     rms          rms(c)
DAV:   1    -0.320072499089E+02   -0.36234E-01   -0.14845E-02  2472   0.107E+00    0.403E-02
RMM:   2    -0.320081346782E+02   -0.88477E-03   -0.41196E-03  1544   0.266E-01
    284 T=   673. E= -.31720065E+02 F= -.32008135E+02 E0= -.31965519E+02  EK= 0.22624E+01 SP= -.20E+01 SK= 0.10E-01 mag=      0.054
       N       E                     dE             d eps       ncg     rms          rms(c)
DAV:   1    -0.320477379930E+02   -0.40488E-01   -0.88608E-03  2280   0.957E-01    0.420E-02
RMM:   2    -0.320486437182E+02   -0.90573E-03   -0.39548E-03  1544   0.283E-01
    285 T=   678. E= -.31716840E+02 F= -.32048644E+02 E0= -.32006720E+02  EK= 0.22794E+01 SP= -.20E+01 SK= 0.53E-02 mag=      0.137
       N       E                     dE             d eps       ncg     rms          rms(c)
DAV:   1    -0.320918371069E+02   -0.44099E-01   -0.13969E-02  2576   0.105E+00    0.422E-02
RMM:   2    -0.320927663214E+02   -0.92921E-03   -0.43493E-03  1559   0.265E-01
    286 T=   687. E= -.31713656E+02 F= -.32092766E+02 E0= -.32051429E+02  EK= 0.23084E+01 SP= -.19E+01 SK= 0.21E-02 mag=      0.136
       N       E                     dE             d eps       ncg     rms          rms(c)
DAV:   1    -0.321381744072E+02   -0.46337E-01   -0.15084E-02  2464   0.100E+00    0.404E-02
RMM:   2    -0.321391870893E+02   -0.10127E-02   -0.45572E-03  1568   0.276E-01
    287 T=   698. E= -.31710430E+02 F= -.32139187E+02 E0= -.32098415E+02  EK= 0.23475E+01 SP= -.19E+01 SK= 0.48E-03 mag=      0.033
       N       E                     dE             d eps       ncg     rms          rms(c)
DAV:   1    -0.321863438510E+02   -0.48169E-01   -0.16389E-02  2640   0.106E+00    0.454E-02
RMM:   2    -0.321874190180E+02   -0.10752E-02   -0.51282E-03  1625   0.287E-01
    288 T=   713. E= -.31706797E+02 F= -.32187419E+02 E0= -.32147312E+02  EK= 0.23961E+01 SP= -.19E+01 SK= 0.16E-06 mag=     -0.118
       N       E                     dE             d eps       ncg     rms          rms(c)
DAV:   1    -0.322348972211E+02   -0.48553E-01   -0.17042E-02  2520   0.102E+00    0.529E-02
RMM:   2    -0.322361609080E+02   -0.12637E-02   -0.47119E-03  1567   0.289E-01
    289 T=   729. E= -.31703124E+02 F= -.32236161E+02 E0= -.32196854E+02  EK= 0.24516E+01 SP= -.19E+01 SK= 0.31E-03 mag=     -0.169
       N       E                     dE             d eps       ncg     rms          rms(c)
DAV:   1    -0.322844300940E+02   -0.49533E-01   -0.15705E-02  2584   0.111E+00    0.488E-02
RMM:   2    -0.322854982885E+02   -0.10682E-02   -0.48837E-03  1569   0.296E-01
    290 T=   748. E= -.31700025E+02 F= -.32285498E+02 E0= -.32246647E+02  EK= 0.25127E+01 SP= -.19E+01 SK= 0.99E-03 mag=     -0.086
       N       E                     dE             d eps       ncg     rms          rms(c)
DAV:   1    -0.323313839537E+02   -0.46954E-01   -0.17949E-02  2664   0.107E+00    0.540E-02
RMM:   2    -0.323327217040E+02   -0.13378E-02   -0.55098E-03  1614   0.301E-01
    291 T=   767. E= -.31695935E+02 F= -.32332722E+02 E0= -.32294545E+02  EK= 0.25770E+01 SP= -.19E+01 SK= 0.17E-02 mag=      0.079
       N       E                     dE             d eps       ncg     rms          rms(c)
DAV:   1    -0.323761003053E+02   -0.44716E-01   -0.15893E-02  2352   0.109E+00    0.611E-02
RMM:   2    -0.323775558923E+02   -0.14556E-02   -0.52166E-03  1584   0.299E-01    0.458E-02
RMM:   3    -0.323780020013E+02   -0.44611E-03   -0.14530E-03  1481   0.114E-01
    292 T=   786. E= -.31693370E+02 F= -.32378002E+02 E0= -.32340551E+02  EK= 0.26407E+01 SP= -.20E+01 SK= 0.22E-02 mag=      0.091
       N       E                     dE             d eps       ncg     rms          rms(c)
DAV:   1    -0.324186686431E+02   -0.41113E-01   -0.21613E-02  2576   0.109E+00    0.547E-02
RMM:   2    -0.324199205872E+02   -0.12519E-02   -0.40307E-03  1457   0.254E-01
    293 T=   805. E= -.31688448E+02 F= -.32419921E+02 E0= -.32382983E+02  EK= 0.27051E+01 SP= -.20E+01 SK= 0.23E-02 mag=     -0.031
       N       E                     dE             d eps       ncg     rms          rms(c)
DAV:   1    -0.324542885295E+02   -0.35620E-01   -0.32269E-02  3024   0.118E+00    0.842E-02
RMM:   2    -0.324562841197E+02   -0.19956E-02   -0.52478E-03  1581   0.254E-01    0.608E-02
RMM:   3    -0.324575476284E+02   -0.12635E-02   -0.25598E-03  1400   0.115E-01
    294 T=   822. E= -.31684424E+02 F= -.32457548E+02 E0= -.32421285E+02  EK= 0.27642E+01 SP= -.20E+01 SK= 0.20E-02 mag=     -0.042
       N       E                     dE             d eps       ncg     rms          rms(c)
DAV:   1    -0.324873722441E+02   -0.31088E-01   -0.20229E-02  2416   0.106E+00    0.802E-02
RMM:   2    -0.324893784163E+02   -0.20062E-02   -0.44303E-03  1520   0.262E-01    0.572E-02
RMM:   3    -0.324900053682E+02   -0.62695E-03   -0.12529E-03  1396   0.103E-01
    295 T=   837. E= -.31682675E+02 F= -.32490005E+02 E0= -.32454298E+02  EK= 0.28143E+01 SP= -.20E+01 SK= 0.14E-02 mag=     -0.000
       N       E                     dE             d eps       ncg     rms          rms(c)
DAV:   1    -0.325154795905E+02   -0.26101E-01   -0.48012E-02  2752   0.113E+00    0.482E-02
RMM:   2    -0.325166951947E+02   -0.12156E-02   -0.48710E-03  1602   0.281E-01
    296 T=   850. E= -.31678802E+02 F= -.32516695E+02 E0= -.32481570E+02  EK= 0.28577E+01 SP= -.20E+01 SK= 0.77E-03 mag=      0.066
       N       E                     dE             d eps       ncg     rms          rms(c)
DAV:   1    -0.325357102403E+02   -0.20231E-01   -0.37333E-02  2880   0.117E+00    0.481E-02
RMM:   2    -0.325369625691E+02   -0.12523E-02   -0.47479E-03  1592   0.272E-01
    297 T=   859. E= -.31676975E+02 F= -.32536963E+02 E0= -.32502447E+02  EK= 0.28884E+01 SP= -.20E+01 SK= 0.24E-03 mag=      0.095
       N       E                     dE             d eps       ncg     rms          rms(c)
DAV:   1    -0.325498509013E+02   -0.14141E-01   -0.16319E-02  2728   0.113E+00    0.373E-02
RMM:   2    -0.325510419299E+02   -0.11910E-02   -0.47545E-03  1602   0.299E-01
    298 T=   865. E= -.31674388E+02 F= -.32551042E+02 E0= -.32517017E+02  EK= 0.29084E+01 SP= -.20E+01 SK= 0.13E-05 mag=      0.047
       N       E                     dE             d eps       ncg     rms          rms(c)
DAV:   1    -0.325571359658E+02   -0.72851E-02   -0.25082E-02  2552   0.123E+00    0.392E-02
RMM:   2    -0.325583833896E+02   -0.12474E-02   -0.51310E-03  1605   0.296E-01
    299 T=   868. E= -.31669600E+02 F= -.32558383E+02 E0= -.32524867E+02  EK= 0.29181E+01 SP= -.20E+01 SK= 0.20E-03 mag=     -0.052
       N       E                     dE             d eps       ncg     rms          rms(c)
DAV:   1    -0.325572803527E+02   -0.14439E-03   -0.14685E-02  2784   0.113E+00    0.514E-02
RMM:   2    -0.325587989474E+02   -0.15186E-02   -0.52238E-03  1587   0.296E-01    0.392E-02
RMM:   3    -0.325594143991E+02   -0.61545E-03   -0.19974E-03  1417   0.119E-01
    300 T=   867. E= -.31667050E+02 F= -.32559414E+02 E0= -.32526388E+02  EK= 0.29130E+01 SP= -.20E+01 SK= 0.87E-03 mag=     -0.023
       N       E                     dE             d eps       ncg     rms          rms(c)
DAV:   1    -0.325524991439E+02    0.62998E-02   -0.23859E-02  2592   0.115E+00    0.559E-02
RMM:   2    -0.325540551751E+02   -0.15560E-02   -0.45120E-03  1568   0.287E-01    0.401E-02
RMM:   3    -0.325543965568E+02   -0.34138E-03   -0.91686E-04  1266   0.103E-01
    301 T=   862. E= -.31663039E+02 F= -.32554397E+02 E0= -.32521798E+02  EK= 0.28974E+01 SP= -.20E+01 SK= 0.19E-02 mag=      0.034
       N       E                     dE             d eps       ncg     rms          rms(c)
DAV:   1    -0.325428355550E+02    0.11220E-01   -0.31424E-02  2880   0.115E+00    0.417E-02
RMM:   2    -0.325439311156E+02   -0.10956E-02   -0.44080E-03  1604   0.263E-01
    302 T=   855. E= -.31657732E+02 F= -.32543931E+02 E0= -.32511732E+02  EK= 0.28723E+01 SP= -.20E+01 SK= 0.33E-02 mag=      0.068
       N       E                     dE             d eps       ncg     rms          rms(c)
DAV:   1    -0.325277253461E+02    0.15110E-01   -0.24125E-02  2872   0.119E+00    0.297E-02
RMM:   2    -0.325287732926E+02   -0.10479E-02   -0.44185E-03  1607   0.274E-01
    303 T=   844. E= -.31654955E+02 F= -.32528773E+02 E0= -.32496907E+02  EK= 0.28353E+01 SP= -.20E+01 SK= 0.47E-02 mag=      0.045
       N       E                     dE             d eps       ncg     rms          rms(c)
DAV:   1    -0.325089100903E+02    0.18815E-01   -0.17018E-02  2408   0.114E+00    0.312E-02
RMM:   2    -0.325099417629E+02   -0.10317E-02   -0.42145E-03  1606   0.300E-01
    304 T=   831. E= -.31651642E+02 F= -.32509942E+02 E0= -.32478376E+02  EK= 0.27918E+01 SP= -.19E+01 SK= 0.59E-02 mag=     -0.021
       N       E                     dE             d eps       ncg     rms          rms(c)
DAV:   1    -0.324869516146E+02    0.21958E-01   -0.20308E-02  2816   0.117E+00    0.375E-02
RMM:   2    -0.324881152457E+02   -0.11636E-02   -0.43283E-03  1582   0.281E-01
    305 T=   817. E= -.31646794E+02 F= -.32488115E+02 E0= -.32456856E+02  EK= 0.27446E+01 SP= -.19E+01 SK= 0.68E-02 mag=     -0.071
       N       E                     dE             d eps       ncg     rms          rms(c)
DAV:   1    -0.324638628748E+02    0.23089E-01   -0.12961E-02  2576   0.108E+00    0.349E-02
RMM:   2    -0.324649494881E+02   -0.10866E-02   -0.43965E-03  1599   0.276E-01
    306 T=   802. E= -.31642915E+02 F= -.32464949E+02 E0= -.32433923E+02  EK= 0.26942E+01 SP= -.19E+01 SK= 0.71E-02 mag=     -0.057
       N       E                     dE             d eps       ncg     rms          rms(c)
DAV:   1    -0.324404113907E+02    0.23451E-01   -0.17830E-02  2488   0.110E+00    0.240E-02
RMM:   2    -0.324413530956E+02   -0.94170E-03   -0.42135E-03  1592   0.277E-01
    307 T=   787. E= -.31638883E+02 F= -.32441353E+02 E0= -.32410496E+02  EK= 0.26440E+01 SP= -.18E+01 SK= 0.69E-02 mag=      0.012
       N       E                     dE             d eps       ncg     rms          rms(c)
DAV:   1    -0.324162833740E+02    0.24128E-01   -0.17420E-02  2792   0.104E+00    0.380E-02
RMM:   2    -0.324174390331E+02   -0.11557E-02   -0.46522E-03  1600   0.279E-01
    308 T=   772. E= -.31634783E+02 F= -.32417439E+02 E0= -.32386770E+02  EK= 0.25952E+01 SP= -.18E+01 SK= 0.62E-02 mag=      0.070
       N       E                     dE             d eps       ncg     rms          rms(c)
DAV:   1    -0.323940351093E+02    0.22248E-01   -0.15018E-02  2656   0.106E+00    0.409E-02
RMM:   2    -0.323951520744E+02   -0.11170E-02   -0.46367E-03  1609   0.283E-01
    309 T=   759. E= -.31630706E+02 F= -.32395152E+02 E0= -.32364627E+02  EK= 0.25507E+01 SP= -.18E+01 SK= 0.50E-02 mag=      0.069
       N       E                     dE             d eps       ncg     rms          rms(c)
DAV:   1    -0.323746583791E+02    0.19377E-01   -0.14297E-02  2464   0.102E+00    0.226E-02
RMM:   2    -0.323755102723E+02   -0.85189E-03   -0.39855E-03  1564   0.277E-01
    310 T=   748. E= -.31626839E+02 F= -.32375510E+02 E0= -.32345034E+02  EK= 0.25123E+01 SP= -.18E+01 SK= 0.36E-02 mag=      0.006
       N       E                     dE             d eps       ncg     rms          rms(c)
DAV:   1    -0.323571795476E+02    0.17479E-01   -0.13429E-02  2552   0.103E+00    0.343E-02
RMM:   2    -0.323581503712E+02   -0.97082E-03   -0.42652E-03  1557   0.262E-01
    311 T=   738. E= -.31622410E+02 F= -.32358150E+02 E0= -.32327762E+02  EK= 0.24810E+01 SP= -.17E+01 SK= 0.22E-02 mag=     -0.070
       N       E                     dE             d eps       ncg     rms          rms(c)
DAV:   1    -0.323430980134E+02    0.14082E-01   -0.14477E-02  2696   0.102E+00    0.499E-02
RMM:   2    -0.323443072425E+02   -0.12092E-02   -0.45299E-03  1584   0.271E-01
    312 T=   732. E= -.31617756E+02 F= -.32344307E+02 E0= -.32314007E+02  EK= 0.24585E+01 SP= -.17E+01 SK= 0.10E-02 mag=     -0.082
       N       E                     dE             d eps       ncg     rms          rms(c)
DAV:   1    -0.323344004395E+02    0.86976E-02   -0.13489E-02  2528   0.100E+00    0.282E-02
RMM:   2    -0.323352348952E+02   -0.83446E-03   -0.42496E-03  1572   0.275E-01
    313 T=   727. E= -.31614288E+02 F= -.32335235E+02 E0= -.32304890E+02  EK= 0.24447E+01 SP= -.17E+01 SK= 0.26E-03 mag=     -0.021
       N       E                     dE             d eps       ncg     rms          rms(c)
DAV:   1    -0.323284082520E+02    0.59922E-02   -0.14818E-02  2504   0.980E-01    0.362E-02
RMM:   2    -0.323293418687E+02   -0.93362E-03   -0.44582E-03  1554   0.274E-01
    314 T=   726. E= -.31610345E+02 F= -.32329342E+02 E0= -.32298982E+02  EK= 0.24402E+01 SP= -.17E+01 SK= 0.28E-06 mag=      0.072
       N       E                     dE             d eps       ncg     rms          rms(c)
DAV:   1    -0.323257309769E+02    0.26773E-02   -0.13233E-02  2600   0.100E+00    0.553E-02
RMM:   2    -0.323270202483E+02   -0.12893E-02   -0.45553E-03  1547   0.270E-01
    315 T=   728. E= -.31605893E+02 F= -.32327020E+02 E0= -.32296709E+02  EK= 0.24453E+01 SP= -.17E+01 SK= 0.30E-03 mag=      0.095
       N       E                     dE             d eps       ncg     rms          rms(c)
DAV:   1    -0.323289320631E+02   -0.32011E-02   -0.13172E-02  2512   0.102E+00    0.346E-02
RMM:   2    -0.323297586333E+02   -0.82657E-03   -0.42849E-03  1564   0.289E-01
    316 T=   732. E= -.31602494E+02 F= -.32329759E+02 E0= -.32299324E+02  EK= 0.24599E+01 SP= -.17E+01 SK= 0.11E-02 mag=      0.033
       N       E                     dE             d eps       ncg     rms          rms(c)
DAV:   1    -0.323341774168E+02   -0.52454E-02   -0.14625E-02  2568   0.101E+00    0.376E-02
RMM:   2    -0.323351550181E+02   -0.97760E-03   -0.51382E-03  1590   0.292E-01
    317 T=   739. E= -.31598314E+02 F= -.32335155E+02 E0= -.32304630E+02  EK= 0.24832E+01 SP= -.17E+01 SK= 0.23E-02 mag=     -0.069
       N       E                     dE             d eps       ncg     rms          rms(c)
DAV:   1    -0.323418131919E+02   -0.76358E-02   -0.14175E-02  2576   0.101E+00    0.568E-02
RMM:   2    -0.323431819219E+02   -0.13687E-02   -0.53532E-03  1592   0.292E-01    0.442E-02
RMM:   3    -0.323437490817E+02   -0.56716E-03   -0.16820E-03  1448   0.117E-01
    318 T=   748. E= -.31595043E+02 F= -.32343749E+02 E0= -.32313174E+02  EK= 0.25136E+01 SP= -.18E+01 SK= 0.37E-02 mag=     -0.026
       N       E                     dE             d eps       ncg     rms          rms(c)
DAV:   1    -0.323539167098E+02   -0.10735E-01   -0.20113E-02  2592   0.104E+00    0.557E-02
RMM:   2    -0.323550231948E+02   -0.11065E-02   -0.36081E-03  1477   0.262E-01
    319 T=   760. E= -.31590087E+02 F= -.32355023E+02 E0= -.32324310E+02  EK= 0.25527E+01 SP= -.18E+01 SK= 0.51E-02 mag=      0.096
       N       E                     dE             d eps       ncg     rms          rms(c)
DAV:   1    -0.323656839876E+02   -0.11767E-01   -0.29445E-02  2800   0.110E+00    0.751E-02
RMM:   2    -0.323672916883E+02   -0.16077E-02   -0.46458E-03  1573   0.265E-01    0.556E-02
RMM:   3    -0.323683186584E+02   -0.10270E-02   -0.19785E-03  1403   0.111E-01
    320 T=   773. E= -.31586217E+02 F= -.32368319E+02 E0= -.32337493E+02  EK= 0.25964E+01 SP= -.18E+01 SK= 0.62E-02 mag=      0.031
       N       E                     dE             d eps       ncg     rms          rms(c)
DAV:   1    -0.323805586223E+02   -0.13267E-01   -0.12727E-02  2328   0.103E+00    0.740E-02
RMM:   2    -0.323821615986E+02   -0.16030E-02   -0.41295E-03  1472   0.257E-01    0.543E-02
RMM:   3    -0.323827250302E+02   -0.56343E-03   -0.11334E-03  1380   0.997E-02
    321 T=   786. E= -.31584474E+02 F= -.32382725E+02 E0= -.32351721E+02  EK= 0.26417E+01 SP= -.19E+01 SK= 0.70E-02 mag=     -0.034
       N       E                     dE             d eps       ncg     rms          rms(c)
DAV:   1    -0.323968770845E+02   -0.14715E-01   -0.33716E-02  2616   0.105E+00    0.446E-02
RMM:   2    -0.323978394769E+02   -0.96239E-03   -0.43805E-03  1560   0.279E-01
    322 T=   801. E= -.31580624E+02 F= -.32397839E+02 E0= -.32366672E+02  EK= 0.26915E+01 SP= -.19E+01 SK= 0.73E-02 mag=     -0.063
       N       E                     dE             d eps       ncg     rms          rms(c)
DAV:   1    -0.324120755038E+02   -0.15198E-01   -0.27366E-02  2728   0.110E+00    0.338E-02
RMM:   2    -0.324129548964E+02   -0.87939E-03   -0.43522E-03  1584   0.272E-01
    323 T=   815. E= -.31577997E+02 F= -.32412955E+02 E0= -.32381581E+02  EK= 0.27406E+01 SP= -.19E+01 SK= 0.70E-02 mag=     -0.033
       N       E                     dE             d eps       ncg     rms          rms(c)
DAV:   1    -0.324263428873E+02   -0.14267E-01   -0.11780E-02  2488   0.104E+00    0.309E-02
RMM:   2    -0.324271970561E+02   -0.85417E-03   -0.44310E-03  1583   0.290E-01
    324 T=   830. E= -.31574719E+02 F= -.32427197E+02 E0= -.32395597E+02  EK= 0.27887E+01 SP= -.19E+01 SK= 0.61E-02 mag=      0.033
       N       E                     dE             d eps       ncg     rms          rms(c)
DAV:   1    -0.324388981304E+02   -0.12555E-01   -0.16131E-02  2480   0.117E+00    0.355E-02
RMM:   2    -0.324399508759E+02   -0.10527E-02   -0.50891E-03  1590   0.290E-01
    325 T=   844. E= -.31569623E+02 F= -.32439951E+02 E0= -.32408161E+02  EK= 0.28350E+01 SP= -.20E+01 SK= 0.49E-02 mag=      0.081
       N       E                     dE             d eps       ncg     rms          rms(c)
DAV:   1    -0.324502449255E+02   -0.11347E-01   -0.90800E-03  2320   0.107E+00    0.353E-02
RMM:   2    -0.324512662645E+02   -0.10213E-02   -0.46951E-03  1568   0.302E-01
    326 T=   856. E= -.31564510E+02 F= -.32451266E+02 E0= -.32419234E+02  EK= 0.28766E+01 SP= -.20E+01 SK= 0.34E-02 mag=      0.068
       N       E                     dE             d eps       ncg     rms          rms(c)
DAV:   1    -0.324599567658E+02   -0.97118E-02   -0.13877E-02  2528   0.114E+00    0.298E-02
RMM:   2    -0.324609071261E+02   -0.95036E-03   -0.46441E-03  1583   0.291E-01
    327 T=   866. E= -.31559268E+02 F= -.32460907E+02 E0= -.32428543E+02  EK= 0.29119E+01 SP= -.20E+01 SK= 0.20E-02 mag=     -0.000
       N       E                     dE             d eps       ncg     rms          rms(c)
DAV:   1    -0.324668398751E+02   -0.68831E-02   -0.13541E-02  2424   0.109E+00    0.314E-02
RMM:   2    -0.324679434113E+02   -0.11035E-02   -0.51065E-03  1579   0.308E-01
    328 T=   875. E= -.31553822E+02 F= -.32467943E+02 E0= -.32435304E+02  EK= 0.29391E+01 SP= -.20E+01 SK= 0.82E-03 mag=     -0.079
       N       E                     dE             d eps       ncg     rms          rms(c)
DAV:   1    -0.324712696324E+02   -0.44298E-02   -0.19018E-02  2712   0.116E+00    0.463E-02
RMM:   2    -0.324726266618E+02   -0.13570E-02   -0.52436E-03  1585   0.295E-01    0.349E-02
RMM:   3    -0.324730747884E+02   -0.44813E-03   -0.16616E-03  1448   0.116E-01
    329 T=   880. E= -.31549352E+02 F= -.32473075E+02 E0= -.32440126E+02  EK= 0.29567E+01 SP= -.20E+01 SK= 0.12E-03 mag=     -0.036
       N       E                     dE             d eps       ncg     rms          rms(c)
DAV:   1    -0.324746955784E+02   -0.20689E-02   -0.16215E-02  2424   0.110E+00    0.436E-02
RMM:   2    -0.324758983543E+02   -0.12028E-02   -0.37486E-03  1518   0.264E-01
    330 T=   883. E= -.31542810E+02 F= -.32475898E+02 E0= -.32442588E+02  EK= 0.29669E+01 SP= -.20E+01 SK= 0.55E-04 mag=      0.069
       N       E                     dE             d eps       ncg     rms          rms(c)
DAV:   1    -0.324748213598E+02   -0.12578E-03   -0.29216E-02  2984   0.121E+00    0.530E-02
RMM:   2    -0.324762254402E+02   -0.14041E-02   -0.46914E-03  1574   0.261E-01    0.404E-02
RMM:   3    -0.324767008598E+02   -0.47542E-03   -0.12544E-03  1424   0.104E-01
    331 T=   883. E= -.31537355E+02 F= -.32476701E+02 E0= -.32443042E+02  EK= 0.29663E+01 SP= -.20E+01 SK= 0.69E-03 mag=      0.040
       N       E                     dE             d eps       ncg     rms          rms(c)
DAV:   1    -0.324741870203E+02    0.20384E-02   -0.12777E-02  2208   0.106E+00    0.465E-02
RMM:   2    -0.324755192499E+02   -0.13322E-02   -0.45991E-03  1512   0.262E-01
    332 T=   879. E= -.31532974E+02 F= -.32475519E+02 E0= -.32441409E+02  EK= 0.29552E+01 SP= -.20E+01 SK= 0.20E-02 mag=     -0.074
       N       E                     dE             d eps       ncg     rms          rms(c)
DAV:   1    -0.324706405365E+02    0.35465E-02   -0.29371E-02  2960   0.121E+00    0.632E-02
RMM:   2    -0.324722057396E+02   -0.15652E-02   -0.45702E-03  1538   0.262E-01    0.451E-02
RMM:   3    -0.324729257743E+02   -0.72003E-03   -0.18340E-03  1410   0.111E-01
    333 T=   873. E= -.31528706E+02 F= -.32472926E+02 E0= -.32438425E+02  EK= 0.29355E+01 SP= -.20E+01 SK= 0.39E-02 mag=     -0.042
       N       E                     dE             d eps       ncg     rms          rms(c)
DAV:   1    -0.324671740797E+02    0.50317E-02   -0.14773E-02  2272   0.106E+00    0.587E-02
RMM:   2    -0.324687941584E+02   -0.16201E-02   -0.49564E-03  1568   0.286E-01    0.390E-02
RMM:   3    -0.324691641852E+02   -0.37003E-03   -0.13867E-03  1398   0.111E-01
    334 T=   865. E= -.31525771E+02 F= -.32469164E+02 E0= -.32434166E+02  EK= 0.29068E+01 SP= -.20E+01 SK= 0.61E-02 mag=      0.026
       N       E                     dE             d eps       ncg     rms          rms(c)
DAV:   1    -0.324629534189E+02    0.58407E-02   -0.28944E-02  2816   0.111E+00    0.434E-02
RMM:   2    -0.324641402144E+02   -0.11868E-02   -0.38697E-03  1551   0.260E-01
    335 T=   855. E= -.31520283E+02 F= -.32464140E+02 E0= -.32428709E+02  EK= 0.28739E+01 SP= -.19E+01 SK= 0.84E-02 mag=      0.079
       N       E                     dE             d eps       ncg     rms          rms(c)
DAV:   1    -0.324575852719E+02    0.53681E-02   -0.26428E-02  2944   0.113E+00    0.384E-02
RMM:   2    -0.324587990197E+02   -0.12137E-02   -0.43339E-03  1560   0.266E-01
    336 T=   843. E= -.31517566E+02 F= -.32458799E+02 E0= -.32422849E+02  EK= 0.28335E+01 SP= -.19E+01 SK= 0.11E-01 mag=      0.073
       N       E                     dE             d eps       ncg     rms          rms(c)
DAV:   1    -0.324522656969E+02    0.53196E-02   -0.13558E-02  2224   0.105E+00    0.260E-02
RMM:   2    -0.324534502838E+02   -0.11846E-02   -0.42790E-03  1555   0.295E-01
    337 T=   830. E= -.31514438E+02 F= -.32453450E+02 E0= -.32416919E+02  EK= 0.27903E+01 SP= -.19E+01 SK= 0.12E-01 mag=      0.005
       N       E                     dE             d eps       ncg     rms          rms(c)
DAV:   1    -0.324467125023E+02    0.55532E-02   -0.19722E-02  2848   0.116E+00    0.340E-02
RMM:   2    -0.324479849416E+02   -0.12724E-02   -0.44641E-03  1571   0.278E-01
    338 T=   817. E= -.31509505E+02 F= -.32447985E+02 E0= -.32410934E+02  EK= 0.27469E+01 SP= -.18E+01 SK= 0.14E-01 mag=     -0.076
       N       E                     dE             d eps       ncg     rms          rms(c)
DAV:   1    -0.324413799266E+02    0.53326E-02   -0.12886E-02  2624   0.105E+00    0.408E-02
RMM:   2    -0.324428039181E+02   -0.14240E-02   -0.48427E-03  1615   0.299E-01    0.299E-02
RMM:   3    -0.324431030580E+02   -0.29914E-03   -0.12735E-03  1407   0.112E-01
    339 T=   804. E= -.31506452E+02 F= -.32443103E+02 E0= -.32405480E+02  EK= 0.27013E+01 SP= -.18E+01 SK= 0.14E-01 mag=     -0.045
       N       E                     dE             d eps       ncg     rms          rms(c)
DAV:   1    -0.324375253780E+02    0.52785E-02   -0.18628E-02  2304   0.106E+00    0.350E-02
RMM:   2    -0.324387885578E+02   -0.12632E-02   -0.34872E-03  1543   0.267E-01
    340 T=   791. E= -.31500115E+02 F= -.32438789E+02 E0= -.32400510E+02  EK= 0.26600E+01 SP= -.17E+01 SK= 0.14E-01 mag=      0.066
       N       E                     dE             d eps       ncg     rms          rms(c)
DAV:   1    -0.324333264106E+02    0.41990E-02   -0.25710E-02  2992   0.113E+00    0.564E-02
RMM:   2    -0.324348261824E+02   -0.14998E-02   -0.42091E-03  1580   0.251E-01    0.405E-02
RMM:   3    -0.324354278933E+02   -0.60171E-03   -0.14444E-03  1405   0.104E-01
    341 T=   780. E= -.31495054E+02 F= -.32435428E+02 E0= -.32396537E+02  EK= 0.26198E+01 SP= -.17E+01 SK= 0.13E-01 mag=      0.045
       N       E                     dE             d eps       ncg     rms          rms(c)
DAV:   1    -0.324316236435E+02    0.32025E-02   -0.14134E-02  2272   0.102E+00    0.469E-02
RMM:   2    -0.324330918606E+02   -0.14682E-02   -0.40878E-03  1558   0.258E-01    0.315E-02
RMM:   3    -0.324333341508E+02   -0.24229E-03   -0.10040E-03  1242   0.975E-02
    342 T=   768. E= -.31493094E+02 F= -.32433334E+02 E0= -.32393760E+02  EK= 0.25800E+01 SP= -.17E+01 SK= 0.12E-01 mag=     -0.034
       N       E                     dE             d eps       ncg     rms          rms(c)
DAV:   1    -0.324311085411E+02    0.19833E-02   -0.24787E-02  2792   0.103E+00    0.410E-02
RMM:   2    -0.324323724207E+02   -0.12639E-02   -0.38376E-03  1588   0.255E-01
    343 T=   758. E= -.31488858E+02 F= -.32432372E+02 E0= -.32392153E+02  EK= 0.25467E+01 SP= -.16E+01 SK= 0.10E-01 mag=     -0.105
       N       E                     dE             d eps       ncg     rms          rms(c)
DAV:   1    -0.324318311261E+02   -0.72259E-03   -0.20621E-02  2848   0.108E+00    0.398E-02
RMM:   2    -0.324330752447E+02   -0.12441E-02   -0.37339E-03  1574   0.256E-01
    344 T=   749. E= -.31486341E+02 F= -.32433075E+02 E0= -.32392158E+02  EK= 0.25170E+01 SP= -.16E+01 SK= 0.81E-02 mag=     -0.096
       N       E                     dE             d eps       ncg     rms          rms(c)
DAV:   1    -0.324342219353E+02   -0.23908E-02   -0.12528E-02  2088   0.986E-01    0.227E-02
RMM:   2    -0.324354430895E+02   -0.12212E-02   -0.39042E-03  1569   0.278E-01
    345 T=   742. E= -.31483713E+02 F= -.32435443E+02 E0= -.32393759E+02  EK= 0.24935E+01 SP= -.15E+01 SK= 0.60E-02 mag=     -0.007
       N       E                     dE             d eps       ncg     rms          rms(c)
DAV:   1    -0.324375952700E+02   -0.33733E-02   -0.18532E-02  2824   0.109E+00    0.357E-02
RMM:   2    -0.324389965107E+02   -0.14012E-02   -0.45870E-03  1589   0.268E-01    0.255E-02
RMM:   3    -0.324392559735E+02   -0.25946E-03   -0.12620E-03  1310   0.103E-01
    346 T=   737. E= -.31480404E+02 F= -.32439256E+02 E0= -.32396891E+02  EK= 0.24768E+01 SP= -.15E+01 SK= 0.40E-02 mag=      0.042
       N       E                     dE             d eps       ncg     rms          rms(c)
DAV:   1    -0.324432598568E+02   -0.42633E-02   -0.14257E-02  2480   0.982E-01    0.358E-02
RMM:   2    -0.324444411995E+02   -0.11813E-02   -0.25472E-03  1426   0.232E-01
    347 T=   734. E= -.31475883E+02 F= -.32444441E+02 E0= -.32401330E+02  EK= 0.24675E+01 SP= -.15E+01 SK= 0.24E-02 mag=      0.034
       N       E                     dE             d eps       ncg     rms          rms(c)
DAV:   1    -0.324502423203E+02   -0.69825E-02   -0.21454E-02  2664   0.109E+00    0.302E-02
RMM:   2    -0.324514277277E+02   -0.11854E-02   -0.38186E-03  1569   0.250E-01
    348 T=   733. E= -.31471592E+02 F= -.32451428E+02 E0= -.32407580E+02  EK= 0.24650E+01 SP= -.15E+01 SK= 0.11E-02 mag=     -0.018
       N       E                     dE             d eps       ncg     rms          rms(c)
DAV:   1    -0.324586143469E+02   -0.83720E-02   -0.10953E-02  2232   0.953E-01    0.270E-02
RMM:   2    -0.324599671497E+02   -0.13528E-02   -0.41199E-03  1573   0.282E-01    0.183E-02
RMM:   3    -0.324601780160E+02   -0.21087E-03   -0.13088E-03  1283   0.108E-01
    349 T=   734. E= -.31470093E+02 F= -.32460178E+02 E0= -.32415627E+02  EK= 0.24664E+01 SP= -.15E+01 SK= 0.35E-03 mag=     -0.052
       N       E                     dE             d eps       ncg     rms          rms(c)
DAV:   1    -0.324688909138E+02   -0.89238E-02   -0.20224E-02  2696   0.105E+00    0.283E-02
RMM:   2    -0.324701171402E+02   -0.12262E-02   -0.28703E-03  1479   0.234E-01
    350 T=   737. E= -.31466467E+02 F= -.32470117E+02 E0= -.32424853E+02  EK= 0.24762E+01 SP= -.15E+01 SK= 0.17E-04 mag=     -0.044
       N       E                     dE             d eps       ncg     rms          rms(c)
DAV:   1    -0.324802459889E+02   -0.11355E-01   -0.17557E-02  2584   0.106E+00    0.258E-02
RMM:   2    -0.324815630848E+02   -0.13171E-02   -0.44392E-03  1577   0.244E-01
    351 T=   741. E= -.31464015E+02 F= -.32481563E+02 E0= -.32435604E+02  EK= 0.24911E+01 SP= -.15E+01 SK= 0.96E-04 mag=      0.002
       N       E                     dE             d eps       ncg     rms          rms(c)
DAV:   1    -0.324928104745E+02   -0.12564E-01   -0.13467E-02  2416   0.981E-01    0.256E-02
RMM:   2    -0.324941767140E+02   -0.13662E-02   -0.37206E-03  1574   0.274E-01    0.167E-02
RMM:   3    -0.324943460072E+02   -0.16929E-03   -0.99027E-04  1211   0.102E-01
    352 T=   747. E= -.31463021E+02 F= -.32494346E+02 E0= -.32447712E+02  EK= 0.25105E+01 SP= -.15E+01 SK= 0.51E-03 mag=      0.041
       N       E                     dE             d eps       ncg     rms          rms(c)
DAV:   1    -0.325067307385E+02   -0.12554E-01   -0.20858E-02  2656   0.105E+00    0.261E-02
RMM:   2    -0.325080616285E+02   -0.13309E-02   -0.32019E-03  1537   0.234E-01
    353 T=   755. E= -.31459105E+02 F= -.32508062E+02 E0= -.32460796E+02  EK= 0.25379E+01 SP= -.15E+01 SK= 0.11E-02 mag=      0.049
       N       E                     dE             d eps       ncg     rms          rms(c)
DAV:   1    -0.325210986605E+02   -0.14368E-01   -0.18790E-02  2432   0.106E+00    0.325E-02
RMM:   2    -0.325224709908E+02   -0.13723E-02   -0.39808E-03  1575   0.247E-01    0.233E-02
RMM:   3    -0.325227454261E+02   -0.27444E-03   -0.11201E-03  1319   0.955E-02
    354 T=   764. E= -.31456177E+02 F= -.32522745E+02 E0= -.32474879E+02  EK= 0.25689E+01 SP= -.15E+01 SK= 0.18E-02 mag=      0.010
       N       E                     dE             d eps       ncg     rms          rms(c)
DAV:   1    -0.325363190952E+02   -0.13848E-01   -0.15580E-02  2256   0.978E-01    0.340E-02
RMM:   2    -0.325378251792E+02   -0.15061E-02   -0.30163E-03  1572   0.241E-01    0.220E-02
RMM:   3    -0.325379732026E+02   -0.14802E-03   -0.59247E-04  1128   0.860E-02
    355 T=   774. E= -.31454333E+02 F= -.32537973E+02 E0= -.32489552E+02  EK= 0.26024E+01 SP= -.15E+01 SK= 0.25E-02 mag=     -0.034
       N       E                     dE             d eps       ncg     rms          rms(c)
DAV:   1    -0.325521522423E+02   -0.14327E-01   -0.19550E-02  2704   0.102E+00    0.322E-02
RMM:   2    -0.325534572285E+02   -0.13050E-02   -0.33249E-03  1573   0.249E-01
    356 T=   786. E= -.31450520E+02 F= -.32553457E+02 E0= -.32504576E+02  EK= 0.26405E+01 SP= -.15E+01 SK= 0.30E-02 mag=     -0.057
       N       E                     dE             d eps       ncg     rms          rms(c)
DAV:   1    -0.325675735797E+02   -0.15421E-01   -0.17786E-02  2368   0.107E+00    0.306E-02
RMM:   2    -0.325689962379E+02   -0.14227E-02   -0.36693E-03  1583   0.254E-01    0.218E-02
RMM:   3    -0.325692183291E+02   -0.22209E-03   -0.10656E-03  1278   0.962E-02
    357 T=   797. E= -.31448535E+02 F= -.32569218E+02 E0= -.32519898E+02  EK= 0.26784E+01 SP= -.16E+01 SK= 0.32E-02 mag=     -0.025
       N       E                     dE             d eps       ncg     rms          rms(c)
DAV:   1    -0.325829856329E+02   -0.13989E-01   -0.17563E-02  2120   0.102E+00    0.290E-02
RMM:   2    -0.325843831667E+02   -0.13975E-02   -0.29315E-03  1476   0.243E-01    0.182E-02
RMM:   3    -0.325845139044E+02   -0.13074E-03   -0.64072E-04  1136   0.861E-02
    358 T=   808. E= -.31446438E+02 F= -.32584514E+02 E0= -.32534829E+02  EK= 0.27165E+01 SP= -.16E+01 SK= 0.31E-02 mag=      0.030
       N       E                     dE             d eps       ncg     rms          rms(c)
DAV:   1    -0.325971526248E+02   -0.12769E-01   -0.17654E-02  2144   0.103E+00    0.325E-02
RMM:   2    -0.325985225828E+02   -0.13700E-02   -0.36741E-03  1604   0.259E-01    0.229E-02
RMM:   3    -0.325987332406E+02   -0.21066E-03   -0.88683E-04  1244   0.972E-02
    359 T=   820. E= -.31442661E+02 F= -.32598733E+02 E0= -.32548825E+02  EK= 0.27548E+01 SP= -.16E+01 SK= 0.28E-02 mag=      0.046
       N       E                     dE             d eps       ncg     rms          rms(c)
DAV:   1    -0.326110305594E+02   -0.12508E-01   -0.14863E-02  2152   0.105E+00    0.225E-02
RMM:   2    -0.326122712601E+02   -0.12407E-02   -0.29024E-03  1463   0.256E-01
    360 T=   831. E= -.31438424E+02 F= -.32612271E+02 E0= -.32562150E+02  EK= 0.27914E+01 SP= -.16E+01 SK= 0.22E-02 mag=      0.016
       N       E                     dE             d eps       ncg     rms          rms(c)
DAV:   1    -0.326229554337E+02   -0.11925E-01   -0.20061E-02  2488   0.112E+00    0.282E-02
RMM:   2    -0.326243361708E+02   -0.13807E-02   -0.36112E-03  1600   0.270E-01    0.144E-02
RMM:   3    -0.326244901449E+02   -0.15397E-03   -0.77715E-04  1122   0.101E-01
    361 T=   840. E= -.31435100E+02 F= -.32624490E+02 E0= -.32574295E+02  EK= 0.28235E+01 SP= -.16E+01 SK= 0.15E-02 mag=     -0.034
       N       E                     dE             d eps       ncg     rms          rms(c)
DAV:   1    -0.326331133334E+02   -0.87772E-02   -0.15560E-02  2072   0.105E+00    0.258E-02
RMM:   2    -0.326345609754E+02   -0.14476E-02   -0.28230E-03  1575   0.256E-01    0.192E-02
RMM:   3    -0.326347044452E+02   -0.14347E-03   -0.62667E-04  1135   0.889E-02
    362 T=   848. E= -.31431996E+02 F= -.32634704E+02 E0= -.32584550E+02  EK= 0.28499E+01 SP= -.16E+01 SK= 0.83E-03 mag=     -0.046
       N       E                     dE             d eps       ncg     rms          rms(c)
DAV:   1    -0.326415971023E+02   -0.70361E-02   -0.17741E-02  1992   0.107E+00    0.200E-02
RMM:   2    -0.326428279261E+02   -0.12308E-02   -0.28787E-03  1526   0.252E-01
    363 T=   855. E= -.31426627E+02 F= -.32642828E+02 E0= -.32592765E+02  EK= 0.28724E+01 SP= -.17E+01 SK= 0.29E-03 mag=     -0.015
       N       E                     dE             d eps       ncg     rms          rms(c)
DAV:   1    -0.326472084648E+02   -0.56114E-02   -0.17215E-02  2576   0.114E+00    0.268E-02
RMM:   2    -0.326485394959E+02   -0.13310E-02   -0.33634E-03  1561   0.257E-01
    364 T=   859. E= -.31423597E+02 F= -.32648539E+02 E0= -.32598703E+02  EK= 0.28854E+01 SP= -.17E+01 SK= 0.17E-04 mag=      0.037
       N       E                     dE             d eps       ncg     rms          rms(c)
DAV:   1    -0.326501733510E+02   -0.29649E-02   -0.12383E-02  2152   0.107E+00    0.287E-02
RMM:   2    -0.326516562402E+02   -0.14829E-02   -0.39603E-03  1553   0.300E-01    0.198E-02
RMM:   3    -0.326518520970E+02   -0.19586E-03   -0.11584E-03  1240   0.113E-01
    365 T=   860. E= -.31421376E+02 F= -.32651852E+02 E0= -.32602351E+02  EK= 0.28899E+01 SP= -.17E+01 SK= 0.87E-04 mag=      0.059
       N       E                     dE             d eps       ncg     rms          rms(c)
DAV:   1    -0.326508550042E+02    0.80124E-03   -0.17655E-02  2240   0.109E+00    0.206E-02
RMM:   2    -0.326521690384E+02   -0.13140E-02   -0.30201E-03  1489   0.253E-01
    366 T=   860. E= -.31415263E+02 F= -.32652169E+02 E0= -.32603050E+02  EK= 0.28900E+01 SP= -.17E+01 SK= 0.53E-03 mag=      0.035
       N       E                     dE             d eps       ncg     rms          rms(c)
DAV:   1    -0.326483460953E+02    0.25089E-02   -0.17535E-02  2744   0.117E+00    0.267E-02
RMM:   2    -0.326496174166E+02   -0.12713E-02   -0.37020E-03  1551   0.251E-01
    367 T=   857. E= -.31411024E+02 F= -.32649617E+02 E0= -.32600994E+02  EK= 0.28801E+01 SP= -.16E+01 SK= 0.13E-02 mag=     -0.020
       N       E                     dE             d eps       ncg     rms          rms(c)
DAV:   1    -0.326425367664E+02    0.58093E-02   -0.11805E-02  2352   0.105E+00    0.284E-02
RMM:   2    -0.326439635670E+02   -0.14268E-02   -0.42538E-03  1589   0.293E-01    0.190E-02
RMM:   3    -0.326441777177E+02   -0.21415E-03   -0.12394E-03  1272   0.112E-01
    368 T=   851. E= -.31408779E+02 F= -.32644178E+02 E0= -.32596138E+02  EK= 0.28603E+01 SP= -.16E+01 SK= 0.24E-02 mag=     -0.051
       N       E                     dE             d eps       ncg     rms          rms(c)
DAV:   1    -0.326343282100E+02    0.96354E-02   -0.18825E-02  2472   0.109E+00    0.222E-02
RMM:   2    -0.326355454226E+02   -0.12172E-02   -0.34840E-03  1553   0.269E-01
    369 T=   844. E= -.31402071E+02 F= -.32635545E+02 E0= -.32588133E+02  EK= 0.28374E+01 SP= -.16E+01 SK= 0.35E-02 mag=     -0.040
       N       E                     dE             d eps       ncg     rms          rms(c)
DAV:   1    -0.326227552017E+02    0.11573E-01   -0.18748E-02  2672   0.116E+00    0.312E-02
RMM:   2    -0.326240265047E+02   -0.12713E-02   -0.44448E-03  1568   0.259E-01
    370 T=   835. E= -.31396530E+02 F= -.32624027E+02 E0= -.32577324E+02  EK= 0.28068E+01 SP= -.16E+01 SK= 0.47E-02 mag=      0.005
       N       E                     dE             d eps       ncg     rms          rms(c)
DAV:   1    -0.326088457770E+02    0.13909E-01   -0.12698E-02  2416   0.104E+00    0.291E-02
RMM:   2    -0.326100430576E+02   -0.11973E-02   -0.39627E-03  1571   0.297E-01
    371 T=   824. E= -.31392463E+02 F= -.32610043E+02 E0= -.32564099E+02  EK= 0.27695E+01 SP= -.16E+01 SK= 0.57E-02 mag=      0.054
       N       E                     dE             d eps       ncg     rms          rms(c)
DAV:   1    -0.325920031370E+02    0.16843E-01   -0.22702E-02  2944   0.115E+00    0.294E-02
RMM:   2    -0.325932887037E+02   -0.12856E-02   -0.49590E-03  1614   0.278E-01
    372 T=   812. E= -.31387263E+02 F= -.32593289E+02 E0= -.32548142E+02  EK= 0.27290E+01 SP= -.15E+01 SK= 0.63E-02 mag=      0.069
       N       E                     dE             d eps       ncg     rms          rms(c)
DAV:   1    -0.325732032778E+02    0.18800E-01   -0.12069E-02  2256   0.101E+00    0.285E-02
RMM:   2    -0.325743990982E+02   -0.11958E-02   -0.47633E-03  1590   0.294E-01
    373 T=   799. E= -.31382273E+02 F= -.32574399E+02 E0= -.32530076E+02  EK= 0.26855E+01 SP= -.15E+01 SK= 0.65E-02 mag=      0.036
       N       E                     dE             d eps       ncg     rms          rms(c)
DAV:   1    -0.325525040928E+02    0.20699E-01   -0.16852E-02  2616   0.108E+00    0.275E-02
RMM:   2    -0.325536015945E+02   -0.10975E-02   -0.43407E-03  1590   0.274E-01
    374 T=   786. E= -.31376420E+02 F= -.32553602E+02 E0= -.32510102E+02  EK= 0.26415E+01 SP= -.15E+01 SK= 0.62E-02 mag=     -0.019
       N       E                     dE             d eps       ncg     rms          rms(c)
DAV:   1    -0.325299218149E+02    0.22582E-01   -0.14470E-02  2608   0.103E+00    0.304E-02
RMM:   2    -0.325310059870E+02   -0.10842E-02   -0.47218E-03  1592   0.291E-01
    375 T=   773. E= -.31370746E+02 F= -.32531006E+02 E0= -.32488401E+02  EK= 0.25972E+01 SP= -.14E+01 SK= 0.55E-02 mag=     -0.062
       N       E                     dE             d eps       ncg     rms          rms(c)
DAV:   1    -0.325060616361E+02    0.23860E-01   -0.16273E-02  2432   0.105E+00    0.325E-02
RMM:   2    -0.325071942606E+02   -0.11326E-02   -0.51878E-03  1613   0.286E-01
    376 T=   760. E= -.31365063E+02 F= -.32507194E+02 E0= -.32465472E+02  EK= 0.25542E+01 SP= -.14E+01 SK= 0.44E-02 mag=     -0.057
       N       E                     dE             d eps       ncg     rms          rms(c)
DAV:   1    -0.324819956545E+02    0.24066E-01   -0.13965E-02  2528   0.101E+00    0.286E-02
RMM:   2    -0.324829777037E+02   -0.98205E-03   -0.47836E-03  1605   0.284E-01
    377 T=   748. E= -.31359816E+02 F= -.32482978E+02 E0= -.32442109E+02  EK= 0.25140E+01 SP= -.14E+01 SK= 0.31E-02 mag=     -0.009
       N       E                     dE             d eps       ncg     rms          rms(c)
DAV:   1    -0.324571045944E+02    0.24891E-01   -0.15560E-02  2648   0.102E+00    0.372E-02
RMM:   2    -0.324581738289E+02   -0.10692E-02   -0.48701E-03  1580   0.282E-01
    378 T=   737. E= -.31354165E+02 F= -.32458174E+02 E0= -.32418159E+02  EK= 0.24779E+01 SP= -.14E+01 SK= 0.18E-02 mag=      0.039
       N       E                     dE             d eps       ncg     rms          rms(c)
DAV:   1    -0.324328567106E+02    0.24248E-01   -0.13669E-02  2456   0.994E-01    0.316E-02
RMM:   2    -0.324337317600E+02   -0.87505E-03   -0.45183E-03  1562   0.287E-01
    379 T=   728. E= -.31348810E+02 F= -.32433732E+02 E0= -.32394606E+02  EK= 0.24468E+01 SP= -.14E+01 SK= 0.76E-03 mag=      0.064
       N       E                     dE             d eps       ncg     rms          rms(c)
DAV:   1    -0.324087041146E+02    0.24153E-01   -0.14228E-02  2576   0.102E+00    0.403E-02
RMM:   2    -0.324097483449E+02   -0.10442E-02   -0.50054E-03  1589   0.283E-01
    380 T=   721. E= -.31343164E+02 F= -.32409748E+02 E0= -.32371445E+02  EK= 0.24220E+01 SP= -.14E+01 SK= 0.11E-03 mag=      0.051
       N       E                     dE             d eps       ncg     rms          rms(c)
DAV:   1    -0.323862429760E+02    0.22461E-01   -0.13005E-02  2416   0.994E-01    0.401E-02
RMM:   2    -0.323872701130E+02   -0.10271E-02   -0.51577E-03  1583   0.295E-01
    381 T=   715. E= -.31337796E+02 F= -.32387270E+02 E0= -.32349777E+02  EK= 0.24045E+01 SP= -.14E+01 SK= 0.68E-04 mag=      0.008
       N       E                     dE             d eps       ncg     rms          rms(c)
DAV:   1    -0.323655698758E+02    0.20673E-01   -0.14528E-02  2400   0.101E+00    0.287E-02
RMM:   2    -0.323664659407E+02   -0.89606E-03   -0.52100E-03  1609   0.292E-01
    382 T=   713. E= -.31332310E+02 F= -.32366466E+02 E0= -.32329764E+02  EK= 0.23950E+01 SP= -.14E+01 SK= 0.77E-03 mag=     -0.043
       N       E                     dE             d eps       ncg     rms          rms(c)
DAV:   1    -0.323462596431E+02    0.19310E-01   -0.15443E-02  2536   0.998E-01    0.429E-02
RMM:   2    -0.323473617752E+02   -0.11021E-02   -0.57779E-03  1639   0.299E-01
    383 T=   712. E= -.31326489E+02 F= -.32347362E+02 E0= -.32311449E+02  EK= 0.23939E+01 SP= -.14E+01 SK= 0.23E-02 mag=     -0.073
       N       E                     dE             d eps       ncg     rms          rms(c)
DAV:   1    -0.323298231567E+02    0.16436E-01   -0.16067E-02  2584   0.101E+00    0.485E-02
RMM:   2    -0.323309352460E+02   -0.11121E-02   -0.47618E-03  1548   0.289E-01
    384 T=   715. E= -.31321336E+02 F= -.32330935E+02 E0= -.32295719E+02  EK= 0.24014E+01 SP= -.14E+01 SK= 0.45E-02 mag=     -0.054
       N       E                     dE             d eps       ncg     rms          rms(c)
DAV:   1    -0.323172192315E+02    0.12604E-01   -0.13089E-02  2320   0.997E-01    0.273E-02
RMM:   2    -0.323179853870E+02   -0.76616E-03   -0.45352E-03  1541   0.282E-01
    385 T=   720. E= -.31316831E+02 F= -.32317985E+02 E0= -.32283458E+02  EK= 0.24182E+01 SP= -.14E+01 SK= 0.74E-02 mag=      0.014
       N       E                     dE             d eps       ncg     rms          rms(c)
DAV:   1    -0.323061488994E+02    0.11070E-01   -0.16320E-02  2600   0.997E-01    0.522E-02
RMM:   2    -0.323073735782E+02   -0.12247E-02   -0.53316E-03  1545   0.299E-01
    386 T=   727. E= -.31311119E+02 F= -.32307374E+02 E0= -.32273529E+02  EK= 0.24448E+01 SP= -.15E+01 SK= 0.11E-01 mag=      0.087
       N       E                     dE             d eps       ncg     rms          rms(c)
DAV:   1    -0.322999293687E+02    0.62195E-02   -0.14216E-02  2480   0.101E+00    0.563E-02
RMM:   2    -0.323010863118E+02   -0.11569E-02   -0.48986E-03  1555   0.295E-01
    387 T=   738. E= -.31306167E+02 F= -.32301086E+02 E0= -.32267870E+02  EK= 0.24808E+01 SP= -.15E+01 SK= 0.14E-01 mag=      0.110
       N       E                     dE             d eps       ncg     rms          rms(c)
DAV:   1    -0.322978034268E+02    0.21259E-02   -0.14286E-02  2416   0.101E+00    0.363E-02
RMM:   2    -0.322988871602E+02   -0.10837E-02   -0.64274E-03  1653   0.309E-01
    388 T=   752. E= -.31301364E+02 F= -.32298887E+02 E0= -.32266162E+02  EK= 0.25262E+01 SP= -.15E+01 SK= 0.17E-01 mag=      0.045
       N       E                     dE             d eps       ncg     rms          rms(c)
DAV:   1    -0.322990167345E+02   -0.12133E-02   -0.17369E-02  2560   0.101E+00    0.498E-02
RMM:   2    -0.323002283777E+02   -0.12116E-02   -0.61480E-03  1614   0.308E-01
    389 T=   768. E= -.31296463E+02 F= -.32300228E+02 E0= -.32268039E+02  EK= 0.25799E+01 SP= -.16E+01 SK= 0.20E-01 mag=     -0.075
       N       E                     dE             d eps       ncg     rms          rms(c)
DAV:   1    -0.323038560837E+02   -0.48393E-02   -0.16561E-02  2608   0.104E+00    0.685E-02
RMM:   2    -0.323054663325E+02   -0.16102E-02   -0.57371E-03  1576   0.298E-01    0.522E-02
RMM:   3    -0.323065515123E+02   -0.10852E-02   -0.30730E-03  1407   0.130E-01
    390 T=   786. E= -.31293396E+02 F= -.32306552E+02 E0= -.32274837E+02  EK= 0.26404E+01 SP= -.16E+01 SK= 0.21E-01 mag=     -0.038
       N       E                     dE             d eps       ncg     rms          rms(c)
DAV:   1    -0.323140325378E+02   -0.85662E-02   -0.17170E-02  2560   0.104E+00    0.763E-02
RMM:   2    -0.323158387208E+02   -0.18062E-02   -0.49678E-03  1505   0.259E-01    0.552E-02
RMM:   3    -0.323167801775E+02   -0.94146E-03   -0.19926E-03  1400   0.101E-01
    391 T=   806. E= -.31289765E+02 F= -.32316780E+02 E0= -.32285437E+02  EK= 0.27078E+01 SP= -.17E+01 SK= 0.22E-01 mag=      0.037
       N       E                     dE             d eps       ncg     rms          rms(c)
DAV:   1    -0.323299662595E+02   -0.14128E-01   -0.31307E-02  2664   0.103E+00    0.437E-02
RMM:   2    -0.323308735331E+02   -0.90727E-03   -0.39508E-03  1551   0.252E-01
    392 T=   828. E= -.31284917E+02 F= -.32330874E+02 E0= -.32299882E+02  EK= 0.27812E+01 SP= -.18E+01 SK= 0.21E-01 mag=      0.081
       N       E                     dE             d eps       ncg     rms          rms(c)
DAV:   1    -0.323481140395E+02   -0.18148E-01   -0.28870E-02  2744   0.108E+00    0.364E-02
RMM:   2    -0.323490122826E+02   -0.89824E-03   -0.43595E-03  1574   0.264E-01
    393 T=   850. E= -.31282447E+02 F= -.32349012E+02 E0= -.32318316E+02  EK= 0.28553E+01 SP= -.18E+01 SK= 0.18E-01 mag=      0.053
       N       E                     dE             d eps       ncg     rms          rms(c)
DAV:   1    -0.323699798023E+02   -0.21866E-01   -0.12720E-02  2400   0.104E+00    0.286E-02
RMM:   2    -0.323708145114E+02   -0.83471E-03   -0.45920E-03  1595   0.291E-01
    394 T=   872. E= -.31279668E+02 F= -.32370815E+02 E0= -.32340360E+02  EK= 0.29304E+01 SP= -.19E+01 SK= 0.15E-01 mag=     -0.030
       N       E                     dE             d eps       ncg     rms          rms(c)
DAV:   1    -0.323944801773E+02   -0.24500E-01   -0.18413E-02  2768   0.115E+00    0.377E-02
RMM:   2    -0.323954864496E+02   -0.10063E-02   -0.47623E-03  1564   0.280E-01
    395 T=   894. E= -.31275203E+02 F= -.32395486E+02 E0= -.32365257E+02  EK= 0.30047E+01 SP= -.19E+01 SK= 0.10E-01 mag=     -0.096
       N       E                     dE             d eps       ncg     rms          rms(c)
DAV:   1    -0.324220867666E+02   -0.27607E-01   -0.11633E-02  2504   0.108E+00    0.373E-02
RMM:   2    -0.324231048729E+02   -0.10181E-02   -0.46525E-03  1570   0.298E-01
    396 T=   915. E= -.31271067E+02 F= -.32423105E+02 E0= -.32393025E+02  EK= 0.30739E+01 SP= -.19E+01 SK= 0.61E-02 mag=     -0.083
       N       E                     dE             d eps       ncg     rms          rms(c)
DAV:   1    -0.324518542551E+02   -0.29767E-01   -0.16946E-02  2672   0.117E+00    0.226E-02
RMM:   2    -0.324527270480E+02   -0.87279E-03   -0.45867E-03  1595   0.290E-01
    397 T=   933. E= -.31266401E+02 F= -.32452727E+02 E0= -.32422677E+02  EK= 0.31355E+01 SP= -.20E+01 SK= 0.25E-02 mag=      0.003
       N       E                     dE             d eps       ncg     rms          rms(c)
DAV:   1    -0.324818774238E+02   -0.30023E-01   -0.14806E-02  2424   0.112E+00    0.360E-02
RMM:   2    -0.324830952069E+02   -0.12178E-02   -0.64202E-03  1651   0.310E-01
    398 T=   948. E= -.31261620E+02 F= -.32483095E+02 E0= -.32453136E+02  EK= 0.31855E+01 SP= -.20E+01 SK= 0.32E-03 mag=      0.092
       N       E                     dE             d eps       ncg     rms          rms(c)
DAV:   1    -0.325127752219E+02   -0.30898E-01   -0.21969E-02  2696   0.118E+00    0.429E-02
RMM:   2    -0.325140868336E+02   -0.13116E-02   -0.58727E-03  1623   0.309E-01
    399 T=   959. E= -.31256788E+02 F= -.32514087E+02 E0= -.32484137E+02  EK= 0.32218E+01 SP= -.20E+01 SK= 0.29E-03 mag=      0.101
       N       E                     dE             d eps       ncg     rms          rms(c)
DAV:   1    -0.325440199534E+02   -0.31245E-01   -0.18272E-02  2600   0.116E+00    0.238E-02
RMM:   2    -0.325450736208E+02   -0.10537E-02   -0.57398E-03  1638   0.317E-01
    400 T=   965. E= -.31252117E+02 F= -.32545074E+02 E0= -.32515020E+02  EK= 0.32421E+01 SP= -.20E+01 SK= 0.29E-02 mag=      0.022
       N       E                     dE             d eps       ncg     rms          rms(c)
DAV:   1    -0.325730993706E+02   -0.29079E-01   -0.19960E-02  2616   0.118E+00    0.348E-02
RMM:   2    -0.325743475619E+02   -0.12482E-02   -0.65023E-03  1678   0.324E-01
    401 T=   966. E= -.31246465E+02 F= -.32574348E+02 E0= -.32544204E+02  EK= 0.32452E+01 SP= -.19E+01 SK= 0.83E-02 mag=     -0.083
       N       E                     dE             d eps       ncg     rms          rms(c)
DAV:   1    -0.326003114709E+02   -0.27212E-01   -0.19060E-02  2720   0.116E+00    0.473E-02
RMM:   2    -0.326017143096E+02   -0.14028E-02   -0.58157E-03  1586   0.321E-01    0.358E-02
RMM:   3    -0.326021287622E+02   -0.41445E-03   -0.16397E-03  1465   0.121E-01
    402 T=   961. E= -.31242347E+02 F= -.32602129E+02 E0= -.32571872E+02  EK= 0.32288E+01 SP= -.19E+01 SK= 0.17E-01 mag=     -0.040
       N       E                     dE             d eps       ncg     rms          rms(c)
DAV:   1    -0.326260046393E+02   -0.24290E-01   -0.17953E-02  2552   0.116E+00    0.441E-02
RMM:   2    -0.326272030584E+02   -0.11984E-02   -0.38094E-03  1489   0.272E-01
    403 T=   951. E= -.31234966E+02 F= -.32627203E+02 E0= -.32596759E+02  EK= 0.31974E+01 SP= -.18E+01 SK= 0.27E-01 mag=      0.085
       N       E                     dE             d eps       ncg     rms          rms(c)
DAV:   1    -0.326470556096E+02   -0.21051E-01   -0.29610E-02  3040   0.123E+00    0.639E-02
RMM:   2    -0.326485249726E+02   -0.14694E-02   -0.50793E-03  1593   0.264E-01    0.459E-02
RMM:   3    -0.326491959460E+02   -0.67097E-03   -0.15725E-03  1419   0.109E-01
    404 T=   937. E= -.31228709E+02 F= -.32649196E+02 E0= -.32618566E+02  EK= 0.31479E+01 SP= -.18E+01 SK= 0.39E-01 mag=      0.044
       N       E                     dE             d eps       ncg     rms          rms(c)
DAV:   1    -0.326662603323E+02   -0.17735E-01   -0.13092E-02  2136   0.108E+00    0.552E-02
RMM:   2    -0.326676223082E+02   -0.13620E-02   -0.45426E-03  1527   0.263E-01    0.391E-02
RMM:   3    -0.326679353872E+02   -0.31308E-03   -0.97716E-04  1321   0.101E-01
    405 T=   916. E= -.31225866E+02 F= -.32667935E+02 E0= -.32637023E+02  EK= 0.30800E+01 SP= -.17E+01 SK= 0.51E-01 mag=     -0.025
       N       E                     dE             d eps       ncg     rms          rms(c)
DAV:   1    -0.326814758232E+02   -0.13854E-01   -0.27199E-02  2592   0.113E+00    0.379E-02
RMM:   2    -0.326825238445E+02   -0.10480E-02   -0.46895E-03  1603   0.285E-01
    406 T=   893. E= -.31219320E+02 F= -.32682524E+02 E0= -.32651358E+02  EK= 0.30028E+01 SP= -.16E+01 SK= 0.62E-01 mag=     -0.076
       N       E                     dE             d eps       ncg     rms          rms(c)
DAV:   1    -0.326920809209E+02   -0.10605E-01   -0.24504E-02  2848   0.116E+00    0.357E-02
RMM:   2    -0.326930326167E+02   -0.95170E-03   -0.45266E-03  1578   0.272E-01
    407 T=   867. E= -.31214644E+02 F= -.32693033E+02 E0= -.32661571E+02  EK= 0.29139E+01 SP= -.15E+01 SK= 0.72E-01 mag=     -0.063
       N       E                     dE             d eps       ncg     rms          rms(c)
DAV:   1    -0.326991341818E+02   -0.70533E-02   -0.11743E-02  2128   0.107E+00    0.244E-02
RMM:   2    -0.326999734748E+02   -0.83929E-03   -0.45300E-03  1556   0.291E-01
    408 T=   839. E= -.31210334E+02 F= -.32699973E+02 E0= -.32668169E+02  EK= 0.28183E+01 SP= -.14E+01 SK= 0.78E-01 mag=      0.007
       N       E                     dE             d eps       ncg     rms          rms(c)
DAV:   1    -0.327018692921E+02   -0.27351E-02   -0.16418E-02  2792   0.114E+00    0.326E-02
RMM:   2    -0.327028178349E+02   -0.94854E-03   -0.48878E-03  1564   0.281E-01
    409 T=   810. E= -.31204078E+02 F= -.32702818E+02 E0= -.32670726E+02  EK= 0.27209E+01 SP= -.13E+01 SK= 0.81E-01 mag=      0.077
       N       E                     dE             d eps       ncg     rms          rms(c)
DAV:   1    -0.327010113902E+02    0.85790E-03   -0.92942E-03  2360   0.103E+00    0.353E-02
RMM:   2    -0.327019007389E+02   -0.88935E-03   -0.44093E-03  1549   0.297E-01
    410 T=   780. E= -.31198030E+02 F= -.32701901E+02 E0= -.32669483E+02  EK= 0.26225E+01 SP= -.12E+01 SK= 0.81E-01 mag=      0.097
       N       E                     dE             d eps       ncg     rms          rms(c)
DAV:   1    -0.326969558535E+02    0.40555E-02   -0.12948E-02  2464   0.108E+00    0.250E-02
RMM:   2    -0.326976756034E+02   -0.71975E-03   -0.38226E-03  1524   0.263E-01
    411 T=   752. E= -.31192054E+02 F= -.32697676E+02 E0= -.32664869E+02  EK= 0.25260E+01 SP= -.11E+01 SK= 0.76E-01 mag=      0.043
       N       E                     dE             d eps       ncg     rms          rms(c)
DAV:   1    -0.326891295862E+02    0.78263E-02   -0.90348E-03  2248   0.993E-01    0.260E-02
RMM:   2    -0.326899435743E+02   -0.81399E-03   -0.48639E-03  1578   0.287E-01
    412 T=   724. E= -.31185831E+02 F= -.32689944E+02 E0= -.32656779E+02  EK= 0.24335E+01 SP= -.10E+01 SK= 0.69E-01 mag=     -0.057
       N       E                     dE             d eps       ncg     rms          rms(c)
DAV:   1    -0.326779947198E+02    0.11135E-01   -0.15134E-02  2784   0.104E+00    0.436E-02
RMM:   2    -0.326790190077E+02   -0.10243E-02   -0.47708E-03  1598   0.266E-01
    413 T=   698. E= -.31179616E+02 F= -.32679019E+02 E0= -.32645588E+02  EK= 0.23467E+01 SP= -.91E+00 SK= 0.58E-01 mag=     -0.112
       N       E                     dE             d eps       ncg     rms          rms(c)
DAV:   1    -0.326657513863E+02    0.12243E-01   -0.12398E-02  2440   0.958E-01    0.319E-02
RMM:   2    -0.326664742614E+02   -0.72288E-03   -0.40680E-03  1536   0.276E-01
    414 T=   674. E= -.31174990E+02 F= -.32666474E+02 E0= -.32632627E+02  EK= 0.22667E+01 SP= -.82E+00 SK= 0.47E-01 mag=     -0.084
       N       E                     dE             d eps       ncg     rms          rms(c)
DAV:   1    -0.326509138793E+02    0.14838E-01   -0.12434E-02  2464   0.969E-01    0.288E-02
RMM:   2    -0.326516293126E+02   -0.71543E-03   -0.42612E-03  1537   0.269E-01
    415 T=   654. E= -.31169477E+02 F= -.32651629E+02 E0= -.32617387E+02  EK= 0.21964E+01 SP= -.75E+00 SK= 0.34E-01 mag=      0.018
       N       E                     dE             d eps       ncg     rms          rms(c)
DAV:   1    -0.326336757781E+02    0.17238E-01   -0.90893E-03  2328   0.938E-01    0.406E-02
RMM:   2    -0.326345664245E+02   -0.89065E-03   -0.41865E-03  1548   0.274E-01
    416 T=   636. E= -.31163434E+02 F= -.32634566E+02 E0= -.32600071E+02  EK= 0.21359E+01 SP= -.69E+00 SK= 0.22E-01 mag=      0.116
       N       E                     dE             d eps       ncg     rms          rms(c)
DAV:   1    -0.326157825445E+02    0.17893E-01   -0.10176E-02  2480   0.971E-01    0.404E-02
RMM:   2    -0.326165855791E+02   -0.80303E-03   -0.39480E-03  1535   0.265E-01
    417 T=   621. E= -.31157797E+02 F= -.32616586E+02 E0= -.32581798E+02  EK= 0.20860E+01 SP= -.64E+00 SK= 0.12E-01 mag=      0.116
       N       E                     dE             d eps       ncg     rms          rms(c)
DAV:   1    -0.325974251808E+02    0.18357E-01   -0.10662E-02  2296   0.930E-01    0.232E-02
RMM:   2    -0.325980503925E+02   -0.62521E-03   -0.37884E-03  1519   0.267E-01
    418 T=   609. E= -.31152533E+02 F= -.32598050E+02 E0= -.32562795E+02  EK= 0.20475E+01 SP= -.61E+00 SK= 0.46E-02 mag=      0.012
       N       E                     dE             d eps       ncg     rms          rms(c)
DAV:   1    -0.325772947288E+02    0.20130E-01   -0.10811E-02  2520   0.945E-01    0.446E-02
RMM:   2    -0.325781985240E+02   -0.90380E-03   -0.43476E-03  1566   0.259E-01
    419 T=   601. E= -.31146614E+02 F= -.32578199E+02 E0= -.32542707E+02  EK= 0.20207E+01 SP= -.59E+00 SK= 0.57E-03 mag=     -0.108
       N       E                     dE             d eps       ncg     rms          rms(c)
DAV:   1    -0.325575993217E+02    0.19695E-01   -0.11470E-02  2360   0.916E-01    0.475E-02
RMM:   2    -0.325584763578E+02   -0.87704E-03   -0.40088E-03  1523   0.274E-01
    420 T=   597. E= -.31141426E+02 F= -.32558476E+02 E0= -.32522779E+02  EK= 0.20058E+01 SP= -.59E+00 SK= 0.48E-03 mag=     -0.164
       N       E                     dE             d eps       ncg     rms          rms(c)
DAV:   1    -0.325384741027E+02    0.19125E-01   -0.10502E-02  2368   0.932E-01    0.373E-02
RMM:   2    -0.325392699533E+02   -0.79585E-03   -0.37962E-03  1523   0.258E-01
    421 T=   596. E= -.31136999E+02 F= -.32539270E+02 E0= -.32503178E+02  EK= 0.20033E+01 SP= -.61E+00 SK= 0.46E-02 mag=     -0.096
       N       E                     dE             d eps       ncg     rms          rms(c)
DAV:   1    -0.325194667169E+02    0.19007E-01   -0.88333E-03  2432   0.919E-01    0.382E-02
RMM:   2    -0.325203068955E+02   -0.84018E-03   -0.49209E-03  1587   0.273E-01
    422 T=   599. E= -.31131982E+02 F= -.32520307E+02 E0= -.32483839E+02  EK= 0.20143E+01 SP= -.64E+00 SK= 0.13E-01 mag=      0.067
       N       E                     dE             d eps       ncg     rms          rms(c)
DAV:   1    -0.324998209074E+02    0.19646E-01   -0.12918E-02  2520   0.935E-01    0.596E-02
RMM:   2    -0.325010201483E+02   -0.11992E-02   -0.43564E-03  1527   0.269E-01
    423 T=   607. E= -.31126348E+02 F= -.32501020E+02 E0= -.32464528E+02  EK= 0.20383E+01 SP= -.69E+00 SK= 0.25E-01 mag=      0.177
       N       E                     dE             d eps       ncg     rms          rms(c)
DAV:   1    -0.324828513151E+02    0.16970E-01   -0.13401E-02  2472   0.952E-01    0.532E-02
RMM:   2    -0.324838536804E+02   -0.10024E-02   -0.47544E-03  1571   0.277E-01
    424 T=   618. E= -.31122323E+02 F= -.32483854E+02 E0= -.32446991E+02  EK= 0.20758E+01 SP= -.76E+00 SK= 0.41E-01 mag=      0.156
       N       E                     dE             d eps       ncg     rms          rms(c)
DAV:   1    -0.324667333953E+02    0.16118E-01   -0.16890E-02  2496   0.941E-01    0.408E-02
RMM:   2    -0.324677754436E+02   -0.10420E-02   -0.55915E-03  1631   0.283E-01
    425 T=   633. E= -.31117927E+02 F= -.32467775E+02 E0= -.32430455E+02  EK= 0.21277E+01 SP= -.84E+00 SK= 0.58E-01 mag=      0.001
       N       E                     dE             d eps       ncg     rms          rms(c)
DAV:   1    -0.324511862118E+02    0.15547E-01   -0.15185E-02  2328   0.943E-01    0.604E-02
RMM:   2    -0.324524157781E+02   -0.12296E-02   -0.47408E-03  1560   0.277E-01
    426 T=   653. E= -.31113517E+02 F= -.32452416E+02 E0= -.32415005E+02  EK= 0.21932E+01 SP= -.93E+00 SK= 0.77E-01 mag=     -0.186
       N       E                     dE             d eps       ncg     rms          rms(c)
DAV:   1    -0.324367680051E+02    0.14418E-01   -0.14466E-02  2584   0.976E-01    0.731E-02
RMM:   2    -0.324384070239E+02   -0.16390E-02   -0.49916E-03  1542   0.278E-01    0.572E-02
RMM:   3    -0.324396335921E+02   -0.12266E-02   -0.29096E-03  1402   0.123E-01
    427 T=   676. E= -.31111318E+02 F= -.32439634E+02 E0= -.32401873E+02  EK= 0.22717E+01 SP= -.10E+01 SK= 0.95E-01 mag=     -0.046
       N       E                     dE             d eps       ncg     rms          rms(c)
DAV:   1    -0.324244142556E+02    0.13993E-01   -0.21956E-02  2568   0.982E-01    0.900E-02
RMM:   2    -0.324264618003E+02   -0.20475E-02   -0.38745E-03  1433   0.245E-01    0.683E-02
RMM:   3    -0.324275228590E+02   -0.10611E-02   -0.14954E-03  1393   0.915E-02
    428 T=   703. E= -.31108254E+02 F= -.32427523E+02 E0= -.32389555E+02  EK= 0.23641E+01 SP= -.12E+01 SK= 0.11E+00 mag=      0.090
       N       E                     dE             d eps       ncg     rms          rms(c)
DAV:   1    -0.324170273169E+02    0.94345E-02   -0.47505E-02  2512   0.999E-01    0.591E-02
RMM:   2    -0.324180497363E+02   -0.10224E-02   -0.52007E-03  1621   0.272E-01
    429 T=   735. E= -.31105217E+02 F= -.32418050E+02 E0= -.32379712E+02  EK= 0.24705E+01 SP= -.13E+01 SK= 0.12E+00 mag=      0.143
       N       E                     dE             d eps       ncg     rms          rms(c)
DAV:   1    -0.324092850827E+02    0.77422E-02   -0.35199E-02  2672   0.101E+00    0.410E-02
RMM:   2    -0.324102689600E+02   -0.98388E-03   -0.45333E-03  1570   0.268E-01
    430 T=   770. E= -.31103915E+02 F= -.32410269E+02 E0= -.32371540E+02  EK= 0.25872E+01 SP= -.14E+01 SK= 0.13E+00 mag=      0.065
       N       E                     dE             d eps       ncg     rms          rms(c)
DAV:   1    -0.324031908355E+02    0.60942E-02   -0.13869E-02  2640   0.103E+00    0.469E-02
RMM:   2    -0.324042219500E+02   -0.10311E-02   -0.46872E-03  1599   0.299E-01
    431 T=   808. E= -.31102340E+02 F= -.32404222E+02 E0= -.32365178E+02  EK= 0.27142E+01 SP= -.15E+01 SK= 0.13E+00 mag=     -0.083
       N       E                     dE             d eps       ncg     rms          rms(c)
DAV:   1    -0.323981150650E+02    0.50758E-02   -0.18339E-02  2536   0.112E+00    0.586E-02
RMM:   2    -0.323994779542E+02   -0.13629E-02   -0.47529E-03  1545   0.288E-01    0.449E-02
RMM:   3    -0.323999131785E+02   -0.43522E-03   -0.13011E-03  1436   0.111E-01
    432 T=   848. E= -.31099442E+02 F= -.32399913E+02 E0= -.32360661E+02  EK= 0.28502E+01 SP= -.17E+01 SK= 0.13E+00 mag=     -0.078
       N       E                     dE             d eps       ncg     rms          rms(c)
DAV:   1    -0.323969370128E+02    0.25409E-02   -0.17141E-02  2560   0.109E+00    0.512E-02
RMM:   2    -0.323979333653E+02   -0.99635E-03   -0.31976E-03  1531   0.249E-01
    433 T=   890. E= -.31094817E+02 F= -.32397933E+02 E0= -.32358245E+02  EK= 0.29927E+01 SP= -.18E+01 SK= 0.12E+00 mag=      0.048
       N       E                     dE             d eps       ncg     rms          rms(c)
DAV:   1    -0.323954505507E+02    0.14865E-02   -0.26071E-02  2856   0.120E+00    0.669E-02
RMM:   2    -0.323969253521E+02   -0.14748E-02   -0.46781E-03  1590   0.270E-01    0.481E-02
RMM:   3    -0.323974490319E+02   -0.52368E-03   -0.12302E-03  1420   0.107E-01
    434 T=   933. E= -.31090200E+02 F= -.32397449E+02 E0= -.32357506E+02  EK= 0.31349E+01 SP= -.19E+01 SK= 0.10E+00 mag=      0.069
       N       E                     dE             d eps       ncg     rms          rms(c)
DAV:   1    -0.323977087524E+02   -0.78340E-03   -0.17442E-02  2400   0.112E+00    0.621E-02
RMM:   2    -0.323990385696E+02   -0.13298E-02   -0.50456E-03  1621   0.290E-01
    435 T=   973. E= -.31086492E+02 F= -.32399039E+02 E0= -.32358658E+02  EK= 0.32715E+01 SP= -.20E+01 SK= 0.80E-01 mag=     -0.003
       N       E                     dE             d eps       ncg     rms          rms(c)
DAV:   1    -0.323994596998E+02   -0.17509E-02   -0.34162E-02  3008   0.128E+00    0.631E-02
RMM:   2    -0.324011732278E+02   -0.17135E-02   -0.61553E-03  1681   0.303E-01    0.438E-02
RMM:   3    -0.324017061105E+02   -0.53288E-03   -0.15531E-03  1476   0.124E-01
    436 T=  1011. E= -.31082847E+02 F= -.32401706E+02 E0= -.32360999E+02  EK= 0.33966E+01 SP= -.21E+01 SK= 0.58E-01 mag=     -0.027
       N       E                     dE             d eps       ncg     rms          rms(c)
DAV:   1    -0.324039704688E+02   -0.27972E-02   -0.22953E-02  2424   0.120E+00    0.743E-02
RMM:   2    -0.324055380437E+02   -0.15676E-02   -0.48559E-03  1590   0.299E-01    0.463E-02
RMM:   3    -0.324058103274E+02   -0.27228E-03   -0.10146E-03  1271   0.113E-01
    437 T=  1042. E= -.31080551E+02 F= -.32405810E+02 E0= -.32364706E+02  EK= 0.35036E+01 SP= -.22E+01 SK= 0.35E-01 mag=     -0.018
       N       E                     dE             d eps       ncg     rms          rms(c)
DAV:   1    -0.324093030141E+02   -0.37650E-02   -0.33702E-02  2704   0.125E+00    0.488E-02
RMM:   2    -0.324106166600E+02   -0.13136E-02   -0.48096E-03  1628   0.308E-01
    438 T=  1069. E= -.31074449E+02 F= -.32410617E+02 E0= -.32369154E+02  EK= 0.35914E+01 SP= -.23E+01 SK= 0.17E-01 mag=      0.014
       N       E                     dE             d eps       ncg     rms          rms(c)
DAV:   1    -0.324151793467E+02   -0.58763E-02   -0.27176E-02  2976   0.129E+00    0.461E-02
RMM:   2    -0.324166578533E+02   -0.14785E-02   -0.51672E-03  1621   0.304E-01    0.302E-02
RMM:   3    -0.324169413087E+02   -0.28346E-03   -0.13017E-03  1359   0.116E-01
    439 T=  1086. E= -.31071745E+02 F= -.32416941E+02 E0= -.32375099E+02  EK= 0.36491E+01 SP= -.23E+01 SK= 0.45E-02 mag=      0.025
       N       E                     dE             d eps       ncg     rms          rms(c)
DAV:   1    -0.324226148376E+02   -0.59570E-02   -0.22760E-02  2296   0.125E+00    0.547E-02
RMM:   2    -0.324239900632E+02   -0.13752E-02   -0.42286E-03  1606   0.284E-01    0.342E-02
RMM:   3    -0.324241864622E+02   -0.19640E-03   -0.98302E-04  1229   0.108E-01
    440 T=  1094. E= -.31069177E+02 F= -.32424186E+02 E0= -.32381957E+02  EK= 0.36758E+01 SP= -.23E+01 SK= 0.73E-06 mag=      0.009
       N       E                     dE             d eps       ncg     rms          rms(c)
DAV:   1    -0.324306010957E+02   -0.66110E-02   -0.24336E-02  2560   0.124E+00    0.406E-02
RMM:   2    -0.324319305385E+02   -0.13294E-02   -0.45087E-03  1613   0.307E-01
    441 T=  1093. E= -.31062579E+02 F= -.32431931E+02 E0= -.32389366E+02  EK= 0.36739E+01 SP= -.23E+01 SK= 0.44E-02 mag=     -0.021
       N       E                     dE             d eps       ncg     rms          rms(c)
DAV:   1    -0.324391256088E+02   -0.85245E-02   -0.21564E-02  2920   0.131E+00    0.433E-02
RMM:   2    -0.324405966273E+02   -0.14710E-02   -0.48101E-03  1619   0.291E-01    0.295E-02
RMM:   3    -0.324408897377E+02   -0.29311E-03   -0.11582E-03  1340   0.112E-01
    442 T=  1082. E= -.31059767E+02 F= -.32440890E+02 E0= -.32397953E+02  EK= 0.36366E+01 SP= -.23E+01 SK= 0.17E-01 mag=     -0.024
       N       E                     dE             d eps       ncg     rms          rms(c)
DAV:   1    -0.324492681541E+02   -0.86715E-02   -0.21836E-02  2096   0.120E+00    0.472E-02
RMM:   2    -0.324505601837E+02   -0.12920E-02   -0.34364E-03  1540   0.278E-01
    443 T=  1063. E= -.31054383E+02 F= -.32450560E+02 E0= -.32407261E+02  EK= 0.35720E+01 SP= -.22E+01 SK= 0.38E-01 mag=     -0.002
       N       E                     dE             d eps       ncg     rms          rms(c)
DAV:   1    -0.324595373362E+02   -0.10269E-01   -0.33732E-02  3120   0.137E+00    0.495E-02
RMM:   2    -0.324610143093E+02   -0.14770E-02   -0.46238E-03  1595   0.268E-01    0.347E-02
RMM:   3    -0.324613829334E+02   -0.36862E-03   -0.11438E-03  1339   0.106E-01
    444 T=  1036. E= -.31048173E+02 F= -.32461383E+02 E0= -.32417788E+02  EK= 0.34825E+01 SP= -.21E+01 SK= 0.63E-01 mag=      0.009
       N       E                     dE             d eps       ncg     rms          rms(c)
DAV:   1    -0.324723973129E+02   -0.11383E-01   -0.18889E-02  2456   0.112E+00    0.456E-02
RMM:   2    -0.324736543829E+02   -0.12571E-02   -0.34319E-03  1550   0.273E-01
    445 T=  1003. E= -.31042436E+02 F= -.32473654E+02 E0= -.32429676E+02  EK= 0.33721E+01 SP= -.20E+01 SK= 0.90E-01 mag=      0.008
       N       E                     dE             d eps       ncg     rms          rms(c)
DAV:   1    -0.324854179313E+02   -0.13021E-01   -0.33791E-02  3152   0.130E+00    0.508E-02
RMM:   2    -0.324867503758E+02   -0.13324E-02   -0.43790E-03  1543   0.269E-01
    446 T=   966. E= -.31036280E+02 F= -.32486750E+02 E0= -.32442534E+02  EK= 0.32466E+01 SP= -.19E+01 SK= 0.12E+00 mag=      0.003
       N       E                     dE             d eps       ncg     rms          rms(c)
DAV:   1    -0.325004496861E+02   -0.15032E-01   -0.11049E-02  2168   0.111E+00    0.466E-02
RMM:   2    -0.325018037473E+02   -0.13541E-02   -0.50181E-03  1562   0.324E-01    0.303E-02
RMM:   3    -0.325021473275E+02   -0.34358E-03   -0.15944E-03  1453   0.125E-01
    447 T=   925. E= -.31033909E+02 F= -.32502147E+02 E0= -.32457590E+02  EK= 0.31092E+01 SP= -.18E+01 SK= 0.14E+00 mag=      0.000
       N       E                     dE             d eps       ncg     rms          rms(c)
DAV:   1    -0.325175857928E+02   -0.15782E-01   -0.24030E-02  2344   0.118E+00    0.376E-02
RMM:   2    -0.325186708504E+02   -0.10851E-02   -0.38010E-03  1553   0.270E-01
    448 T=   884. E= -.31027689E+02 F= -.32518671E+02 E0= -.32473822E+02  EK= 0.29717E+01 SP= -.16E+01 SK= 0.16E+00 mag=     -0.005
       N       E                     dE             d eps       ncg     rms          rms(c)
DAV:   1    -0.325348702776E+02   -0.17284E-01   -0.22478E-02  3008   0.118E+00    0.590E-02
RMM:   2    -0.325363257555E+02   -0.14555E-02   -0.44303E-03  1503   0.248E-01    0.438E-02
RMM:   3    -0.325370736576E+02   -0.74790E-03   -0.16615E-03  1405   0.105E-01
    449 T=   843. E= -.31023173E+02 F= -.32537074E+02 E0= -.32491988E+02  EK= 0.28341E+01 SP= -.15E+01 SK= 0.17E+00 mag=     -0.015
       N       E                     dE             d eps       ncg     rms          rms(c)
DAV:   1    -0.325561407390E+02   -0.19815E-01   -0.17610E-02  2384   0.103E+00    0.551E-02
RMM:   2    -0.325574072473E+02   -0.12665E-02   -0.35334E-03  1484   0.255E-01
    450 T=   804. E= -.31018965E+02 F= -.32557407E+02 E0= -.32512047E+02  EK= 0.27018E+01 SP= -.13E+01 SK= 0.18E+00 mag=     -0.010
       N       E                     dE             d eps       ncg     rms          rms(c)
DAV:   1    -0.325772250105E+02   -0.21084E-01   -0.29354E-02  2888   0.113E+00    0.739E-02
RMM:   2    -0.325788307872E+02   -0.16058E-02   -0.44583E-03  1555   0.252E-01    0.528E-02
RMM:   3    -0.325798682485E+02   -0.10375E-02   -0.19759E-03  1402   0.110E-01
    451 T=   767. E= -.31014764E+02 F= -.32579868E+02 E0= -.32534280E+02  EK= 0.25786E+01 SP= -.12E+01 SK= 0.17E+00 mag=      0.021
       N       E                     dE             d eps       ncg     rms          rms(c)
DAV:   1    -0.326025533709E+02   -0.23723E-01   -0.16258E-02  2384   0.982E-01    0.734E-02
RMM:   2    -0.326039734291E+02   -0.14201E-02   -0.35838E-03  1517   0.253E-01    0.510E-02
RMM:   3    -0.326044169736E+02   -0.44354E-03   -0.10279E-03  1313   0.982E-02
    452 T=   734. E= -.31011932E+02 F= -.32604417E+02 E0= -.32558543E+02  EK= 0.24653E+01 SP= -.10E+01 SK= 0.16E+00 mag=      0.006
       N       E                     dE             d eps       ncg     rms          rms(c)
DAV:   1    -0.326300142325E+02   -0.26041E-01   -0.31824E-02  2608   0.100E+00    0.486E-02
RMM:   2    -0.326308600996E+02   -0.84587E-03   -0.38125E-03  1543   0.262E-01
    453 T=   704. E= -.31007318E+02 F= -.32630860E+02 E0= -.32584777E+02  EK= 0.23665E+01 SP= -.89E+00 SK= 0.15E+00 mag=     -0.038
       N       E                     dE             d eps       ncg     rms          rms(c)
DAV:   1    -0.326585617755E+02   -0.28548E-01   -0.20645E-02  2640   0.100E+00    0.457E-02
RMM:   2    -0.326594102599E+02   -0.84848E-03   -0.37276E-03  1534   0.252E-01
    454 T=   678. E= -.31004175E+02 F= -.32659410E+02 E0= -.32613105E+02  EK= 0.22801E+01 SP= -.76E+00 SK= 0.13E+00 mag=     -0.069
       N       E                     dE             d eps       ncg     rms          rms(c)
DAV:   1    -0.326894502962E+02   -0.30889E-01   -0.10366E-02  2336   0.937E-01    0.303E-02
RMM:   2    -0.326901189481E+02   -0.66865E-03   -0.32306E-03  1535   0.251E-01
    455 T=   657. E= -.31001319E+02 F= -.32690119E+02 E0= -.32643524E+02  EK= 0.22081E+01 SP= -.63E+00 SK= 0.11E+00 mag=     -0.052
       N       E                     dE             d eps       ncg     rms          rms(c)
DAV:   1    -0.327214929752E+02   -0.32043E-01   -0.12712E-02  2560   0.101E+00    0.374E-02
RMM:   2    -0.327222004533E+02   -0.70748E-03   -0.34035E-03  1523   0.246E-01
    456 T=   640. E= -.30997100E+02 F= -.32722200E+02 E0= -.32675397E+02  EK= 0.21514E+01 SP= -.51E+00 SK= 0.88E-01 mag=      0.010
       N       E                     dE             d eps       ncg     rms          rms(c)
DAV:   1    -0.327547618512E+02   -0.33269E-01   -0.74836E-03  2160   0.904E-01    0.447E-02
RMM:   2    -0.327556637285E+02   -0.90188E-03   -0.38991E-03  1533   0.257E-01
    457 T=   628. E= -.30992342E+02 F= -.32755664E+02 E0= -.32708714E+02  EK= 0.21092E+01 SP= -.41E+00 SK= 0.67E-01 mag=      0.074
       N       E                     dE             d eps       ncg     rms          rms(c)
DAV:   1    -0.327906947302E+02   -0.35933E-01   -0.11283E-02  2376   0.959E-01    0.369E-02
RMM:   2    -0.327914065575E+02   -0.71183E-03   -0.39903E-03  1576   0.252E-01
    458 T=   619. E= -.30988206E+02 F= -.32791407E+02 E0= -.32744180E+02  EK= 0.20812E+01 SP= -.33E+00 SK= 0.48E-01 mag=      0.086
       N       E                     dE             d eps       ncg     rms          rms(c)
DAV:   1    -0.328272683657E+02   -0.36574E-01   -0.11017E-02  2312   0.878E-01    0.276E-02
RMM:   2    -0.328279720363E+02   -0.70367E-03   -0.40525E-03  1547   0.259E-01
    459 T=   615. E= -.30984650E+02 F= -.32827972E+02 E0= -.32780460E+02  EK= 0.20657E+01 SP= -.25E+00 SK= 0.31E-01 mag=      0.031
       N       E                     dE             d eps       ncg     rms          rms(c)
DAV:   1    -0.328636908983E+02   -0.36423E-01   -0.12758E-02  2528   0.938E-01    0.562E-02
RMM:   2    -0.328647859576E+02   -0.10951E-02   -0.44021E-03  1555   0.248E-01
    460 T=   614. E= -.30980773E+02 F= -.32864786E+02 E0= -.32817176E+02  EK= 0.20629E+01 SP= -.20E+00 SK= 0.18E-01 mag=     -0.058
       N       E                     dE             d eps       ncg     rms          rms(c)
DAV:   1    -0.329030122608E+02   -0.39321E-01   -0.11807E-02  2520   0.907E-01    0.458E-02
RMM:   2    -0.329037646348E+02   -0.75237E-03   -0.41182E-03  1561   0.263E-01
    461 T=   617. E= -.30978191E+02 F= -.32903765E+02 E0= -.32855897E+02  EK= 0.20728E+01 SP= -.16E+00 SK= 0.85E-02 mag=     -0.130
       N       E                     dE             d eps       ncg     rms          rms(c)
DAV:   1    -0.329421650692E+02   -0.39153E-01   -0.12656E-02  2480   0.910E-01    0.466E-02
RMM:   2    -0.329429253462E+02   -0.76028E-03   -0.41710E-03  1542   0.262E-01
    462 T=   623. E= -.30974926E+02 F= -.32942925E+02 E0= -.32894779E+02  EK= 0.20951E+01 SP= -.13E+00 SK= 0.26E-02 mag=     -0.126
       N       E                     dE             d eps       ncg     rms          rms(c)
DAV:   1    -0.329807075343E+02   -0.38542E-01   -0.99878E-03  2248   0.916E-01    0.508E-02
RMM:   2    -0.329817247467E+02   -0.10172E-02   -0.39437E-03  1527   0.255E-01
    463 T=   633. E= -.30970991E+02 F= -.32981725E+02 E0= -.32933362E+02  EK= 0.21289E+01 SP= -.12E+00 SK= 0.15E-03 mag=     -0.022
       N       E                     dE             d eps       ncg     rms          rms(c)
DAV:   1    -0.330199373800E+02   -0.39230E-01   -0.99184E-03  2472   0.953E-01    0.532E-02
RMM:   2    -0.330208578145E+02   -0.92043E-03   -0.38787E-03  1537   0.259E-01
    464 T=   647. E= -.30967449E+02 F= -.33020858E+02 E0= -.32972406E+02  EK= 0.21736E+01 SP= -.12E+00 SK= 0.59E-03 mag=      0.112
       N       E                     dE             d eps       ncg     rms          rms(c)
DAV:   1    -0.330588295357E+02   -0.38892E-01   -0.12051E-02  2472   0.924E-01    0.417E-02
RMM:   2    -0.330596747118E+02   -0.84518E-03   -0.42988E-03  1550   0.273E-01
    465 T=   663. E= -.30964305E+02 F= -.33059675E+02 E0= -.33010959E+02  EK= 0.22281E+01 SP= -.14E+00 SK= 0.33E-02 mag=      0.178
       N       E                     dE             d eps       ncg     rms          rms(c)
DAV:   1    -0.330957531975E+02   -0.36924E-01   -0.14663E-02  2648   0.959E-01    0.621E-02
RMM:   2    -0.330970437180E+02   -0.12905E-02   -0.48951E-03  1557   0.264E-01
    466 T=   682. E= -.30960779E+02 F= -.33097044E+02 E0= -.33048064E+02  EK= 0.22914E+01 SP= -.16E+00 SK= 0.74E-02 mag=      0.087
       N       E                     dE             d eps       ncg     rms          rms(c)
DAV:   1    -0.331333541555E+02   -0.37601E-01   -0.14279E-02  2504   0.977E-01    0.517E-02
RMM:   2    -0.331342992190E+02   -0.94506E-03   -0.43131E-03  1536   0.277E-01
    467 T=   703. E= -.30957640E+02 F= -.33134299E+02 E0= -.33085191E+02  EK= 0.23633E+01 SP= -.20E+00 SK= 0.12E-01 mag=     -0.124
       N       E                     dE             d eps       ncg     rms          rms(c)
DAV:   1    -0.331677111721E+02   -0.34357E-01   -0.15641E-02  2504   0.979E-01    0.661E-02
RMM:   2    -0.331690757421E+02   -0.13646E-02   -0.58114E-03  1595   0.295E-01    0.510E-02
RMM:   3    -0.331695606976E+02   -0.48496E-03   -0.13090E-03  1475   0.113E-01
    468 T=   726. E= -.30954372E+02 F= -.33169561E+02 E0= -.33120438E+02  EK= 0.24416E+01 SP= -.24E+00 SK= 0.17E-01 mag=     -0.153
       N       E                     dE             d eps       ncg     rms          rms(c)
DAV:   1    -0.332021475403E+02   -0.33072E-01   -0.14598E-02  2528   0.991E-01    0.567E-02
RMM:   2    -0.332030946465E+02   -0.94711E-03   -0.38764E-03  1533   0.243E-01
    469 T=   752. E= -.30949952E+02 F= -.33203095E+02 E0= -.33153504E+02  EK= 0.25262E+01 SP= -.29E+00 SK= 0.21E-01 mag=      0.011
       N       E                     dE             d eps       ncg     rms          rms(c)
DAV:   1    -0.332317324045E+02   -0.29585E-01   -0.22345E-02  2752   0.107E+00    0.659E-02
RMM:   2    -0.332332287326E+02   -0.14963E-02   -0.48207E-03  1578   0.256E-01    0.542E-02
RMM:   3    -0.332338966730E+02   -0.66794E-03   -0.12836E-03  1423   0.104E-01
    470 T=   778. E= -.30945628E+02 F= -.33233897E+02 E0= -.33184480E+02  EK= 0.26134E+01 SP= -.35E+00 SK= 0.23E-01 mag=      0.114
       N       E                     dE             d eps       ncg     rms          rms(c)
DAV:   1    -0.332613929332E+02   -0.28164E-01   -0.16212E-02  2560   0.101E+00    0.654E-02
RMM:   2    -0.332625988842E+02   -0.12060E-02   -0.38373E-03  1463   0.243E-01
    471 T=   804. E= -.30942394E+02 F= -.33262599E+02 E0= -.33212687E+02  EK= 0.27011E+01 SP= -.40E+00 SK= 0.24E-01 mag=      0.096
       N       E                     dE             d eps       ncg     rms          rms(c)
DAV:   1    -0.332843597901E+02   -0.22967E-01   -0.30351E-02  2896   0.111E+00    0.841E-02
RMM:   2    -0.332864153664E+02   -0.20556E-02   -0.56974E-03  1560   0.275E-01    0.622E-02
RMM:   3    -0.332877859687E+02   -0.13706E-02   -0.25109E-03  1437   0.120E-01    0.426E-02
RMM:   4    -0.332885498581E+02   -0.76389E-03   -0.18596E-03  1404   0.888E-02
    472 T=   829. E= -.30939986E+02 F= -.33288550E+02 E0= -.33238436E+02  EK= 0.27866E+01 SP= -.46E+00 SK= 0.23E-01 mag=     -0.042
       N       E                     dE             d eps       ncg     rms          rms(c)
DAV:   1    -0.333060665860E+02   -0.18281E-01   -0.13601E-02  2480   0.103E+00    0.101E-01
RMM:   2    -0.333082426315E+02   -0.21760E-02   -0.59442E-03  1537   0.269E-01    0.713E-02
RMM:   3    -0.333095709098E+02   -0.13283E-02   -0.26170E-03  1400   0.117E-01
    473 T=   853. E= -.30936965E+02 F= -.33309571E+02 E0= -.33259456E+02  EK= 0.28670E+01 SP= -.51E+00 SK= 0.20E-01 mag=     -0.086
       N       E                     dE             d eps       ncg     rms          rms(c)
DAV:   1    -0.333270649258E+02   -0.18822E-01   -0.31205E-02  2624   0.111E+00    0.679E-02
RMM:   2    -0.333281293470E+02   -0.10644E-02   -0.42295E-03  1525   0.272E-01
    474 T=   876. E= -.30932403E+02 F= -.33328129E+02 E0= -.33277855E+02  EK= 0.29433E+01 SP= -.56E+00 SK= 0.16E-01 mag=     -0.009
       N       E                     dE             d eps       ncg     rms          rms(c)
DAV:   1    -0.333415491379E+02   -0.14484E-01   -0.24896E-02  2896   0.116E+00    0.434E-02
RMM:   2    -0.333425985828E+02   -0.10494E-02   -0.45735E-03  1569   0.269E-01
    475 T=   895. E= -.30929999E+02 F= -.33342599E+02 E0= -.33292283E+02  EK= 0.30077E+01 SP= -.61E+00 SK= 0.11E-01 mag=      0.139
       N       E                     dE             d eps       ncg     rms          rms(c)
DAV:   1    -0.333508581245E+02   -0.93090E-02   -0.11972E-02  2160   0.107E+00    0.619E-02
RMM:   2    -0.333522719162E+02   -0.14138E-02   -0.46710E-03  1554   0.300E-01    0.448E-02
RMM:   3    -0.333527290034E+02   -0.45709E-03   -0.16500E-03  1492   0.120E-01
    476 T=   910. E= -.30928269E+02 F= -.33352729E+02 E0= -.33302370E+02  EK= 0.30591E+01 SP= -.64E+00 SK= 0.70E-02 mag=      0.129
       N       E                     dE             d eps       ncg     rms          rms(c)
DAV:   1    -0.333581854194E+02   -0.59135E-02   -0.18499E-02  2624   0.113E+00    0.366E-02
RMM:   2    -0.333592117366E+02   -0.10263E-02   -0.38379E-03  1496   0.276E-01
    477 T=   923. E= -.30921801E+02 F= -.33359212E+02 E0= -.33308695E+02  EK= 0.31017E+01 SP= -.67E+00 SK= 0.33E-02 mag=     -0.030
       N       E                     dE             d eps       ncg     rms          rms(c)
DAV:   1    -0.333596478859E+02   -0.14625E-02   -0.17723E-02  2680   0.118E+00    0.515E-02
RMM:   2    -0.333609111750E+02   -0.12633E-02   -0.45762E-03  1535   0.259E-01
    478 T=   931. E= -.30916065E+02 F= -.33360911E+02 E0= -.33310676E+02  EK= 0.31274E+01 SP= -.68E+00 SK= 0.81E-03 mag=     -0.210
       N       E                     dE             d eps       ncg     rms          rms(c)
DAV:   1    -0.333573081215E+02    0.23398E-02   -0.12315E-02  2384   0.108E+00    0.564E-02
RMM:   2    -0.333586298630E+02   -0.13217E-02   -0.45910E-03  1579   0.293E-01
    479 T=   933. E= -.30912186E+02 F= -.33358630E+02 E0= -.33308481E+02  EK= 0.31347E+01 SP= -.69E+00 SK= 0.24E-05 mag=     -0.267
       N       E                     dE             d eps       ncg     rms          rms(c)
DAV:   1    -0.333517115490E+02    0.55966E-02   -0.23851E-02  2992   0.122E+00    0.435E-02
RMM:   2    -0.333530460850E+02   -0.13345E-02   -0.50946E-03  1581   0.294E-01
    480 T=   930. E= -.30907733E+02 F= -.33353046E+02 E0= -.33302650E+02  EK= 0.31265E+01 SP= -.68E+00 SK= 0.99E-03 mag=     -0.129
       N       E                     dE             d eps       ncg     rms          rms(c)
DAV:   1    -0.333417953973E+02    0.99162E-02   -0.15263E-02  2392   0.107E+00    0.428E-02
RMM:   2    -0.333433108835E+02   -0.15155E-02   -0.63859E-03  1648   0.326E-01    0.325E-02
RMM:   3    -0.333436725939E+02   -0.36171E-03   -0.14593E-03  1502   0.125E-01
    481 T=   923. E= -.30904272E+02 F= -.33343673E+02 E0= -.33293326E+02  EK= 0.31011E+01 SP= -.67E+00 SK= 0.36E-02 mag=      0.073
       N       E                     dE             d eps       ncg     rms          rms(c)
DAV:   1    -0.333288134956E+02    0.14497E-01   -0.23403E-02  2448   0.113E+00    0.531E-02
RMM:   2    -0.333300553065E+02   -0.12418E-02   -0.37368E-03  1512   0.278E-01
    482 T=   912. E= -.30895610E+02 F= -.33330055E+02 E0= -.33280076E+02  EK= 0.30652E+01 SP= -.64E+00 SK= 0.76E-02 mag=      0.229
       N       E                     dE             d eps       ncg     rms          rms(c)
DAV:   1    -0.333117202310E+02    0.17093E-01   -0.25908E-02  3024   0.120E+00    0.663E-02
RMM:   2    -0.333132821862E+02   -0.15620E-02   -0.45233E-03  1572   0.258E-01    0.490E-02
RMM:   3    -0.333139427245E+02   -0.66054E-03   -0.13439E-03  1399   0.105E-01
    483 T=   897. E= -.30888721E+02 F= -.33313943E+02 E0= -.33264061E+02  EK= 0.30149E+01 SP= -.60E+00 SK= 0.12E-01 mag=      0.116
       N       E                     dE             d eps       ncg     rms          rms(c)
DAV:   1    -0.332941764965E+02    0.19106E-01   -0.16200E-02  2264   0.104E+00    0.599E-02
RMM:   2    -0.332954341634E+02   -0.12577E-02   -0.32741E-03  1536   0.256E-01
    484 T=   878. E= -.30883991E+02 F= -.33295434E+02 E0= -.33245658E+02  EK= 0.29519E+01 SP= -.56E+00 SK= 0.17E-01 mag=     -0.187
       N       E                     dE             d eps       ncg     rms          rms(c)
DAV:   1    -0.332701183775E+02    0.24058E-01   -0.30806E-02  2944   0.116E+00    0.957E-02
RMM:   2    -0.332723697225E+02   -0.22513E-02   -0.51390E-03  1550   0.261E-01    0.740E-02
RMM:   3    -0.332740857355E+02   -0.17160E-02   -0.26689E-03  1410   0.121E-01    0.512E-02
RMM:   4    -0.332749688076E+02   -0.88307E-03   -0.16639E-03  1400   0.850E-02
    485 T=   857. E= -.30879897E+02 F= -.33274969E+02 E0= -.33225406E+02  EK= 0.28804E+01 SP= -.51E+00 SK= 0.21E-01 mag=     -0.082
       N       E                     dE             d eps       ncg     rms          rms(c)
DAV:   1    -0.332489453141E+02    0.25140E-01   -0.12883E-02  2360   0.105E+00    0.938E-02
RMM:   2    -0.332507736168E+02   -0.18283E-02   -0.46025E-03  1523   0.270E-01    0.666E-02
RMM:   3    -0.332517772607E+02   -0.10036E-02   -0.19052E-03  1399   0.115E-01
    486 T=   834. E= -.30875550E+02 F= -.33251777E+02 E0= -.33202613E+02  EK= 0.28029E+01 SP= -.45E+00 SK= 0.25E-01 mag=      0.136
       N       E                     dE             d eps       ncg     rms          rms(c)
DAV:   1    -0.332254932324E+02    0.25280E-01   -0.26812E-02  2672   0.106E+00    0.710E-02
RMM:   2    -0.332267975343E+02   -0.13043E-02   -0.39020E-03  1468   0.263E-01
    487 T=   811. E= -.30868381E+02 F= -.33226798E+02 E0= -.33178412E+02  EK= 0.27250E+01 SP= -.39E+00 SK= 0.26E-01 mag=      0.295
       N       E                     dE             d eps       ncg     rms          rms(c)
DAV:   1    -0.332000324743E+02    0.25461E-01   -0.17026E-02  2792   0.109E+00    0.664E-02
RMM:   2    -0.332013993423E+02   -0.13669E-02   -0.40483E-03  1549   0.260E-01    0.513E-02
RMM:   3    -0.332018705906E+02   -0.47125E-03   -0.11489E-03  1329   0.105E-01
    488 T=   787. E= -.30865375E+02 F= -.33201871E+02 E0= -.33153639E+02  EK= 0.26439E+01 SP= -.33E+00 SK= 0.26E-01 mag=      0.126
       N       E                     dE             d eps       ncg     rms          rms(c)
DAV:   1    -0.331747637872E+02    0.26636E-01   -0.15152E-02  2440   0.111E+00    0.760E-02
RMM:   2    -0.331759661038E+02   -0.12023E-02   -0.28097E-03  1510   0.251E-01
    489 T=   764. E= -.30860450E+02 F= -.33175966E+02 E0= -.33128121E+02  EK= 0.25665E+01 SP= -.28E+00 SK= 0.24E-01 mag=     -0.251
       N       E                     dE             d eps       ncg     rms          rms(c)
DAV:   1    -0.331440435278E+02    0.30720E-01   -0.25430E-02  2848   0.107E+00    0.120E-01
RMM:   2    -0.331467548473E+02   -0.27113E-02   -0.50387E-03  1532   0.252E-01    0.930E-02
RMM:   3    -0.331488350442E+02   -0.20802E-02   -0.24872E-03  1419   0.117E-01    0.669E-02
RMM:   4    -0.331503077388E+02   -0.14727E-02   -0.20211E-03  1404   0.935E-02    0.318E-02
RMM:   5    -0.331506598635E+02   -0.35212E-03   -0.70014E-04  1307   0.590E-02
    490 T=   742. E= -.30856168E+02 F= -.33150660E+02 E0= -.33102952E+02  EK= 0.24935E+01 SP= -.22E+00 SK= 0.21E-01 mag=     -0.045
       N       E                     dE             d eps       ncg     rms          rms(c)
DAV:   1    -0.331192294363E+02    0.31078E-01   -0.12808E-02  2264   0.955E-01    0.117E-01
RMM:   2    -0.331215410762E+02   -0.23116E-02   -0.46887E-03  1429   0.251E-01    0.903E-02
RMM:   3    -0.331231321969E+02   -0.15911E-02   -0.19807E-03  1400   0.107E-01    0.652E-02
RMM:   4    -0.331242959564E+02   -0.11638E-02   -0.14235E-03  1400   0.838E-02
    491 T=   721. E= -.30854442E+02 F= -.33124296E+02 E0= -.33077277E+02  EK= 0.24228E+01 SP= -.17E+00 SK= 0.17E-01 mag=      0.118
       N       E                     dE             d eps       ncg     rms          rms(c)
DAV:   1    -0.330976399796E+02    0.25492E-01   -0.13977E-02  2640   0.102E+00    0.633E-02
RMM:   2    -0.330984518709E+02   -0.81189E-03   -0.30963E-03  1441   0.225E-01
    492 T=   703. E= -.30850570E+02 F= -.33098452E+02 E0= -.33051934E+02  EK= 0.23618E+01 SP= -.13E+00 SK= 0.12E-01 mag=      0.138
       N       E                     dE             d eps       ncg     rms          rms(c)
DAV:   1    -0.330728653706E+02    0.24775E-01   -0.10752E-02  2544   0.100E+00    0.400E-02
RMM:   2    -0.330736289237E+02   -0.76355E-03   -0.39593E-03  1537   0.261E-01
    493 T=   687. E= -.30846875E+02 F= -.33073629E+02 E0= -.33027418E+02  EK= 0.23095E+01 SP= -.90E-01 SK= 0.73E-02 mag=      0.011
       N       E                     dE             d eps       ncg     rms          rms(c)
DAV:   1    -0.330479760422E+02    0.24889E-01   -0.98674E-03  2272   0.101E+00    0.526E-02
RMM:   2    -0.330487911172E+02   -0.81508E-03   -0.30567E-03  1523   0.249E-01
    494 T=   674. E= -.30843614E+02 F= -.33048791E+02 E0= -.33003247E+02  EK= 0.22655E+01 SP= -.64E-01 SK= 0.34E-02 mag=     -0.172
       N       E                     dE             d eps       ncg     rms          rms(c)
DAV:   1    -0.330230353474E+02    0.24941E-01   -0.11850E-02  2528   0.964E-01    0.655E-02
RMM:   2    -0.330242892302E+02   -0.12539E-02   -0.41530E-03  1529   0.275E-01
    495 T=   664. E= -.30838904E+02 F= -.33024289E+02 E0= -.32979584E+02  EK= 0.22323E+01 SP= -.48E-01 SK= 0.80E-03 mag=     -0.264
       N       E                     dE             d eps       ncg     rms          rms(c)
DAV:   1    -0.330009984894E+02    0.22037E-01   -0.92241E-03  2544   0.972E-01    0.503E-02
RMM:   2    -0.330019828534E+02   -0.98436E-03   -0.37523E-03  1538   0.271E-01
    496 T=   658. E= -.30835011E+02 F= -.33001983E+02 E0= -.32957586E+02  EK= 0.22100E+01 SP= -.43E-01 SK= 0.11E-04 mag=     -0.166
       N       E                     dE             d eps       ncg     rms          rms(c)
DAV:   1    -0.329799363328E+02    0.21062E-01   -0.88496E-03  2216   0.100E+00    0.324E-02
RMM:   2    -0.329806518415E+02   -0.71551E-03   -0.37515E-03  1541   0.268E-01
    497 T=   654. E= -.30830933E+02 F= -.32980652E+02 E0= -.32936559E+02  EK= 0.21986E+01 SP= -.50E-01 SK= 0.13E-02 mag=      0.077
       N       E                     dE             d eps       ncg     rms          rms(c)
DAV:   1    -0.329569068047E+02    0.23030E-01   -0.11539E-02  2656   0.966E-01    0.756E-02
RMM:   2    -0.329583465734E+02   -0.14398E-02   -0.42693E-03  1532   0.263E-01    0.583E-02
RMM:   3    -0.329592323400E+02   -0.88577E-03   -0.17727E-03  1418   0.111E-01
    498 T=   654. E= -.30826785E+02 F= -.32959232E+02 E0= -.32915913E+02  EK= 0.21970E+01 SP= -.69E-01 SK= 0.48E-02 mag=      0.112
       N       E                     dE             d eps       ncg     rms          rms(c)
DAV:   1    -0.329392952858E+02    0.19051E-01   -0.13200E-02  2512   0.931E-01    0.448E-02
RMM:   2    -0.329399146309E+02   -0.61935E-03   -0.26086E-03  1500   0.234E-01
    499 T=   657. E= -.30823092E+02 F= -.32939915E+02 E0= -.32896825E+02  EK= 0.22071E+01 SP= -.10E+00 SK= 0.10E-01 mag=     -0.035
       N       E                     dE             d eps       ncg     rms          rms(c)
DAV:   1    -0.329191766298E+02    0.20119E-01   -0.20382E-02  2760   0.102E+00    0.641E-02
RMM:   2    -0.329202233641E+02   -0.10467E-02   -0.35748E-03  1528   0.233E-01
    500 T=   663. E= -.30818422E+02 F= -.32920223E+02 E0= -.32877822E+02  EK= 0.22278E+01 SP= -.14E+00 SK= 0.18E-01 mag=     -0.178
       N       E                     dE             d eps       ncg     rms          rms(c)
DAV:   1    -0.329011734589E+02    0.18003E-01   -0.65865E-03  1896   0.912E-01    0.662E-02
RMM:   2    -0.329022798896E+02   -0.11064E-02   -0.46414E-03  1537   0.280E-01
    501 T=   672. E= -.30815521E+02 F= -.32902280E+02 E0= -.32860421E+02  EK= 0.22584E+01 SP= -.20E+00 SK= 0.27E-01 mag=     -0.192
       N       E                     dE             d eps       ncg     rms          rms(c)
DAV:   1    -0.328851260494E+02    0.16047E-01   -0.16339E-02  2776   0.113E+00    0.411E-02
RMM:   2    -0.328859991552E+02   -0.87311E-03   -0.41914E-03  1561   0.270E-01
    502 T=   685. E= -.30812451E+02 F= -.32885999E+02 E0= -.32844327E+02  EK= 0.23005E+01 SP= -.26E+00 SK= 0.37E-01 mag=     -0.058
       N       E                     dE             d eps       ncg     rms          rms(c)
DAV:   1    -0.328686622651E+02    0.16464E-01   -0.13140E-02  2432   0.939E-01    0.425E-02
RMM:   2    -0.328696482048E+02   -0.98594E-03   -0.49508E-03  1557   0.303E-01
    503 T=   700. E= -.30807788E+02 F= -.32869648E+02 E0= -.32828396E+02  EK= 0.23537E+01 SP= -.34E+00 SK= 0.47E-01 mag=      0.135
       N       E                     dE             d eps       ncg     rms          rms(c)
DAV:   1    -0.328517919857E+02    0.16870E-01   -0.15521E-02  2424   0.105E+00    0.741E-02
RMM:   2    -0.328533346242E+02   -0.15426E-02   -0.46885E-03  1563   0.273E-01    0.567E-02
RMM:   3    -0.328540849019E+02   -0.75028E-03   -0.15588E-03  1447   0.110E-01
    504 T=   719. E= -.30803844E+02 F= -.32854085E+02 E0= -.32813354E+02  EK= 0.24158E+01 SP= -.42E+00 SK= 0.56E-01 mag=      0.083
       N       E                     dE             d eps       ncg     rms          rms(c)
DAV:   1    -0.328388040899E+02    0.14531E-01   -0.17088E-02  2608   0.102E+00    0.597E-02
RMM:   2    -0.328397739132E+02   -0.96982E-03   -0.36754E-03  1543   0.241E-01
    505 T=   740. E= -.30800210E+02 F= -.32839774E+02 E0= -.32799225E+02  EK= 0.24871E+01 SP= -.51E+00 SK= 0.64E-01 mag=     -0.127
       N       E                     dE             d eps       ncg     rms          rms(c)
DAV:   1    -0.328218946236E+02    0.16909E-01   -0.30366E-02  2848   0.110E+00    0.863E-02
RMM:   2    -0.328238163348E+02   -0.19217E-02   -0.50742E-03  1578   0.259E-01    0.669E-02
RMM:   3    -0.328248428478E+02   -0.10265E-02   -0.15682E-03  1459   0.108E-01
    506 T=   763. E= -.30796135E+02 F= -.32824843E+02 E0= -.32784807E+02  EK= 0.25653E+01 SP= -.61E+00 SK= 0.70E-01 mag=     -0.074
       N       E                     dE             d eps       ncg     rms          rms(c)
DAV:   1    -0.328103601478E+02    0.13456E-01   -0.17422E-02  2560   0.102E+00    0.762E-02
RMM:   2    -0.328115754713E+02   -0.12153E-02   -0.35957E-03  1481   0.254E-01
    507 T=   788. E= -.30793366E+02 F= -.32811575E+02 E0= -.32771541E+02  EK= 0.26497E+01 SP= -.70E+00 SK= 0.73E-01 mag=      0.135
       N       E                     dE             d eps       ncg     rms          rms(c)
DAV:   1    -0.327945242312E+02    0.15836E-01   -0.37826E-02  2888   0.116E+00    0.904E-02
RMM:   2    -0.327964996505E+02   -0.19754E-02   -0.52821E-03  1545   0.275E-01    0.674E-02
RMM:   3    -0.327973952632E+02   -0.89561E-03   -0.14633E-03  1512   0.107E-01
    508 T=   815. E= -.30789711E+02 F= -.32797395E+02 E0= -.32757802E+02  EK= 0.27381E+01 SP= -.80E+00 SK= 0.73E-01 mag=      0.084
       N       E                     dE             d eps       ncg     rms          rms(c)
DAV:   1    -0.327828227671E+02    0.13677E-01   -0.15934E-02  2600   0.106E+00    0.896E-02
RMM:   2    -0.327842835457E+02   -0.14608E-02   -0.41697E-03  1473   0.262E-01    0.588E-02
RMM:   3    -0.327846295998E+02   -0.34605E-03   -0.99287E-04  1283   0.103E-01
    509 T=   841. E= -.30788759E+02 F= -.32784630E+02 E0= -.32744976E+02  EK= 0.28273E+01 SP= -.90E+00 SK= 0.69E-01 mag=     -0.042
       N       E                     dE             d eps       ncg     rms          rms(c)
DAV:   1    -0.327694554859E+02    0.14828E-01   -0.35922E-02  2728   0.115E+00    0.658E-02
RMM:   2    -0.327706349772E+02   -0.11795E-02   -0.45959E-03  1556   0.286E-01
    510 T=   868. E= -.30784358E+02 F= -.32770635E+02 E0= -.32731233E+02  EK= 0.29183E+01 SP= -.99E+00 SK= 0.63E-01 mag=     -0.143
       N       E                     dE             d eps       ncg     rms          rms(c)
DAV:   1    -0.327554717720E+02    0.13984E-01   -0.27022E-02  2984   0.116E+00    0.630E-02
RMM:   2    -0.327568426585E+02   -0.13709E-02   -0.45930E-03  1593   0.266E-01    0.426E-02
RMM:   3    -0.327572394550E+02   -0.39680E-03   -0.12359E-03  1395   0.106E-01
    511 T=   894. E= -.30782729E+02 F= -.32757239E+02 E0= -.32717876E+02  EK= 0.30039E+01 SP= -.11E+01 SK= 0.54E-01 mag=     -0.079
       N       E                     dE             d eps       ncg     rms          rms(c)
DAV:   1    -0.327427024909E+02    0.14140E-01   -0.22417E-02  2584   0.116E+00    0.624E-02
RMM:   2    -0.327437316222E+02   -0.10291E-02   -0.33523E-03  1559   0.254E-01
    512 T=   918. E= -.30779027E+02 F= -.32743732E+02 E0= -.32704353E+02  EK= 0.30855E+01 SP= -.12E+01 SK= 0.43E-01 mag=      0.096
       N       E                     dE             d eps       ncg     rms          rms(c)
DAV:   1    -0.327266266400E+02    0.16076E-01   -0.32568E-02  3104   0.122E+00    0.743E-02
RMM:   2    -0.327284639957E+02   -0.18374E-02   -0.50320E-03  1568   0.256E-01    0.562E-02
RMM:   3    -0.327293909659E+02   -0.92697E-03   -0.18125E-03  1413   0.108E-01
    513 T=   940. E= -.30774074E+02 F= -.32729391E+02 E0= -.32690148E+02  EK= 0.31584E+01 SP= -.12E+01 SK= 0.32E-01 mag=      0.084
       N       E                     dE             d eps       ncg     rms          rms(c)
DAV:   1    -0.327141245741E+02    0.14339E-01   -0.16421E-02  2576   0.110E+00    0.721E-02
RMM:   2    -0.327153696033E+02   -0.12450E-02   -0.36448E-03  1517   0.271E-01
    514 T=   958. E= -.30769875E+02 F= -.32715370E+02 E0= -.32675886E+02  EK= 0.32189E+01 SP= -.13E+01 SK= 0.21E-01 mag=     -0.075
       N       E                     dE             d eps       ncg     rms          rms(c)
DAV:   1    -0.326975380727E+02    0.16587E-01   -0.41485E-02  3104   0.127E+00    0.754E-02
RMM:   2    -0.326993311229E+02   -0.17931E-02   -0.52103E-03  1587   0.270E-01    0.539E-02
RMM:   3    -0.327001336183E+02   -0.80250E-03   -0.15959E-03  1467   0.110E-01
    515 T=   971. E= -.30765164E+02 F= -.32700134E+02 E0= -.32660685E+02  EK= 0.32641E+01 SP= -.13E+01 SK= 0.12E-01 mag=     -0.089
       N       E                     dE             d eps       ncg     rms          rms(c)
DAV:   1    -0.326837590220E+02    0.15572E-01   -0.17079E-02  2480   0.114E+00    0.826E-02
RMM:   2    -0.326850783626E+02   -0.13193E-02   -0.39596E-03  1558   0.282E-01
    516 T=   980. E= -.30761047E+02 F= -.32685078E+02 E0= -.32645373E+02  EK= 0.32923E+01 SP= -.14E+01 SK= 0.46E-02 mag=      0.024
       N       E                     dE             d eps       ncg     rms          rms(c)
DAV:   1    -0.326671068803E+02    0.16652E-01   -0.38730E-02  3112   0.131E+00    0.695E-02
RMM:   2    -0.326686874824E+02   -0.15806E-02   -0.48977E-03  1588   0.267E-01    0.460E-02
RMM:   3    -0.326691939008E+02   -0.50642E-03   -0.13749E-03  1452   0.108E-01
    517 T=   983. E= -.30756146E+02 F= -.32669194E+02 E0= -.32629347E+02  EK= 0.33024E+01 SP= -.14E+01 SK= 0.70E-03 mag=      0.073
       N       E                     dE             d eps       ncg     rms          rms(c)
DAV:   1    -0.326517598062E+02    0.16928E-01   -0.19040E-02  2032   0.113E+00    0.862E-02
RMM:   2    -0.326531362645E+02   -0.13765E-02   -0.42107E-03  1555   0.299E-01    0.527E-02
RMM:   3    -0.326534036287E+02   -0.26736E-03   -0.11071E-03  1296   0.116E-01
    518 T=   979. E= -.30753684E+02 F= -.32653404E+02 E0= -.32613286E+02  EK= 0.32916E+01 SP= -.14E+01 SK= 0.22E-03 mag=      0.029
       N       E                     dE             d eps       ncg     rms          rms(c)
DAV:   1    -0.326359154706E+02    0.17221E-01   -0.29358E-02  2944   0.120E+00    0.501E-02
RMM:   2    -0.326370478778E+02   -0.11324E-02   -0.39042E-03  1586   0.266E-01
    519 T=   971. E= -.30749014E+02 F= -.32637048E+02 E0= -.32596699E+02  EK= 0.32644E+01 SP= -.14E+01 SK= 0.30E-02 mag=     -0.066
       N       E                     dE             d eps       ncg     rms          rms(c)
DAV:   1    -0.326192796300E+02    0.16636E-01   -0.23697E-02  2984   0.120E+00    0.528E-02
RMM:   2    -0.326205393228E+02   -0.12597E-02   -0.43539E-03  1573   0.267E-01
    520 T=   957. E= -.30746873E+02 F= -.32620539E+02 E0= -.32579988E+02  EK= 0.32175E+01 SP= -.14E+01 SK= 0.85E-02 mag=     -0.122
       N       E                     dE             d eps       ncg     rms          rms(c)
DAV:   1    -0.326029235266E+02    0.16356E-01   -0.17114E-02  2088   0.114E+00    0.408E-02
RMM:   2    -0.326041755666E+02   -0.12520E-02   -0.46368E-03  1572   0.307E-01
    521 T=   939. E= -.30743234E+02 F= -.32604176E+02 E0= -.32563319E+02  EK= 0.31574E+01 SP= -.13E+01 SK= 0.16E-01 mag=     -0.089
       N       E                     dE             d eps       ncg     rms          rms(c)
DAV:   1    -0.325870530947E+02    0.15870E-01   -0.25971E-02  3000   0.122E+00    0.424E-02
RMM:   2    -0.325883039281E+02   -0.12508E-02   -0.46661E-03  1568   0.289E-01
    522 T=   919. E= -.30737808E+02 F= -.32588304E+02 E0= -.32547092E+02  EK= 0.30871E+01 SP= -.13E+01 SK= 0.24E-01 mag=      0.010
       N       E                     dE             d eps       ncg     rms          rms(c)
DAV:   1    -0.325718600335E+02    0.15193E-01   -0.15823E-02  2480   0.112E+00    0.444E-02
RMM:   2    -0.325730816521E+02   -0.12216E-02   -0.45194E-03  1569   0.302E-01
    523 T=   895. E= -.30733335E+02 F= -.32573082E+02 E0= -.32531548E+02  EK= 0.30068E+01 SP= -.12E+01 SK= 0.32E-01 mag=      0.108
       N       E                     dE             d eps       ncg     rms          rms(c)
DAV:   1    -0.325573627090E+02    0.14497E-01   -0.21475E-02  2616   0.116E+00    0.458E-02
RMM:   2    -0.325586007709E+02   -0.12381E-02   -0.45923E-03  1575   0.285E-01
    524 T=   869. E= -.30728051E+02 F= -.32558601E+02 E0= -.32516801E+02  EK= 0.29213E+01 SP= -.11E+01 SK= 0.39E-01 mag=      0.119
       N       E                     dE             d eps       ncg     rms          rms(c)
DAV:   1    -0.325443525775E+02    0.13010E-01   -0.18268E-02  2592   0.114E+00    0.484E-02
RMM:   2    -0.325456272681E+02   -0.12747E-02   -0.54869E-03  1610   0.328E-01
    525 T=   843. E= -.30722308E+02 F= -.32545627E+02 E0= -.32503411E+02  EK= 0.28338E+01 SP= -.11E+01 SK= 0.44E-01 mag=      0.039
       N       E                     dE             d eps       ncg     rms          rms(c)
DAV:   1    -0.325324502716E+02    0.11902E-01   -0.19908E-02  2584   0.112E+00    0.533E-02
RMM:   2    -0.325338398430E+02   -0.13896E-02   -0.58679E-03  1643   0.302E-01    0.371E-02
RMM:   3    -0.325342077979E+02   -0.36795E-03   -0.13110E-03  1478   0.117E-01
    526 T=   817. E= -.30717709E+02 F= -.32534208E+02 E0= -.32491567E+02  EK= 0.27455E+01 SP= -.98E+00 SK= 0.47E-01 mag=     -0.025
       N       E                     dE             d eps       ncg     rms          rms(c)
DAV:   1    -0.325229320840E+02    0.10908E-01   -0.20506E-02  2456   0.107E+00    0.557E-02
RMM:   2    -0.325240191965E+02   -0.10871E-02   -0.32784E-03  1468   0.260E-01
    527 T=   792. E= -.30711660E+02 F= -.32524019E+02 E0= -.32481048E+02  EK= 0.26609E+01 SP= -.90E+00 SK= 0.48E-01 mag=     -0.052
       N       E                     dE             d eps       ncg     rms          rms(c)
DAV:   1    -0.325143662689E+02    0.85658E-02   -0.27817E-02  3104   0.118E+00    0.550E-02
RMM:   2    -0.325156388173E+02   -0.12725E-02   -0.41068E-03  1546   0.259E-01
    528 T=   768. E= -.30706351E+02 F= -.32515639E+02 E0= -.32472340E+02  EK= 0.25806E+01 SP= -.82E+00 SK= 0.46E-01 mag=     -0.040
       N       E                     dE             d eps       ncg     rms          rms(c)
DAV:   1    -0.325093584622E+02    0.50078E-02   -0.10336E-02  2200   0.998E-01    0.420E-02
RMM:   2    -0.325103317839E+02   -0.97332E-03   -0.41413E-03  1551   0.290E-01
    529 T=   745. E= -.30704175E+02 F= -.32510332E+02 E0= -.32466504E+02  EK= 0.25049E+01 SP= -.74E+00 SK= 0.42E-01 mag=     -0.000
       N       E                     dE             d eps       ncg     rms          rms(c)
DAV:   1    -0.325058429043E+02    0.35156E-02   -0.21287E-02  2832   0.113E+00    0.345E-02
RMM:   2    -0.325067869406E+02   -0.94404E-03   -0.45447E-03  1568   0.275E-01
    530 T=   726. E= -.30700726E+02 F= -.32506787E+02 E0= -.32462542E+02  EK= 0.24385E+01 SP= -.67E+00 SK= 0.36E-01 mag=      0.049
       N       E                     dE             d eps       ncg     rms          rms(c)
DAV:   1    -0.325034184583E+02    0.24244E-02   -0.18033E-02  2752   0.102E+00    0.581E-02
RMM:   2    -0.325048680372E+02   -0.14496E-02   -0.52473E-03  1557   0.305E-01    0.462E-02
RMM:   3    -0.325055097316E+02   -0.64169E-03   -0.17284E-03  1459   0.114E-01
    531 T=   709. E= -.30697584E+02 F= -.32505510E+02 E0= -.32460926E+02  EK= 0.23812E+01 SP= -.60E+00 SK= 0.29E-01 mag=      0.040
       N       E                     dE             d eps       ncg     rms          rms(c)
DAV:   1    -0.325059468865E+02   -0.10788E-02   -0.23677E-02  2600   0.102E+00    0.553E-02
RMM:   2    -0.325072781729E+02   -0.13313E-02   -0.38969E-03  1486   0.270E-01
    532 T=   695. E= -.30692282E+02 F= -.32507278E+02 E0= -.32462190E+02  EK= 0.23371E+01 SP= -.54E+00 SK= 0.22E-01 mag=     -0.028
       N       E                     dE             d eps       ncg     rms          rms(c)
DAV:   1    -0.325088471189E+02   -0.29002E-02   -0.36194E-02  2840   0.107E+00    0.773E-02
RMM:   2    -0.325105073282E+02   -0.16602E-02   -0.47431E-03  1547   0.271E-01    0.567E-02
RMM:   3    -0.325116119967E+02   -0.11047E-02   -0.19027E-03  1459   0.110E-01
    533 T=   685. E= -.30687825E+02 F= -.32511612E+02 E0= -.32466147E+02  EK= 0.23030E+01 SP= -.49E+00 SK= 0.15E-01 mag=     -0.061
       N       E                     dE             d eps       ncg     rms          rms(c)
DAV:   1    -0.325173267735E+02   -0.68194E-02   -0.16165E-02  2472   0.967E-01    0.661E-02
RMM:   2    -0.325186066453E+02   -0.12799E-02   -0.43593E-03  1495   0.254E-01
    534 T=   678. E= -.30685065E+02 F= -.32518607E+02 E0= -.32472603E+02  EK= 0.22785E+01 SP= -.45E+00 SK= 0.93E-02 mag=     -0.022
       N       E                     dE             d eps       ncg     rms          rms(c)
DAV:   1    -0.325255957322E+02   -0.82690E-02   -0.33674E-02  2832   0.105E+00    0.820E-02
RMM:   2    -0.325274045972E+02   -0.18089E-02   -0.47064E-03  1540   0.258E-01    0.619E-02
RMM:   3    -0.325282794652E+02   -0.87487E-03   -0.16208E-03  1440   0.106E-01
    535 T=   674. E= -.30682508E+02 F= -.32528279E+02 E0= -.32481939E+02  EK= 0.22653E+01 SP= -.42E+00 SK= 0.46E-02 mag=      0.046
       N       E                     dE             d eps       ncg     rms          rms(c)
DAV:   1    -0.325387159617E+02   -0.11311E-01   -0.21509E-02  2600   0.100E+00    0.923E-02
RMM:   2    -0.325405138645E+02   -0.17979E-02   -0.52738E-03  1562   0.305E-01    0.637E-02
RMM:   3    -0.325410984346E+02   -0.58457E-03   -0.15620E-03  1395   0.116E-01
    536 T=   674. E= -.30680486E+02 F= -.32541098E+02 E0= -.32494168E+02  EK= 0.22636E+01 SP= -.40E+00 SK= 0.15E-02 mag=      0.026
       N       E                     dE             d eps       ncg     rms          rms(c)
DAV:   1    -0.325551556894E+02   -0.14642E-01   -0.49906E-02  2528   0.104E+00    0.556E-02
RMM:   2    -0.325561384779E+02   -0.98279E-03   -0.45550E-03  1533   0.291E-01
    537 T=   677. E= -.30675840E+02 F= -.32556138E+02 E0= -.32508794E+02  EK= 0.22757E+01 SP= -.40E+00 SK= 0.12E-03 mag=     -0.056
       N       E                     dE             d eps       ncg     rms          rms(c)
DAV:   1    -0.325721588914E+02   -0.17003E-01   -0.31279E-02  2648   0.984E-01    0.604E-02
RMM:   2    -0.325733189730E+02   -0.11601E-02   -0.45782E-03  1534   0.276E-01
    538 T=   684. E= -.30672458E+02 F= -.32573319E+02 E0= -.32525618E+02  EK= 0.22972E+01 SP= -.40E+00 SK= 0.27E-03 mag=     -0.110
       N       E                     dE             d eps       ncg     rms          rms(c)
DAV:   1    -0.325927179566E+02   -0.20559E-01   -0.12719E-02  2544   0.961E-01    0.436E-02
RMM:   2    -0.325935386868E+02   -0.82073E-03   -0.41320E-03  1530   0.288E-01
    539 T=   693. E= -.30670638E+02 F= -.32593539E+02 E0= -.32545245E+02  EK= 0.23285E+01 SP= -.41E+00 SK= 0.17E-02 mag=     -0.092
       N       E                     dE             d eps       ncg     rms          rms(c)
DAV:   1    -0.326138166942E+02   -0.21099E-01   -0.17499E-02  2608   0.109E+00    0.508E-02
RMM:   2    -0.326148185232E+02   -0.10018E-02   -0.44435E-03  1533   0.272E-01
    540 T=   706. E= -.30666205E+02 F= -.32614819E+02 E0= -.32566120E+02  EK= 0.23715E+01 SP= -.43E+00 SK= 0.42E-02 mag=     -0.004
       N       E                     dE             d eps       ncg     rms          rms(c)
DAV:   1    -0.326363713643E+02   -0.22555E-01   -0.13130E-02  2448   0.980E-01    0.621E-02
RMM:   2    -0.326376402072E+02   -0.12688E-02   -0.45530E-03  1547   0.299E-01
    541 T=   721. E= -.30660822E+02 F= -.32637640E+02 E0= -.32588652E+02  EK= 0.24242E+01 SP= -.45E+00 SK= 0.71E-02 mag=      0.105
       N       E                     dE             d eps       ncg     rms          rms(c)
DAV:   1    -0.326614865063E+02   -0.25115E-01   -0.13153E-02  2416   0.105E+00    0.555E-02
RMM:   2    -0.326626360685E+02   -0.11496E-02   -0.44298E-03  1525   0.290E-01
    542 T=   739. E= -.30656573E+02 F= -.32662636E+02 E0= -.32613234E+02  EK= 0.24845E+01 SP= -.49E+00 SK= 0.10E-01 mag=      0.140
       N       E                     dE             d eps       ncg     rms          rms(c)
DAV:   1    -0.326875621519E+02   -0.26076E-01   -0.16003E-02  2392   0.102E+00    0.512E-02
RMM:   2    -0.326886124389E+02   -0.10503E-02   -0.52652E-03  1579   0.315E-01
    543 T=   759. E= -.30652623E+02 F= -.32688612E+02 E0= -.32638687E+02  EK= 0.25511E+01 SP= -.53E+00 SK= 0.13E-01 mag=      0.077
       N       E                     dE             d eps       ncg     rms          rms(c)
DAV:   1    -0.327115159813E+02   -0.23954E-01   -0.23849E-02  2784   0.110E+00    0.795E-02
RMM:   2    -0.327133903837E+02   -0.18744E-02   -0.60187E-03  1554   0.303E-01    0.596E-02
RMM:   3    -0.327144917865E+02   -0.11014E-02   -0.25830E-03  1407   0.125E-01
    544 T=   780. E= -.30649000E+02 F= -.32714492E+02 E0= -.32664295E+02  EK= 0.26214E+01 SP= -.57E+00 SK= 0.14E-01 mag=     -0.023
       N       E                     dE             d eps       ncg     rms          rms(c)
DAV:   1    -0.327400269849E+02   -0.26637E-01   -0.22116E-02  2600   0.107E+00    0.729E-02
RMM:   2    -0.327409895664E+02   -0.96258E-03   -0.35736E-03  1416   0.274E-01
    545 T=   802. E= -.30644890E+02 F= -.32740990E+02 E0= -.32690412E+02  EK= 0.26956E+01 SP= -.61E+00 SK= 0.15E-01 mag=     -0.107
       N       E                     dE             d eps       ncg     rms          rms(c)
DAV:   1    -0.327638010994E+02   -0.23774E-01   -0.34976E-02  2912   0.122E+00    0.672E-02
RMM:   2    -0.327654983075E+02   -0.16972E-02   -0.53920E-03  1551   0.289E-01    0.529E-02
RMM:   3    -0.327661624944E+02   -0.66419E-03   -0.16218E-03  1455   0.111E-01
    546 T=   824. E= -.30640205E+02 F= -.32766162E+02 E0= -.32715494E+02  EK= 0.27701E+01 SP= -.66E+00 SK= 0.14E-01 mag=     -0.067
       N       E                     dE             d eps       ncg     rms          rms(c)
DAV:   1    -0.327903665674E+02   -0.24868E-01   -0.19012E-02  2632   0.108E+00    0.663E-02
RMM:   2    -0.327913637563E+02   -0.99719E-03   -0.41397E-03  1501   0.269E-01
    547 T=   846. E= -.30637116E+02 F= -.32791364E+02 E0= -.32740230E+02  EK= 0.28421E+01 SP= -.70E+00 SK= 0.12E-01 mag=      0.073
       N       E                     dE             d eps       ncg     rms          rms(c)
DAV:   1    -0.328123200110E+02   -0.21953E-01   -0.32810E-02  2944   0.120E+00    0.594E-02
RMM:   2    -0.328137532422E+02   -0.14332E-02   -0.52495E-03  1543   0.288E-01    0.436E-02
RMM:   3    -0.328143113628E+02   -0.55812E-03   -0.15589E-03  1516   0.118E-01
    548 T=   866. E= -.30633438E+02 F= -.32814311E+02 E0= -.32763231E+02  EK= 0.29095E+01 SP= -.74E+00 SK= 0.95E-02 mag=      0.124
       N       E                     dE             d eps       ncg     rms          rms(c)
DAV:   1    -0.328345379734E+02   -0.20785E-01   -0.12986E-02  2240   0.113E+00    0.782E-02
RMM:   2    -0.328356899107E+02   -0.11519E-02   -0.44484E-03  1541   0.319E-01
    549 T=   884. E= -.30628951E+02 F= -.32835690E+02 E0= -.32784382E+02  EK= 0.29711E+01 SP= -.77E+00 SK= 0.64E-02 mag=      0.055
       N       E                     dE             d eps       ncg     rms          rms(c)
DAV:   1    -0.328531702735E+02   -0.18632E-01   -0.26765E-02  3016   0.125E+00    0.545E-02
RMM:   2    -0.328543783434E+02   -0.12081E-02   -0.47578E-03  1597   0.272E-01
    550 T=   900. E= -.30623748E+02 F= -.32854378E+02 E0= -.32803086E+02  EK= 0.30236E+01 SP= -.80E+00 SK= 0.35E-02 mag=     -0.096
       N       E                     dE             d eps       ncg     rms          rms(c)
DAV:   1    -0.328685104487E+02   -0.15340E-01   -0.13636E-02  2192   0.107E+00    0.540E-02
RMM:   2    -0.328698659794E+02   -0.13555E-02   -0.52959E-03  1559   0.320E-01    0.383E-02
RMM:   3    -0.328702673227E+02   -0.40134E-03   -0.16166E-03  1466   0.131E-01
    551 T=   911. E= -.30621690E+02 F= -.32870267E+02 E0= -.32819143E+02  EK= 0.30613E+01 SP= -.81E+00 SK= 0.12E-02 mag=     -0.148
       N       E                     dE             d eps       ncg     rms          rms(c)
DAV:   1    -0.328815519070E+02   -0.11686E-01   -0.18764E-02  2368   0.118E+00    0.518E-02
RMM:   2    -0.328827082079E+02   -0.11563E-02   -0.38439E-03  1491   0.290E-01
    552 T=   919. E= -.30615985E+02 F= -.32882708E+02 E0= -.32831653E+02  EK= 0.30889E+01 SP= -.82E+00 SK= 0.84E-04 mag=     -0.069
       N       E                     dE             d eps       ncg     rms          rms(c)
DAV:   1    -0.328899774209E+02   -0.84255E-02   -0.19063E-02  2944   0.124E+00    0.507E-02
RMM:   2    -0.328912731335E+02   -0.12957E-02   -0.44360E-03  1527   0.250E-01
    553 T=   922. E= -.30611238E+02 F= -.32891273E+02 E0= -.32840498E+02  EK= 0.31003E+01 SP= -.82E+00 SK= 0.34E-03 mag=      0.090
       N       E                     dE             d eps       ncg     rms          rms(c)
DAV:   1    -0.328948867564E+02   -0.49093E-02   -0.11362E-02  2248   0.109E+00    0.478E-02
RMM:   2    -0.328961697351E+02   -0.12830E-02   -0.43097E-03  1568   0.309E-01
    554 T=   921. E= -.30607829E+02 F= -.32896170E+02 E0= -.32845875E+02  EK= 0.30951E+01 SP= -.81E+00 SK= 0.21E-02 mag=      0.219
       N       E                     dE             d eps       ncg     rms          rms(c)
DAV:   1    -0.328952579367E+02   -0.37118E-03   -0.23015E-02  3032   0.128E+00    0.606E-02
RMM:   2    -0.328967389202E+02   -0.14810E-02   -0.48519E-03  1572   0.292E-01    0.439E-02
RMM:   3    -0.328972033956E+02   -0.46448E-03   -0.14522E-03  1459   0.114E-01
    555 T=   915. E= -.30603568E+02 F= -.32897203E+02 E0= -.32847242E+02  EK= 0.30754E+01 SP= -.79E+00 SK= 0.53E-02 mag=      0.124
       N       E                     dE             d eps       ncg     rms          rms(c)
DAV:   1    -0.328926816903E+02    0.40572E-02   -0.15286E-02  2568   0.109E+00    0.524E-02
RMM:   2    -0.328938408901E+02   -0.11592E-02   -0.34528E-03  1518   0.267E-01
    556 T=   905. E= -.30597251E+02 F= -.32893841E+02 E0= -.32844192E+02  EK= 0.30427E+01 SP= -.76E+00 SK= 0.96E-02 mag=     -0.110
       N       E                     dE             d eps       ncg     rms          rms(c)
DAV:   1    -0.328840472153E+02    0.86345E-02   -0.24968E-02  3096   0.125E+00    0.699E-02
RMM:   2    -0.328855543201E+02   -0.15071E-02   -0.44699E-03  1551   0.260E-01    0.520E-02
RMM:   3    -0.328860925053E+02   -0.53819E-03   -0.12215E-03  1386   0.104E-01
    557 T=   892. E= -.30591106E+02 F= -.32886093E+02 E0= -.32837256E+02  EK= 0.29962E+01 SP= -.72E+00 SK= 0.15E-01 mag=     -0.162
       N       E                     dE             d eps       ncg     rms          rms(c)
DAV:   1    -0.328737331062E+02    0.11821E-01   -0.15499E-02  2440   0.108E+00    0.592E-02
RMM:   2    -0.328748259716E+02   -0.10929E-02   -0.34110E-03  1507   0.272E-01
    558 T=   874. E= -.30586427E+02 F= -.32874826E+02 E0= -.32826257E+02  EK= 0.29370E+01 SP= -.67E+00 SK= 0.19E-01 mag=     -0.034
       N       E                     dE             d eps       ncg     rms          rms(c)
DAV:   1    -0.328571881118E+02    0.16545E-01   -0.25315E-02  3112   0.120E+00    0.681E-02
RMM:   2    -0.328587650452E+02   -0.15769E-02   -0.53239E-03  1594   0.266E-01    0.482E-02
RMM:   3    -0.328593824421E+02   -0.61740E-03   -0.14744E-03  1475   0.113E-01
    559 T=   854. E= -.30581524E+02 F= -.32859382E+02 E0= -.32811436E+02  EK= 0.28685E+01 SP= -.61E+00 SK= 0.24E-01 mag=      0.074
       N       E                     dE             d eps       ncg     rms          rms(c)
DAV:   1    -0.328392289256E+02    0.19536E-01   -0.14437E-02  2224   0.103E+00    0.674E-02
RMM:   2    -0.328403454797E+02   -0.11166E-02   -0.35677E-03  1526   0.274E-01
    560 T=   831. E= -.30576141E+02 F= -.32840345E+02 E0= -.32793081E+02  EK= 0.27936E+01 SP= -.56E+00 SK= 0.27E-01 mag=      0.124
       N       E                     dE             d eps       ncg     rms          rms(c)
DAV:   1    -0.328153012367E+02    0.23928E-01   -0.25115E-02  3048   0.116E+00    0.735E-02
RMM:   2    -0.328168277515E+02   -0.15265E-02   -0.44983E-03  1547   0.245E-01    0.524E-02
RMM:   3    -0.328175678656E+02   -0.74011E-03   -0.16299E-03  1404   0.104E-01
    561 T=   808. E= -.30570466E+02 F= -.32817568E+02 E0= -.32770970E+02  EK= 0.27142E+01 SP= -.50E+00 SK= 0.28E-01 mag=      0.077
       N       E                     dE             d eps       ncg     rms          rms(c)
DAV:   1    -0.327913597278E+02    0.25468E-01   -0.12101E-02  2376   0.101E+00    0.786E-02
RMM:   2    -0.327923335653E+02   -0.97384E-03   -0.34563E-03  1487   0.267E-01
    562 T=   783. E= -.30566228E+02 F= -.32792334E+02 E0= -.32746299E+02  EK= 0.26322E+01 SP= -.43E+00 SK= 0.28E-01 mag=     -0.061
       N       E                     dE             d eps       ncg     rms          rms(c)
DAV:   1    -0.327612150689E+02    0.30145E-01   -0.25354E-02  3040   0.112E+00    0.794E-02
RMM:   2    -0.327627122263E+02   -0.14972E-02   -0.46592E-03  1548   0.244E-01    0.565E-02
RMM:   3    -0.327634761386E+02   -0.76391E-03   -0.16250E-03  1426   0.105E-01
    563 T=   759. E= -.30561491E+02 F= -.32763476E+02 E0= -.32718327E+02  EK= 0.25502E+01 SP= -.37E+00 SK= 0.26E-01 mag=     -0.126
       N       E                     dE             d eps       ncg     rms          rms(c)
DAV:   1    -0.327322350541E+02    0.30477E-01   -0.11949E-02  2480   0.995E-01    0.922E-02
RMM:   2    -0.327331368297E+02   -0.90178E-03   -0.35173E-03  1449   0.269E-01
    564 T=   735. E= -.30557629E+02 F= -.32733137E+02 E0= -.32688415E+02  EK= 0.24708E+01 SP= -.32E+00 SK= 0.22E-01 mag=     -0.067
       N       E                     dE             d eps       ncg     rms          rms(c)
DAV:   1    -0.326990788709E+02    0.33156E-01   -0.22306E-02  3016   0.107E+00    0.694E-02
RMM:   2    -0.327000586517E+02   -0.97978E-03   -0.41063E-03  1550   0.240E-01
    565 T=   713. E= -.30552919E+02 F= -.32700059E+02 E0= -.32656042E+02  EK= 0.23960E+01 SP= -.27E+00 SK= 0.17E-01 mag=      0.089
       N       E                     dE             d eps       ncg     rms          rms(c)
DAV:   1    -0.326635122457E+02    0.35567E-01   -0.99034E-03  2064   0.926E-01    0.722E-02
RMM:   2    -0.326647900487E+02   -0.12778E-02   -0.47234E-03  1538   0.295E-01
    566 T=   692. E= -.30549521E+02 F= -.32664790E+02 E0= -.32621722E+02  EK= 0.23254E+01 SP= -.22E+00 SK= 0.12E-01 mag=      0.177
       N       E                     dE             d eps       ncg     rms          rms(c)
DAV:   1    -0.326286741049E+02    0.34838E-01   -0.19695E-02  2896   0.117E+00    0.701E-02
RMM:   2    -0.326296592089E+02   -0.98510E-03   -0.49766E-03  1536   0.298E-01
    567 T=   673. E= -.30546673E+02 F= -.32629659E+02 E0= -.32587001E+02  EK= 0.22632E+01 SP= -.19E+00 SK= 0.67E-02 mag=      0.131
       N       E                     dE             d eps       ncg     rms          rms(c)
DAV:   1    -0.325920297922E+02    0.36644E-01   -0.14832E-02  2576   0.907E-01    0.528E-02
RMM:   2    -0.325930532227E+02   -0.10234E-02   -0.55341E-03  1566   0.303E-01
    568 T=   658. E= -.30542648E+02 F= -.32593053E+02 E0= -.32550940E+02  EK= 0.22101E+01 SP= -.16E+00 SK= 0.26E-02 mag=     -0.037
       N       E                     dE             d eps       ncg     rms          rms(c)
DAV:   1    -0.325537428787E+02    0.38287E-01   -0.14688E-02  2472   0.101E+00    0.781E-02
RMM:   2    -0.325549189522E+02   -0.11761E-02   -0.46224E-03  1536   0.295E-01
    569 T=   645. E= -.30537759E+02 F= -.32554919E+02 E0= -.32513596E+02  EK= 0.21664E+01 SP= -.15E+00 SK= 0.30E-03 mag=     -0.220
       N       E                     dE             d eps       ncg     rms          rms(c)
DAV:   1    -0.325149330560E+02    0.38810E-01   -0.12787E-02  2552   0.935E-01    0.836E-02
RMM:   2    -0.325164488175E+02   -0.15158E-02   -0.47135E-03  1526   0.288E-01    0.624E-02
RMM:   3    -0.325173330867E+02   -0.88427E-03   -0.19598E-03  1428   0.114E-01
    570 T=   634. E= -.30534998E+02 F= -.32517333E+02 E0= -.32476527E+02  EK= 0.21317E+01 SP= -.15E+00 SK= 0.37E-03 mag=     -0.108
       N       E                     dE             d eps       ncg     rms          rms(c)
DAV:   1    -0.324777322041E+02    0.38717E-01   -0.13565E-02  2640   0.102E+00    0.880E-02
RMM:   2    -0.324789679226E+02   -0.12357E-02   -0.41483E-03  1520   0.254E-01
    571 T=   628. E= -.30530075E+02 F= -.32478968E+02 E0= -.32438696E+02  EK= 0.21092E+01 SP= -.16E+00 SK= 0.33E-02 mag=      0.135
       N       E                     dE             d eps       ncg     rms          rms(c)
DAV:   1    -0.324370767675E+02    0.40655E-01   -0.30807E-02  2760   0.988E-01    0.101E-01
RMM:   2    -0.324390391418E+02   -0.19624E-02   -0.49022E-03  1545   0.252E-01    0.787E-02
RMM:   3    -0.324397740373E+02   -0.73490E-03   -0.13408E-03  1446   0.988E-02
    572 T=   624. E= -.30525568E+02 F= -.32439774E+02 E0= -.32400322E+02  EK= 0.20966E+01 SP= -.19E+00 SK= 0.95E-02 mag=      0.104
       N       E                     dE             d eps       ncg     rms          rms(c)
DAV:   1    -0.324011658867E+02    0.37873E-01   -0.21066E-02  2424   0.995E-01    0.833E-02
RMM:   2    -0.324024616499E+02   -0.12958E-02   -0.50241E-03  1480   0.303E-01
    573 T=   623. E= -.30524208E+02 F= -.32402462E+02 E0= -.32363068E+02  EK= 0.20940E+01 SP= -.23E+00 SK= 0.19E-01 mag=     -0.136
       N       E                     dE             d eps       ncg     rms          rms(c)
DAV:   1    -0.323593130448E+02    0.41853E-01   -0.44001E-02  2784   0.989E-01    0.122E-01
RMM:   2    -0.323619604497E+02   -0.26474E-02   -0.63882E-03  1563   0.278E-01    0.884E-02
RMM:   3    -0.323644673495E+02   -0.25069E-02   -0.37513E-03  1427   0.128E-01    0.527E-02
RMM:   4    -0.323652211596E+02   -0.75381E-03   -0.15599E-03  1400   0.856E-02
    574 T=   626. E= -.30522605E+02 F= -.32365221E+02 E0= -.32326303E+02  EK= 0.21033E+01 SP= -.29E+00 SK= 0.32E-01 mag=     -0.055
       N       E                     dE             d eps       ncg     rms          rms(c)
DAV:   1    -0.323243018423E+02    0.40166E-01   -0.17127E-02  2456   0.981E-01    0.113E-01
RMM:   2    -0.323263026726E+02   -0.20008E-02   -0.62677E-03  1477   0.300E-01    0.780E-02
RMM:   3    -0.323276854585E+02   -0.13828E-02   -0.32492E-03  1400   0.125E-01    0.468E-02
RMM:   4    -0.323281637571E+02   -0.47830E-03   -0.11329E-03  1388   0.815E-02
    575 T=   632. E= -.30521703E+02 F= -.32328164E+02 E0= -.32289638E+02  EK= 0.21238E+01 SP= -.36E+00 SK= 0.47E-01 mag=      0.049
       N       E                     dE             d eps       ncg     rms          rms(c)
DAV:   1    -0.322902323684E+02    0.37453E-01   -0.12855E-02  2592   0.950E-01    0.635E-02
RMM:   2    -0.322911037817E+02   -0.87141E-03   -0.36381E-03  1485   0.230E-01
    576 T=   642. E= -.30518264E+02 F= -.32291104E+02 E0= -.32253074E+02  EK= 0.21586E+01 SP= -.45E+00 SK= 0.64E-01 mag=      0.116
       N       E                     dE             d eps       ncg     rms          rms(c)
DAV:   1    -0.322547084743E+02    0.35524E-01   -0.16250E-02  2680   0.968E-01    0.453E-02
RMM:   2    -0.322554559496E+02   -0.74748E-03   -0.38446E-03  1541   0.264E-01
    577 T=   656. E= -.30515901E+02 F= -.32255456E+02 E0= -.32217737E+02  EK= 0.22058E+01 SP= -.55E+00 SK= 0.83E-01 mag=      0.097
       N       E                     dE             d eps       ncg     rms          rms(c)
DAV:   1    -0.322199636087E+02    0.34745E-01   -0.12784E-02  2528   0.977E-01    0.306E-02
RMM:   2    -0.322206640790E+02   -0.70047E-03   -0.37754E-03  1521   0.257E-01
    578 T=   674. E= -.30514224E+02 F= -.32220664E+02 E0= -.32183212E+02  EK= 0.22649E+01 SP= -.66E+00 SK= 0.10E+00 mag=     -0.012
       N       E                     dE             d eps       ncg     rms          rms(c)
DAV:   1    -0.321852140452E+02    0.34750E-01   -0.12213E-02  2360   0.101E+00    0.543E-02
RMM:   2    -0.321861566587E+02   -0.94261E-03   -0.43275E-03  1543   0.281E-01
    579 T=   696. E= -.30510464E+02 F= -.32186157E+02 E0= -.32149160E+02  EK= 0.23381E+01 SP= -.78E+00 SK= 0.12E+00 mag=     -0.136
       N       E                     dE             d eps       ncg     rms          rms(c)
DAV:   1    -0.321517941088E+02    0.33420E-01   -0.11491E-02  2616   0.993E-01    0.535E-02
RMM:   2    -0.321528477607E+02   -0.10537E-02   -0.47554E-03  1555   0.291E-01
    580 T=   721. E= -.30506642E+02 F= -.32152848E+02 E0= -.32116204E+02  EK= 0.24238E+01 SP= -.91E+00 SK= 0.13E+00 mag=     -0.171
       N       E                     dE             d eps       ncg     rms          rms(c)
DAV:   1    -0.321202492285E+02    0.31545E-01   -0.11247E-02  2464   0.104E+00    0.365E-02
RMM:   2    -0.321210912465E+02   -0.84202E-03   -0.46066E-03  1559   0.299E-01
    581 T=   750. E= -.30503177E+02 F= -.32121091E+02 E0= -.32084541E+02  EK= 0.25211E+01 SP= -.10E+01 SK= 0.14E+00 mag=     -0.065
       N       E                     dE             d eps       ncg     rms          rms(c)
DAV:   1    -0.320885616791E+02    0.31688E-01   -0.13695E-02  2416   0.104E+00    0.520E-02
RMM:   2    -0.320896411350E+02   -0.10795E-02   -0.56066E-03  1575   0.301E-01
    582 T=   782. E= -.30498923E+02 F= -.32089641E+02 E0= -.32053360E+02  EK= 0.26286E+01 SP= -.12E+01 SK= 0.15E+00 mag=      0.117
       N       E                     dE             d eps       ncg     rms          rms(c)
DAV:   1    -0.320568995483E+02    0.31662E-01   -0.16014E-02  2720   0.108E+00    0.688E-02
RMM:   2    -0.320584516466E+02   -0.15521E-02   -0.57592E-03  1561   0.303E-01    0.524E-02
RMM:   3    -0.320592096716E+02   -0.75802E-03   -0.18299E-03  1461   0.119E-01
    583 T=   816. E= -.30495812E+02 F= -.32059210E+02 E0= -.32023260E+02  EK= 0.27433E+01 SP= -.13E+01 SK= 0.15E+00 mag=      0.061
       N       E                     dE             d eps       ncg     rms          rms(c)
DAV:   1    -0.320284267457E+02    0.30025E-01   -0.20257E-02  2648   0.107E+00    0.694E-02
RMM:   2    -0.320297941960E+02   -0.13675E-02   -0.41310E-03  1480   0.264E-01    0.508E-02
RMM:   3    -0.320301685753E+02   -0.37438E-03   -0.90790E-04  1278   0.955E-02
    584 T=   852. E= -.30493212E+02 F= -.32030169E+02 E0= -.31994329E+02  EK= 0.28636E+01 SP= -.15E+01 SK= 0.15E+00 mag=     -0.062
       N       E                     dE             d eps       ncg     rms          rms(c)
DAV:   1    -0.320004492335E+02    0.29345E-01   -0.37894E-02  2584   0.110E+00    0.579E-02
RMM:   2    -0.320015636027E+02   -0.11144E-02   -0.49500E-03  1562   0.291E-01
    585 T=   889. E= -.30488578E+02 F= -.32001564E+02 E0= -.31965966E+02  EK= 0.29880E+01 SP= -.16E+01 SK= 0.13E+00 mag=     -0.154
       N       E                     dE             d eps       ncg     rms          rms(c)
DAV:   1    -0.319727207819E+02    0.27728E-01   -0.25315E-02  2760   0.112E+00    0.520E-02
RMM:   2    -0.319738581227E+02   -0.11373E-02   -0.50389E-03  1553   0.289E-01
    586 T=   925. E= -.30486044E+02 F= -.31973858E+02 E0= -.31938409E+02  EK= 0.31092E+01 SP= -.17E+01 SK= 0.12E+00 mag=     -0.130
       N       E                     dE             d eps       ncg     rms          rms(c)
DAV:   1    -0.319462121819E+02    0.26509E-01   -0.16296E-02  2744   0.115E+00    0.317E-02
RMM:   2    -0.319471873160E+02   -0.97513E-03   -0.47883E-03  1550   0.311E-01
    587 T=   959. E= -.30483639E+02 F= -.31947187E+02 E0= -.31911804E+02  EK= 0.32246E+01 SP= -.19E+01 SK= 0.95E-01 mag=      0.004
       N       E                     dE             d eps       ncg     rms          rms(c)
DAV:   1    -0.319193484946E+02    0.26864E-01   -0.21755E-02  2552   0.124E+00    0.535E-02
RMM:   2    -0.319206350400E+02   -0.12865E-02   -0.51534E-03  1571   0.303E-01
    588 T=   991. E= -.30478623E+02 F= -.31920635E+02 E0= -.31885545E+02  EK= 0.33317E+01 SP= -.20E+01 SK= 0.72E-01 mag=      0.152
       N       E                     dE             d eps       ncg     rms          rms(c)
DAV:   1    -0.318933299392E+02    0.26019E-01   -0.15165E-02  2704   0.116E+00    0.613E-02
RMM:   2    -0.318949600102E+02   -0.16301E-02   -0.55365E-03  1557   0.321E-01    0.467E-02
RMM:   3    -0.318956442395E+02   -0.68423E-03   -0.18746E-03  1421   0.121E-01
    589 T=  1018. E= -.30475528E+02 F= -.31895644E+02 E0= -.31860692E+02  EK= 0.34223E+01 SP= -.21E+01 SK= 0.49E-01 mag=      0.054
       N       E                     dE             d eps       ncg     rms          rms(c)
DAV:   1    -0.318688198023E+02    0.26140E-01   -0.23759E-02  2640   0.121E+00    0.674E-02
RMM:   2    -0.318704923559E+02   -0.16726E-02   -0.46993E-03  1599   0.305E-01    0.498E-02
RMM:   3    -0.318708934531E+02   -0.40110E-03   -0.95435E-04  1250   0.108E-01
    590 T=  1040. E= -.30470823E+02 F= -.31870893E+02 E0= -.31836059E+02  EK= 0.34943E+01 SP= -.21E+01 SK= 0.29E-01 mag=     -0.057
       N       E                     dE             d eps       ncg     rms          rms(c)
DAV:   1    -0.318456840528E+02    0.24808E-01   -0.42514E-02  2752   0.124E+00    0.467E-02
RMM:   2    -0.318468623254E+02   -0.11783E-02   -0.52232E-03  1589   0.301E-01
    591 T=  1055. E= -.30464251E+02 F= -.31846862E+02 E0= -.31812129E+02  EK= 0.35445E+01 SP= -.22E+01 SK= 0.13E-01 mag=     -0.113
       N       E                     dE             d eps       ncg     rms          rms(c)
DAV:   1    -0.318224499066E+02    0.23234E-01   -0.29081E-02  2968   0.124E+00    0.346E-02
RMM:   2    -0.318236392521E+02   -0.11893E-02   -0.54010E-03  1586   0.294E-01
    592 T=  1061. E= -.30461086E+02 F= -.31823639E+02 E0= -.31788985E+02  EK= 0.35649E+01 SP= -.22E+01 SK= 0.30E-02 mag=     -0.068
       N       E                     dE             d eps       ncg     rms          rms(c)
DAV:   1    -0.317999478095E+02    0.22502E-01   -0.17240E-02  2672   0.121E+00    0.320E-02
RMM:   2    -0.318010871690E+02   -0.11394E-02   -0.51204E-03  1583   0.331E-01
    593 T=  1059. E= -.30457373E+02 F= -.31801087E+02 E0= -.31766512E+02  EK= 0.35580E+01 SP= -.22E+01 SK= 0.21E-04 mag=      0.044
       N       E                     dE             d eps       ncg     rms          rms(c)
DAV:   1    -0.317771938927E+02    0.22754E-01   -0.25341E-02  2584   0.129E+00    0.468E-02
RMM:   2    -0.317786563047E+02   -0.14624E-02   -0.55584E-03  1604   0.311E-01    0.356E-02
RMM:   3    -0.317791189205E+02   -0.46262E-03   -0.15292E-03  1486   0.119E-01
    594 T=  1049. E= -.30451805E+02 F= -.31779119E+02 E0= -.31744678E+02  EK= 0.35254E+01 SP= -.22E+01 SK= 0.39E-02 mag=      0.029
       N       E                     dE             d eps       ncg     rms          rms(c)
DAV:   1    -0.317569629296E+02    0.21693E-01   -0.18135E-02  2576   0.119E+00    0.446E-02
RMM:   2    -0.317580878007E+02   -0.11249E-02   -0.35923E-03  1550   0.277E-01
    595 T=  1032. E= -.30443878E+02 F= -.31758088E+02 E0= -.31723692E+02  EK= 0.34694E+01 SP= -.22E+01 SK= 0.14E-01 mag=     -0.055
       N       E                     dE             d eps       ncg     rms          rms(c)
DAV:   1    -0.317364846448E+02    0.20478E-01   -0.30806E-02  3080   0.130E+00    0.526E-02
RMM:   2    -0.317377419160E+02   -0.12573E-02   -0.46797E-03  1582   0.265E-01
    596 T=  1009. E= -.30435857E+02 F= -.31737742E+02 E0= -.31703469E+02  EK= 0.33905E+01 SP= -.21E+01 SK= 0.28E-01 mag=     -0.120
       N       E                     dE             d eps       ncg     rms          rms(c)
DAV:   1    -0.317178094781E+02    0.18675E-01   -0.10752E-02  1896   0.112E+00    0.415E-02
RMM:   2    -0.317191257768E+02   -0.13163E-02   -0.57530E-03  1602   0.332E-01
    597 T=   979. E= -.30431337E+02 F= -.31719126E+02 E0= -.31684902E+02  EK= 0.32901E+01 SP= -.20E+01 SK= 0.45E-01 mag=     -0.092
       N       E                     dE             d eps       ncg     rms          rms(c)
DAV:   1    -0.317009979197E+02    0.16812E-01   -0.23683E-02  3024   0.127E+00    0.326E-02
RMM:   2    -0.317020533286E+02   -0.10554E-02   -0.53093E-03  1597   0.311E-01
    598 T=   945. E= -.30426121E+02 F= -.31702053E+02 E0= -.31667796E+02  EK= 0.31768E+01 SP= -.20E+01 SK= 0.62E-01 mag=      0.012
       N       E                     dE             d eps       ncg     rms          rms(c)
DAV:   1    -0.316841878978E+02    0.16810E-01   -0.16950E-02  2712   0.111E+00    0.465E-02
RMM:   2    -0.316855942736E+02   -0.14064E-02   -0.63298E-03  1620   0.337E-01    0.346E-02
RMM:   3    -0.316861066720E+02   -0.51240E-03   -0.17868E-03  1497   0.126E-01
    599 T=   909. E= -.30421577E+02 F= -.31686107E+02 E0= -.31651889E+02  EK= 0.30538E+01 SP= -.19E+01 SK= 0.77E-01 mag=      0.027
       N       E                     dE             d eps       ncg     rms          rms(c)
DAV:   1    -0.316712130256E+02    0.14381E-01   -0.16756E-02  2488   0.113E+00    0.422E-02
RMM:   2    -0.316720570803E+02   -0.84405E-03   -0.32227E-03  1480   0.266E-01
    600 T=   872. E= -.30413596E+02 F= -.31672057E+02 E0= -.31637845E+02  EK= 0.29305E+01 SP= -.18E+01 SK= 0.89E-01 mag=     -0.013
       N       E                     dE             d eps       ncg     rms          rms(c)
DAV:   1    -0.316588980202E+02    0.12315E-01   -0.20910E-02  3032   0.117E+00    0.463E-02
RMM:   2    -0.316598061691E+02   -0.90815E-03   -0.39292E-03  1546   0.244E-01
    601 T=   835. E= -.30406877E+02 F= -.31659806E+02 E0= -.31625573E+02  EK= 0.28062E+01 SP= -.16E+01 SK= 0.96E-01 mag=     -0.055
       N       E                     dE             d eps       ncg     rms          rms(c)
DAV:   1    -0.316488373162E+02    0.10061E-01   -0.86247E-03  1976   0.105E+00    0.313E-02
RMM:   2    -0.316497717749E+02   -0.93446E-03   -0.48894E-03  1546   0.300E-01
    602 T=   799. E= -.30402754E+02 F= -.31649772E+02 E0= -.31615530E+02  EK= 0.26836E+01 SP= -.15E+01 SK= 0.98E-01 mag=     -0.060
       N       E                     dE             d eps       ncg     rms          rms(c)
DAV:   1    -0.316412836294E+02    0.75537E-02   -0.18350E-02  2840   0.117E+00    0.355E-02
RMM:   2    -0.316421627279E+02   -0.87910E-03   -0.49109E-03  1560   0.284E-01
    603 T=   765. E= -.30397907E+02 F= -.31642163E+02 E0= -.31607872E+02  EK= 0.25693E+01 SP= -.14E+01 SK= 0.96E-01 mag=     -0.026
       N       E                     dE             d eps       ncg     rms          rms(c)
DAV:   1    -0.316359726196E+02    0.53110E-02   -0.14174E-02  2472   0.984E-01    0.338E-02
RMM:   2    -0.316368739224E+02   -0.90130E-03   -0.51598E-03  1544   0.318E-01
    604 T=   734. E= -.30392542E+02 F= -.31636874E+02 E0= -.31602513E+02  EK= 0.24652E+01 SP= -.13E+01 SK= 0.89E-01 mag=      0.021
       N       E                     dE             d eps       ncg     rms          rms(c)
DAV:   1    -0.316333596601E+02    0.26130E-02   -0.13766E-02  2488   0.106E+00    0.356E-02
RMM:   2    -0.316342278495E+02   -0.86819E-03   -0.45284E-03  1534   0.279E-01
    605 T=   706. E= -.30386468E+02 F= -.31634228E+02 E0= -.31599832E+02  EK= 0.23735E+01 SP= -.12E+01 SK= 0.78E-01 mag=      0.044
       N       E                     dE             d eps       ncg     rms          rms(c)
DAV:   1    -0.316335394538E+02   -0.17979E-03   -0.90003E-03  2480   0.993E-01    0.339E-02
RMM:   2    -0.316343174744E+02   -0.77802E-03   -0.48651E-03  1585   0.288E-01
    606 T=   683. E= -.30380507E+02 F= -.31634317E+02 E0= -.31599838E+02  EK= 0.22945E+01 SP= -.11E+01 SK= 0.65E-01 mag=      0.033
       N       E                     dE             d eps       ncg     rms          rms(c)
DAV:   1    -0.316358324896E+02   -0.22930E-02   -0.13348E-02  2488   0.102E+00    0.318E-02
RMM:   2    -0.316366099074E+02   -0.77742E-03   -0.45352E-03  1543   0.282E-01
    607 T=   663. E= -.30374543E+02 F= -.31636610E+02 E0= -.31602032E+02  EK= 0.22284E+01 SP= -.10E+01 SK= 0.51E-01 mag=      0.002
       N       E                     dE             d eps       ncg     rms          rms(c)
DAV:   1    -0.316409972712E+02   -0.51648E-02   -0.99948E-03  2304   0.972E-01    0.372E-02
RMM:   2    -0.316417340411E+02   -0.73677E-03   -0.42065E-03  1544   0.279E-01
    608 T=   647. E= -.30369124E+02 F= -.31641734E+02 E0= -.31607044E+02  EK= 0.21759E+01 SP= -.94E+00 SK= 0.37E-01 mag=     -0.031
       N       E                     dE             d eps       ncg     rms          rms(c)
DAV:   1    -0.316488131448E+02   -0.78159E-02   -0.11928E-02  2608   0.999E-01    0.373E-02
RMM:   2    -0.316496291378E+02   -0.81599E-03   -0.44179E-03  1551   0.278E-01
    609 T=   636. E= -.30363496E+02 F= -.31649629E+02 E0= -.31614831E+02  EK= 0.21379E+01 SP= -.88E+00 SK= 0.25E-01 mag=     -0.039
       N       E                     dE             d eps       ncg     rms          rms(c)
DAV:   1    -0.316596472283E+02   -0.10834E-01   -0.97755E-03  2336   0.955E-01    0.333E-02
RMM:   2    -0.316602724218E+02   -0.62519E-03   -0.39373E-03  1527   0.276E-01
    610 T=   629. E= -.30358482E+02 F= -.31660272E+02 E0= -.31625329E+02  EK= 0.21135E+01 SP= -.83E+00 SK= 0.14E-01 mag=     -0.020
       N       E                     dE             d eps       ncg     rms          rms(c)
DAV:   1    -0.316719799133E+02   -0.12333E-01   -0.10858E-02  2512   0.973E-01    0.440E-02
RMM:   2    -0.316728769349E+02   -0.89702E-03   -0.46829E-03  1559   0.272E-01
    611 T=   626. E= -.30352986E+02 F= -.31672877E+02 E0= -.31637823E+02  EK= 0.21030E+01 SP= -.79E+00 SK= 0.64E-02 mag=      0.013
       N       E                     dE             d eps       ncg     rms          rms(c)
DAV:   1    -0.316874625791E+02   -0.15483E-01   -0.98566E-03  2384   0.951E-01    0.424E-02
RMM:   2    -0.316882705571E+02   -0.80798E-03   -0.40977E-03  1525   0.276E-01
    612 T=   627. E= -.30347843E+02 F= -.31688271E+02 E0= -.31653053E+02  EK= 0.21063E+01 SP= -.77E+00 SK= 0.16E-02 mag=      0.037
       N       E                     dE             d eps       ncg     rms          rms(c)
DAV:   1    -0.317055311378E+02   -0.18069E-01   -0.94676E-03  2312   0.983E-01    0.290E-02
RMM:   2    -0.317061639022E+02   -0.63276E-03   -0.40200E-03  1523   0.274E-01
    613 T=   632. E= -.30342932E+02 F= -.31706164E+02 E0= -.31670767E+02  EK= 0.21232E+01 SP= -.76E+00 SK= 0.27E-05 mag=      0.034
       N       E                     dE             d eps       ncg     rms          rms(c)
DAV:   1    -0.317248689118E+02   -0.19338E-01   -0.10698E-02  2448   0.961E-01    0.424E-02
RMM:   2    -0.317257683639E+02   -0.89945E-03   -0.49029E-03  1566   0.281E-01
    614 T=   641. E= -.30337338E+02 F= -.31725768E+02 E0= -.31690203E+02  EK= 0.21535E+01 SP= -.77E+00 SK= 0.13E-02 mag=      0.007
       N       E                     dE             d eps       ncg     rms          rms(c)
DAV:   1    -0.317464384599E+02   -0.21570E-01   -0.12582E-02  2504   0.993E-01    0.513E-02
RMM:   2    -0.317474844075E+02   -0.10459E-02   -0.44858E-03  1521   0.280E-01
    615 T=   654. E= -.30332215E+02 F= -.31747484E+02 E0= -.31711753E+02  EK= 0.21963E+01 SP= -.79E+00 SK= 0.50E-02 mag=     -0.016
       N       E                     dE             d eps       ncg     rms          rms(c)
DAV:   1    -0.317709252251E+02   -0.24487E-01   -0.11923E-02  2432   0.994E-01    0.304E-02
RMM:   2    -0.317715940016E+02   -0.66878E-03   -0.44797E-03  1520   0.293E-01
    616 T=   670. E= -.30327927E+02 F= -.31771594E+02 E0= -.31735623E+02  EK= 0.22510E+01 SP= -.82E+00 SK= 0.10E-01 mag=     -0.026
       N       E                     dE             d eps       ncg     rms          rms(c)
DAV:   1    -0.317946960574E+02   -0.23771E-01   -0.17896E-02  2496   0.101E+00    0.547E-02
RMM:   2    -0.317959081468E+02   -0.12121E-02   -0.54350E-03  1540   0.298E-01
    617 T=   690. E= -.30322036E+02 F= -.31795908E+02 E0= -.31759824E+02  EK= 0.23174E+01 SP= -.86E+00 SK= 0.17E-01 mag=     -0.019
       N       E                     dE             d eps       ncg     rms          rms(c)
DAV:   1    -0.318213224142E+02   -0.26626E-01   -0.13095E-02  2488   0.103E+00    0.546E-02
RMM:   2    -0.318224099473E+02   -0.10875E-02   -0.51412E-03  1557   0.302E-01
    618 T=   712. E= -.30317082E+02 F= -.31822410E+02 E0= -.31786086E+02  EK= 0.23942E+01 SP= -.91E+00 SK= 0.23E-01 mag=     -0.000
       N       E                     dE             d eps       ncg     rms          rms(c)
DAV:   1    -0.318490178820E+02   -0.27695E-01   -0.15298E-02  2416   0.103E+00    0.380E-02
RMM:   2    -0.318498700573E+02   -0.85218E-03   -0.51234E-03  1548   0.311E-01
    619 T=   738. E= -.30312547E+02 F= -.31849870E+02 E0= -.31813298E+02  EK= 0.24797E+01 SP= -.97E+00 SK= 0.29E-01 mag=      0.019
       N       E                     dE             d eps       ncg     rms          rms(c)
DAV:   1    -0.318755945525E+02   -0.26577E-01   -0.13418E-02  2400   0.105E+00    0.458E-02
RMM:   2    -0.318767251276E+02   -0.11306E-02   -0.57916E-03  1558   0.307E-01
    620 T=   765. E= -.30307099E+02 F= -.31876725E+02 E0= -.31839989E+02  EK= 0.25723E+01 SP= -.10E+01 SK= 0.32E-01 mag=      0.027
       N       E                     dE             d eps       ncg     rms          rms(c)
DAV:   1    -0.319017200990E+02   -0.26126E-01   -0.16179E-02  2624   0.109E+00    0.661E-02
RMM:   2    -0.319032957871E+02   -0.15757E-02   -0.61950E-03  1586   0.317E-01    0.510E-02
RMM:   3    -0.319042824244E+02   -0.98664E-03   -0.26561E-03  1409   0.132E-01
    621 T=   794. E= -.30303251E+02 F= -.31904282E+02 E0= -.31867328E+02  EK= 0.26691E+01 SP= -.11E+01 SK= 0.34E-01 mag=      0.012
       N       E                     dE             d eps       ncg     rms          rms(c)
DAV:   1    -0.319287478522E+02   -0.25452E-01   -0.22910E-02  2600   0.108E+00    0.703E-02
RMM:   2    -0.319304549573E+02   -0.17071E-02   -0.42302E-03  1436   0.264E-01    0.540E-02
RMM:   3    -0.319312614445E+02   -0.80649E-03   -0.14492E-03  1393   0.979E-02
    622 T=   824. E= -.30299749E+02 F= -.31931261E+02 E0= -.31894119E+02  EK= 0.27678E+01 SP= -.12E+01 SK= 0.33E-01 mag=     -0.010
       N       E                     dE             d eps       ncg     rms          rms(c)
DAV:   1    -0.319565812122E+02   -0.26126E-01   -0.39436E-02  2520   0.109E+00    0.444E-02
RMM:   2    -0.319574364586E+02   -0.85525E-03   -0.47041E-03  1559   0.288E-01
    623 T=   853. E= -.30295054E+02 F= -.31957436E+02 E0= -.31920083E+02  EK= 0.28673E+01 SP= -.12E+01 SK= 0.30E-01 mag=     -0.025
       N       E                     dE             d eps       ncg     rms          rms(c)
DAV:   1    -0.319810985238E+02   -0.24517E-01   -0.29058E-02  2776   0.114E+00    0.334E-02
RMM:   2    -0.319819956234E+02   -0.89710E-03   -0.50478E-03  1562   0.289E-01
    624 T=   881. E= -.30292329E+02 F= -.31981996E+02 E0= -.31944421E+02  EK= 0.29607E+01 SP= -.13E+01 SK= 0.25E-01 mag=     -0.022
       N       E                     dE             d eps       ncg     rms          rms(c)
DAV:   1    -0.320038388311E+02   -0.22740E-01   -0.15060E-02  2680   0.111E+00    0.351E-02
RMM:   2    -0.320047297191E+02   -0.89089E-03   -0.47332E-03  1570   0.309E-01
    625 T=   907. E= -.30289231E+02 F= -.32004730E+02 E0= -.31966992E+02  EK= 0.30473E+01 SP= -.14E+01 SK= 0.19E-01 mag=     -0.001
       N       E                     dE             d eps       ncg     rms          rms(c)
DAV:   1    -0.320240646507E+02   -0.20226E-01   -0.19969E-02  2616   0.122E+00    0.402E-02
RMM:   2    -0.320250884248E+02   -0.10238E-02   -0.48617E-03  1551   0.291E-01
    626 T=   930. E= -.30284340E+02 F= -.32025088E+02 E0= -.31987253E+02  EK= 0.31248E+01 SP= -.14E+01 SK= 0.12E-01 mag=      0.023
       N       E                     dE             d eps       ncg     rms          rms(c)
DAV:   1    -0.320421886067E+02   -0.18124E-01   -0.11473E-02  2464   0.111E+00    0.393E-02
RMM:   2    -0.320432022416E+02   -0.10136E-02   -0.48528E-03  1556   0.312E-01
    627 T=   949. E= -.30279869E+02 F= -.32043202E+02 E0= -.32005187E+02  EK= 0.31882E+01 SP= -.14E+01 SK= 0.62E-02 mag=      0.032
       N       E                     dE             d eps       ncg     rms          rms(c)
DAV:   1    -0.320573519864E+02   -0.15163E-01   -0.17572E-02  2520   0.121E+00    0.306E-02
RMM:   2    -0.320583372140E+02   -0.98523E-03   -0.52086E-03  1597   0.302E-01
    628 T=   963. E= -.30274708E+02 F= -.32058337E+02 E0= -.32020155E+02  EK= 0.32353E+01 SP= -.15E+01 SK= 0.19E-02 mag=      0.018
       N       E                     dE             d eps       ncg     rms          rms(c)
DAV:   1    -0.320686732292E+02   -0.11321E-01   -0.18087E-02  2544   0.115E+00    0.381E-02
RMM:   2    -0.320698325615E+02   -0.11593E-02   -0.57568E-03  1586   0.337E-01
    629 T=   971. E= -.30269018E+02 F= -.32069833E+02 E0= -.32031566E+02  EK= 0.32634E+01 SP= -.15E+01 SK= 0.28E-04 mag=     -0.012
       N       E                     dE             d eps       ncg     rms          rms(c)
DAV:   1    -0.320765208960E+02   -0.78477E-02   -0.20318E-02  2880   0.123E+00    0.527E-02
RMM:   2    -0.320779806816E+02   -0.14598E-02   -0.60205E-03  1603   0.319E-01    0.415E-02
RMM:   3    -0.320785968977E+02   -0.61622E-03   -0.20040E-03  1455   0.128E-01
    630 T=   973. E= -.30264509E+02 F= -.32078597E+02 E0= -.32040181E+02  EK= 0.32704E+01 SP= -.15E+01 SK= 0.11E-02 mag=     -0.007
       N       E                     dE             d eps       ncg     rms          rms(c)
DAV:   1    -0.320815490719E+02   -0.35684E-02   -0.27084E-02  2536   0.116E+00    0.593E-02
RMM:   2    -0.320829941959E+02   -0.14451E-02   -0.46373E-03  1527   0.298E-01    0.449E-02
RMM:   3    -0.320834263609E+02   -0.43217E-03   -0.10907E-03  1284   0.109E-01
    631 T=   969. E= -.30259386E+02 F= -.32083426E+02 E0= -.32044902E+02  EK= 0.32567E+01 SP= -.14E+01 SK= 0.53E-02 mag=      0.004
       N       E                     dE             d eps       ncg     rms          rms(c)
DAV:   1    -0.320836960281E+02   -0.70183E-03   -0.30886E-02  2680   0.118E+00    0.458E-02
RMM:   2    -0.320846624394E+02   -0.96641E-03   -0.46873E-03  1584   0.288E-01
    632 T=   959. E= -.30252311E+02 F= -.32084662E+02 E0= -.32046007E+02  EK= 0.32246E+01 SP= -.14E+01 SK= 0.12E-01 mag=      0.010
       N       E                     dE             d eps       ncg     rms          rms(c)
DAV:   1    -0.320819438730E+02    0.17522E-02   -0.20935E-02  2808   0.122E+00    0.287E-02
RMM:   2    -0.320829075699E+02   -0.96370E-03   -0.52579E-03  1583   0.300E-01
    633 T=   944. E= -.30247969E+02 F= -.32082908E+02 E0= -.32044086E+02  EK= 0.31717E+01 SP= -.14E+01 SK= 0.21E-01 mag=      0.008
       N       E                     dE             d eps       ncg     rms          rms(c)
DAV:   1    -0.320770120238E+02    0.49318E-02   -0.17766E-02  2544   0.117E+00    0.313E-02
RMM:   2    -0.320779629625E+02   -0.95094E-03   -0.49440E-03  1572   0.321E-01
    634 T=   923. E= -.30242988E+02 F= -.32077963E+02 E0= -.32039021E+02  EK= 0.31033E+01 SP= -.13E+01 SK= 0.31E-01 mag=      0.001
       N       E                     dE             d eps       ncg     rms          rms(c)
DAV:   1    -0.320689874442E+02    0.80246E-02   -0.22247E-02  2784   0.123E+00    0.433E-02
RMM:   2    -0.320701036636E+02   -0.11162E-02   -0.49692E-03  1558   0.301E-01
    635 T=   900. E= -.30236009E+02 F= -.32070104E+02 E0= -.32031109E+02  EK= 0.30240E+01 SP= -.12E+01 SK= 0.40E-01 mag=     -0.004
       N       E                     dE             d eps       ncg     rms          rms(c)
DAV:   1    -0.320594549693E+02    0.95325E-02   -0.12518E-02  2592   0.112E+00    0.368E-02
RMM:   2    -0.320604246070E+02   -0.96964E-03   -0.50130E-03  1604   0.317E-01
    636 T=   873. E= -.30229852E+02 F= -.32060425E+02 E0= -.32021248E+02  EK= 0.29351E+01 SP= -.12E+01 SK= 0.49E-01 mag=     -0.003
       N       E                     dE             d eps       ncg     rms          rms(c)
DAV:   1    -0.320474805333E+02    0.11974E-01   -0.18267E-02  2432   0.115E+00    0.290E-02
RMM:   2    -0.320483901869E+02   -0.90965E-03   -0.52849E-03  1590   0.303E-01
    637 T=   845. E= -.30223797E+02 F= -.32048390E+02 E0= -.32009053E+02  EK= 0.28398E+01 SP= -.11E+01 SK= 0.55E-01 mag=     -0.002
       N       E                     dE             d eps       ncg     rms          rms(c)
DAV:   1    -0.320331769068E+02    0.14304E-01   -0.18049E-02  2664   0.109E+00    0.411E-02
RMM:   2    -0.320342476667E+02   -0.10708E-02   -0.55343E-03  1607   0.301E-01
    638 T=   816. E= -.30217900E+02 F= -.32034248E+02 E0= -.31994860E+02  EK= 0.27414E+01 SP= -.98E+00 SK= 0.58E-01 mag=     -0.003
       N       E                     dE             d eps       ncg     rms          rms(c)
DAV:   1    -0.320178773685E+02    0.15300E-01   -0.19771E-02  2624   0.111E+00    0.507E-02
RMM:   2    -0.320190927487E+02   -0.12154E-02   -0.52990E-03  1576   0.307E-01
    639 T=   787. E= -.30211849E+02 F= -.32019093E+02 E0= -.31979643E+02  EK= 0.26439E+01 SP= -.89E+00 SK= 0.58E-01 mag=     -0.003
       N       E                     dE             d eps       ncg     rms          rms(c)
DAV:   1    -0.320033420358E+02    0.14535E-01   -0.16791E-02  2600   0.108E+00    0.338E-02
RMM:   2    -0.320041712083E+02   -0.82917E-03   -0.51485E-03  1562   0.311E-01
    640 T=   759. E= -.30206687E+02 F= -.32004171E+02 E0= -.31964447E+02  EK= 0.25500E+01 SP= -.81E+00 SK= 0.55E-01 mag=     -0.001
       N       E                     dE             d eps       ncg     rms          rms(c)
DAV:   1    -0.319865774648E+02    0.16765E-01   -0.21401E-02  2720   0.104E+00    0.493E-02
RMM:   2    -0.319877013013E+02   -0.11238E-02   -0.56604E-03  1564   0.299E-01
    641 T=   732. E= -.30200421E+02 F= -.31987701E+02 E0= -.31947963E+02  EK= 0.24617E+01 SP= -.72E+00 SK= 0.49E-01 mag=      0.007
       N       E                     dE             d eps       ncg     rms          rms(c)
DAV:   1    -0.319700476002E+02    0.16530E-01   -0.16221E-02  2504   0.104E+00    0.594E-02
RMM:   2    -0.319714009084E+02   -0.13533E-02   -0.55663E-03  1569   0.296E-01    0.475E-02
RMM:   3    -0.319718713234E+02   -0.47042E-03   -0.15115E-03  1471   0.115E-01
    642 T=   708. E= -.30196144E+02 F= -.31971871E+02 E0= -.31932048E+02  EK= 0.23798E+01 SP= -.65E+00 SK= 0.42E-01 mag=      0.006
       N       E                     dE             d eps       ncg     rms          rms(c)
DAV:   1    -0.319554694211E+02    0.15931E-01   -0.31891E-02  2560   0.977E-01    0.547E-02
RMM:   2    -0.319566965875E+02   -0.12272E-02   -0.41738E-03  1438   0.255E-01
    643 T=   687. E= -.30190675E+02 F= -.31956697E+02 E0= -.31916718E+02  EK= 0.23085E+01 SP= -.58E+00 SK= 0.33E-01 mag=     -0.005
       N       E                     dE             d eps       ncg     rms          rms(c)
DAV:   1    -0.319379816977E+02    0.17488E-01   -0.37119E-02  2712   0.106E+00    0.972E-02
RMM:   2    -0.319401728473E+02   -0.21911E-02   -0.57601E-03  1542   0.264E-01    0.725E-02
RMM:   3    -0.319425316311E+02   -0.23588E-02   -0.45505E-03  1400   0.129E-01    0.403E-02
RMM:   4    -0.319431367540E+02   -0.60512E-03   -0.18023E-03  1400   0.875E-02
    644 T=   669. E= -.30186782E+02 F= -.31943137E+02 E0= -.31902919E+02  EK= 0.22470E+01 SP= -.51E+00 SK= 0.23E-01 mag=     -0.008
       N       E                     dE             d eps       ncg     rms          rms(c)
DAV:   1    -0.319248952743E+02    0.17636E-01   -0.32509E-02  2472   0.924E-01    0.989E-02
RMM:   2    -0.319272622259E+02   -0.23670E-02   -0.68889E-03  1423   0.240E-01    0.764E-02
RMM:   3    -0.319295368184E+02   -0.22746E-02   -0.49646E-03  1400   0.110E-01    0.442E-02
RMM:   4    -0.319302749430E+02   -0.73812E-03   -0.20509E-03  1400   0.810E-02
    645 T=   653. E= -.30185107E+02 F= -.31930275E+02 E0= -.31889943E+02  EK= 0.21943E+01 SP= -.46E+00 SK= 0.15E-01 mag=      0.008
       N       E                     dE             d eps       ncg     rms          rms(c)
DAV:   1    -0.319185263748E+02    0.11010E-01   -0.14175E-02  2592   0.980E-01    0.493E-02
RMM:   2    -0.319191738484E+02   -0.64747E-03   -0.34307E-03  1444   0.227E-01
    646 T=   642. E= -.30181448E+02 F= -.31919174E+02 E0= -.31878718E+02  EK= 0.21561E+01 SP= -.43E+00 SK= 0.74E-02 mag=      0.024
       N       E                     dE             d eps       ncg     rms          rms(c)
DAV:   1    -0.319095461226E+02    0.89803E-02   -0.14683E-02  2568   0.918E-01    0.389E-02
RMM:   2    -0.319102244425E+02   -0.67832E-03   -0.34694E-03  1520   0.238E-01
    647 T=   634. E= -.30177744E+02 F= -.31910224E+02 E0= -.31869685E+02  EK= 0.21309E+01 SP= -.40E+00 SK= 0.24E-02 mag=      0.022
       N       E                     dE             d eps       ncg     rms          rms(c)
DAV:   1    -0.319026723586E+02    0.68738E-02   -0.11155E-02  2416   0.936E-01    0.420E-02
RMM:   2    -0.319034449954E+02   -0.77264E-03   -0.35826E-03  1520   0.252E-01
    648 T=   631. E= -.30174110E+02 F= -.31903445E+02 E0= -.31862828E+02  EK= 0.21190E+01 SP= -.39E+00 SK= 0.12E-03 mag=     -0.001
       N       E                     dE             d eps       ncg     rms          rms(c)
DAV:   1    -0.318990518511E+02    0.36205E-02   -0.10278E-02  2312   0.969E-01    0.391E-02
RMM:   2    -0.318997190953E+02   -0.66724E-03   -0.41010E-03  1563   0.265E-01
    649 T=   631. E= -.30169451E+02 F= -.31899719E+02 E0= -.31858890E+02  EK= 0.21223E+01 SP= -.39E+00 SK= 0.75E-03 mag=     -0.031
       N       E                     dE             d eps       ncg     rms          rms(c)
DAV:   1    -0.318978492342E+02    0.12026E-02   -0.95154E-03  2216   0.911E-01    0.339E-02
RMM:   2    -0.318984948591E+02   -0.64562E-03   -0.38516E-03  1522   0.272E-01
    650 T=   637. E= -.30164529E+02 F= -.31898495E+02 E0= -.31857489E+02  EK= 0.21395E+01 SP= -.41E+00 SK= 0.42E-02 mag=     -0.040
       N       E                     dE             d eps       ncg     rms          rms(c)
DAV:   1    -0.318989100467E+02   -0.10608E-02   -0.11692E-02  2416   0.956E-01    0.414E-02
RMM:   2    -0.318997028216E+02   -0.79277E-03   -0.39174E-03  1518   0.257E-01
    651 T=   646. E= -.30159164E+02 F= -.31899703E+02 E0= -.31858621E+02  EK= 0.21705E+01 SP= -.44E+00 SK= 0.10E-01 mag=     -0.019
       N       E                     dE             d eps       ncg     rms          rms(c)
DAV:   1    -0.319030863512E+02   -0.41763E-02   -0.10393E-02  2224   0.939E-01    0.481E-02
RMM:   2    -0.319039765310E+02   -0.89018E-03   -0.39642E-03  1523   0.264E-01
    652 T=   659. E= -.30153468E+02 F= -.31903977E+02 E0= -.31862742E+02  EK= 0.22159E+01 SP= -.48E+00 SK= 0.18E-01 mag=      0.017
       N       E                     dE             d eps       ncg     rms          rms(c)
DAV:   1    -0.319111804212E+02   -0.80941E-02   -0.15240E-02  2584   0.967E-01    0.365E-02
RMM:   2    -0.319118660641E+02   -0.68564E-03   -0.43465E-03  1516   0.277E-01
    653 T=   677. E= -.30148815E+02 F= -.31911866E+02 E0= -.31870284E+02  EK= 0.22744E+01 SP= -.54E+00 SK= 0.27E-01 mag=      0.044
       N       E                     dE             d eps       ncg     rms          rms(c)
DAV:   1    -0.319200648591E+02   -0.88844E-02   -0.17614E-02  2472   0.958E-01    0.555E-02
RMM:   2    -0.319211703719E+02   -0.11055E-02   -0.50675E-03  1520   0.285E-01
    654 T=   698. E= -.30143241E+02 F= -.31921170E+02 E0= -.31879534E+02  EK= 0.23453E+01 SP= -.60E+00 SK= 0.36E-01 mag=      0.036
       N       E                     dE             d eps       ncg     rms          rms(c)
DAV:   1    -0.319323693646E+02   -0.12305E-01   -0.13166E-02  2416   0.101E+00    0.599E-02
RMM:   2    -0.319335709913E+02   -0.12016E-02   -0.47695E-03  1545   0.279E-01
    655 T=   723. E= -.30138048E+02 F= -.31933571E+02 E0= -.31891746E+02  EK= 0.24284E+01 SP= -.68E+00 SK= 0.45E-01 mag=     -0.005
       N       E                     dE             d eps       ncg     rms          rms(c)
DAV:   1    -0.319482257824E+02   -0.15856E-01   -0.13785E-02  2344   0.100E+00    0.405E-02
RMM:   2    -0.319491234499E+02   -0.89767E-03   -0.46433E-03  1538   0.294E-01
    656 T=   750. E= -.30133749E+02 F= -.31949123E+02 E0= -.31906864E+02  EK= 0.25220E+01 SP= -.76E+00 SK= 0.51E-01 mag=     -0.043
       N       E                     dE             d eps       ncg     rms          rms(c)
DAV:   1    -0.319648378061E+02   -0.16612E-01   -0.19140E-02  2560   0.105E+00    0.493E-02
RMM:   2    -0.319658582289E+02   -0.10204E-02   -0.54445E-03  1556   0.297E-01
    657 T=   781. E= -.30128598E+02 F= -.31965858E+02 E0= -.31923372E+02  EK= 0.26245E+01 SP= -.84E+00 SK= 0.54E-01 mag=     -0.051
       N       E                     dE             d eps       ncg     rms          rms(c)
DAV:   1    -0.319807109586E+02   -0.15873E-01   -0.20471E-02  2560   0.105E+00    0.796E-02
RMM:   2    -0.319826944664E+02   -0.19835E-02   -0.63330E-03  1534   0.304E-01    0.628E-02
RMM:   3    -0.319843322748E+02   -0.16378E-02   -0.39087E-03  1400   0.133E-01    0.349E-02
RMM:   4    -0.319849223252E+02   -0.59005E-03   -0.16675E-03  1400   0.925E-02
    658 T=   813. E= -.30125871E+02 F= -.31984922E+02 E0= -.31942055E+02  EK= 0.27317E+01 SP= -.93E+00 SK= 0.55E-01 mag=     -0.007
       N       E                     dE             d eps       ncg     rms          rms(c)
DAV:   1    -0.320005402088E+02   -0.16208E-01   -0.31287E-02  2592   0.107E+00    0.852E-02
RMM:   2    -0.320024869047E+02   -0.19467E-02   -0.59813E-03  1424   0.247E-01    0.654E-02
RMM:   3    -0.320039118423E+02   -0.14249E-02   -0.30589E-03  1400   0.104E-01    0.409E-02
RMM:   4    -0.320045361674E+02   -0.62433E-03   -0.13596E-03  1398   0.708E-02
    659 T=   845. E= -.30123896E+02 F= -.32004536E+02 E0= -.31961399E+02  EK= 0.28411E+01 SP= -.10E+01 SK= 0.52E-01 mag=      0.017
       N       E                     dE             d eps       ncg     rms          rms(c)
DAV:   1    -0.320239952404E+02   -0.20083E-01   -0.14521E-02  2632   0.108E+00    0.492E-02
RMM:   2    -0.320247359322E+02   -0.74069E-03   -0.43529E-03  1565   0.275E-01
    660 T=   878. E= -.30120170E+02 F= -.32024736E+02 E0= -.31981310E+02  EK= 0.29521E+01 SP= -.11E+01 SK= 0.46E-01 mag=      0.009
       N       E                     dE             d eps       ncg     rms          rms(c)
DAV:   1    -0.320442056316E+02   -0.20210E-01   -0.17884E-02  2936   0.113E+00    0.300E-02
RMM:   2    -0.320450126201E+02   -0.80699E-03   -0.45109E-03  1550   0.278E-01
    661 T=   910. E= -.30118521E+02 F= -.32045013E+02 E0= -.32001304E+02  EK= 0.30572E+01 SP= -.12E+01 SK= 0.37E-01 mag=     -0.021
       N       E                     dE             d eps       ncg     rms          rms(c)
DAV:   1    -0.320634892228E+02   -0.19284E-01   -0.14925E-02  2344   0.111E+00    0.416E-02
RMM:   2    -0.320644136138E+02   -0.92439E-03   -0.44234E-03  1532   0.289E-01
    662 T=   939. E= -.30116311E+02 F= -.32064414E+02 E0= -.32020539E+02  EK= 0.31542E+01 SP= -.12E+01 SK= 0.27E-01 mag=     -0.046
       N       E                     dE             d eps       ncg     rms          rms(c)
DAV:   1    -0.320814853995E+02   -0.17996E-01   -0.18662E-02  2640   0.122E+00    0.369E-02
RMM:   2    -0.320825573252E+02   -0.10719E-02   -0.53760E-03  1564   0.311E-01
    663 T=   965. E= -.30110828E+02 F= -.32082557E+02 E0= -.32038538E+02  EK= 0.32419E+01 SP= -.13E+01 SK= 0.17E-01 mag=     -0.046
       N       E                     dE             d eps       ncg     rms          rms(c)
DAV:   1    -0.320981552221E+02   -0.16670E-01   -0.12481E-02  2368   0.116E+00    0.331E-02
RMM:   2    -0.320991652079E+02   -0.10100E-02   -0.50261E-03  1576   0.327E-01
    664 T=   986. E= -.30105783E+02 F= -.32099165E+02 E0= -.32054950E+02  EK= 0.33125E+01 SP= -.13E+01 SK= 0.80E-02 mag=     -0.015
       N       E                     dE             d eps       ncg     rms          rms(c)
DAV:   1    -0.321123371037E+02   -0.14182E-01   -0.18192E-02  2688   0.123E+00    0.288E-02
RMM:   2    -0.321132839819E+02   -0.94688E-03   -0.47917E-03  1556   0.309E-01
    665 T=  1001. E= -.30100416E+02 F= -.32113284E+02 E0= -.32068964E+02  EK= 0.33628E+01 SP= -.14E+01 SK= 0.21E-02 mag=      0.033
       N       E                     dE             d eps       ncg     rms          rms(c)
DAV:   1    -0.321226900727E+02   -0.10353E-01   -0.17335E-02  2480   0.121E+00    0.426E-02
RMM:   2    -0.321239349323E+02   -0.12449E-02   -0.57624E-03  1586   0.329E-01
    666 T=  1009. E= -.30093636E+02 F= -.32123935E+02 E0= -.32079750E+02  EK= 0.33905E+01 SP= -.14E+01 SK= 0.13E-05 mag=      0.061
       N       E                     dE             d eps       ncg     rms          rms(c)
DAV:   1    -0.321303445796E+02   -0.76545E-02   -0.20151E-02  2656   0.125E+00    0.428E-02
RMM:   2    -0.321315673702E+02   -0.12228E-02   -0.51837E-03  1561   0.320E-01
    667 T=  1010. E= -.30086997E+02 F= -.32131567E+02 E0= -.32087446E+02  EK= 0.33934E+01 SP= -.14E+01 SK= 0.24E-02 mag=      0.048
       N       E                     dE             d eps       ncg     rms          rms(c)
DAV:   1    -0.321349247073E+02   -0.45801E-02   -0.17670E-02  2616   0.120E+00    0.294E-02
RMM:   2    -0.321360191088E+02   -0.10944E-02   -0.57017E-03  1608   0.326E-01
    668 T=  1003. E= -.30081103E+02 F= -.32136019E+02 E0= -.32091926E+02  EK= 0.33705E+01 SP= -.13E+01 SK= 0.92E-02 mag=     -0.002
       N       E                     dE             d eps       ncg     rms          rms(c)
DAV:   1    -0.321349188013E+02    0.59060E-05   -0.19924E-02  2824   0.122E+00    0.365E-02
RMM:   2    -0.321361648972E+02   -0.12461E-02   -0.62677E-03  1623   0.325E-01
    669 T=   989. E= -.30074710E+02 F= -.32136165E+02 E0= -.32092379E+02  EK= 0.33232E+01 SP= -.13E+01 SK= 0.20E-01 mag=     -0.059
       N       E                     dE             d eps       ncg     rms          rms(c)
DAV:   1    -0.321305925220E+02    0.43263E-02   -0.19641E-02  2600   0.119E+00    0.568E-02
RMM:   2    -0.321321727972E+02   -0.15803E-02   -0.59665E-03  1558   0.325E-01    0.449E-02
RMM:   3    -0.321329657187E+02   -0.79292E-03   -0.23373E-03  1416   0.128E-01
    670 T=   968. E= -.30069919E+02 F= -.32132966E+02 E0= -.32089485E+02  EK= 0.32529E+01 SP= -.12E+01 SK= 0.33E-01 mag=     -0.033
       N       E                     dE             d eps       ncg     rms          rms(c)
DAV:   1    -0.321247476453E+02    0.74252E-02   -0.23957E-02  2576   0.116E+00    0.453E-02
RMM:   2    -0.321259599906E+02   -0.12123E-02   -0.45342E-03  1524   0.291E-01
    671 T=   942. E= -.30061612E+02 F= -.32125960E+02 E0= -.32082790E+02  EK= 0.31673E+01 SP= -.11E+01 SK= 0.47E-01 mag=      0.049
       N       E                     dE             d eps       ncg     rms          rms(c)
DAV:   1    -0.321116244654E+02    0.13123E-01   -0.34175E-02  2968   0.121E+00    0.785E-02
RMM:   2    -0.321135792872E+02   -0.19548E-02   -0.59676E-03  1545   0.278E-01    0.602E-02
RMM:   3    -0.321150433588E+02   -0.14641E-02   -0.27569E-03  1400   0.120E-01    0.385E-02
RMM:   4    -0.321156652359E+02   -0.62188E-03   -0.16462E-03  1400   0.840E-02
    672 T=   912. E= -.30055179E+02 F= -.32115665E+02 E0= -.32072793E+02  EK= 0.30655E+01 SP= -.11E+01 SK= 0.60E-01 mag=      0.011
       N       E                     dE             d eps       ncg     rms          rms(c)
DAV:   1    -0.320981093398E+02    0.16934E-01   -0.21127E-02  2400   0.108E+00    0.779E-02
RMM:   2    -0.320998640285E+02   -0.17547E-02   -0.55097E-03  1464   0.249E-01    0.582E-02
RMM:   3    -0.321010524632E+02   -0.11884E-02   -0.27031E-03  1400   0.105E-01
    673 T=   878. E= -.30051730E+02 F= -.32101052E+02 E0= -.32058718E+02  EK= 0.29494E+01 SP= -.97E+00 SK= 0.71E-01 mag=     -0.034
       N       E                     dE             d eps       ncg     rms          rms(c)
DAV:   1    -0.320834043705E+02    0.16460E-01   -0.26458E-02  2776   0.110E+00    0.578E-02
RMM:   2    -0.320843162561E+02   -0.91189E-03   -0.40682E-03  1438   0.266E-01
    674 T=   842. E= -.30046890E+02 F= -.32084316E+02 E0= -.32042371E+02  EK= 0.28297E+01 SP= -.87E+00 SK= 0.79E-01 mag=     -0.052
       N       E                     dE             d eps       ncg     rms          rms(c)
DAV:   1    -0.320642192173E+02    0.19185E-01   -0.19404E-02  2864   0.111E+00    0.343E-02
RMM:   2    -0.320649981516E+02   -0.77893E-03   -0.39709E-03  1551   0.248E-01
    675 T=   805. E= -.30043736E+02 F= -.32064998E+02 E0= -.32023439E+02  EK= 0.27067E+01 SP= -.77E+00 SK= 0.82E-01 mag=     -0.031
       N       E                     dE             d eps       ncg     rms          rms(c)
DAV:   1    -0.320420913697E+02    0.22128E-01   -0.11760E-02  2424   0.102E+00    0.431E-02
RMM:   2    -0.320428946610E+02   -0.80329E-03   -0.39366E-03  1541   0.278E-01
    676 T=   770. E= -.30039409E+02 F= -.32042895E+02 E0= -.32001827E+02  EK= 0.25863E+01 SP= -.66E+00 SK= 0.80E-01 mag=      0.018
       N       E                     dE             d eps       ncg     rms          rms(c)
DAV:   1    -0.320175831811E+02    0.24508E-01   -0.15398E-02  2488   0.109E+00    0.471E-02
RMM:   2    -0.320185765371E+02   -0.99336E-03   -0.42685E-03  1525   0.266E-01
    677 T=   736. E= -.30033248E+02 F= -.32018577E+02 E0= -.31978063E+02  EK= 0.24725E+01 SP= -.56E+00 SK= 0.74E-01 mag=      0.063
       N       E                     dE             d eps       ncg     rms          rms(c)
DAV:   1    -0.319924059254E+02    0.25177E-01   -0.92247E-03  2488   0.972E-01    0.372E-02
RMM:   2    -0.319932148295E+02   -0.80890E-03   -0.40025E-03  1531   0.282E-01
    678 T=   704. E= -.30028079E+02 F= -.31993215E+02 E0= -.31953118E+02  EK= 0.23655E+01 SP= -.46E+00 SK= 0.64E-01 mag=      0.059
       N       E                     dE             d eps       ncg     rms          rms(c)
DAV:   1    -0.319657365863E+02    0.26669E-01   -0.12664E-02  2480   0.101E+00    0.304E-02
RMM:   2    -0.319664651637E+02   -0.72858E-03   -0.44616E-03  1570   0.271E-01
    679 T=   675. E= -.30022724E+02 F= -.31966465E+02 E0= -.31926758E+02  EK= 0.22678E+01 SP= -.38E+00 SK= 0.52E-01 mag=      0.005
       N       E                     dE             d eps       ncg     rms          rms(c)
DAV:   1    -0.319365740962E+02    0.29162E-01   -0.15291E-02  2544   0.948E-01    0.536E-02
RMM:   2    -0.319376319036E+02   -0.10578E-02   -0.44157E-03  1526   0.270E-01
    680 T=   649. E= -.30016980E+02 F= -.31937632E+02 E0= -.31898511E+02  EK= 0.21801E+01 SP= -.30E+00 SK= 0.39E-01 mag=     -0.053
       N       E                     dE             d eps       ncg     rms          rms(c)
DAV:   1    -0.319078721698E+02    0.28702E-01   -0.13482E-02  2600   0.986E-01    0.435E-02
RMM:   2    -0.319087505959E+02   -0.87843E-03   -0.39256E-03  1531   0.256E-01
    681 T=   626. E= -.30012237E+02 F= -.31908751E+02 E0= -.31870020E+02  EK= 0.21037E+01 SP= -.23E+00 SK= 0.26E-01 mag=     -0.072
       N       E                     dE             d eps       ncg     rms          rms(c)
DAV:   1    -0.318784841537E+02    0.29388E-01   -0.11780E-02  2296   0.907E-01    0.270E-02
RMM:   2    -0.318791326696E+02   -0.64852E-03   -0.40188E-03  1541   0.273E-01
    682 T=   607. E= -.30007655E+02 F= -.31879133E+02 E0= -.31840720E+02  EK= 0.20392E+01 SP= -.18E+00 SK= 0.14E-01 mag=     -0.031
       N       E                     dE             d eps       ncg     rms          rms(c)
DAV:   1    -0.318469611177E+02    0.31523E-01   -0.12976E-02  2528   0.930E-01    0.498E-02
RMM:   2    -0.318479535166E+02   -0.99240E-03   -0.43872E-03  1530   0.260E-01
    683 T=   591. E= -.30002355E+02 F= -.31847954E+02 E0= -.31810045E+02  EK= 0.19870E+01 SP= -.15E+00 SK= 0.52E-02 mag=      0.041
       N       E                     dE             d eps       ncg     rms          rms(c)
DAV:   1    -0.318152281097E+02    0.31733E-01   -0.10614E-02  2416   0.913E-01    0.608E-02
RMM:   2    -0.318164653035E+02   -0.12372E-02   -0.43179E-03  1543   0.263E-01
    684 T=   579. E= -.29997316E+02 F= -.31816465E+02 E0= -.31779048E+02  EK= 0.19475E+01 SP= -.13E+00 SK= 0.55E-03 mag=      0.077
       N       E                     dE             d eps       ncg     rms          rms(c)
DAV:   1    -0.317849362581E+02    0.30292E-01   -0.11694E-02  2376   0.912E-01    0.317E-02
RMM:   2    -0.317856632377E+02   -0.72698E-03   -0.46208E-03  1580   0.277E-01
    685 T=   572. E= -.29993363E+02 F= -.31785663E+02 E0= -.31748445E+02  EK= 0.19211E+01 SP= -.13E+00 SK= 0.77E-03 mag=      0.049
       N       E                     dE             d eps       ncg     rms          rms(c)
DAV:   1    -0.317516861257E+02    0.33250E-01   -0.17520E-02  2528   0.892E-01    0.526E-02
RMM:   2    -0.317528091235E+02   -0.11230E-02   -0.52919E-03  1563   0.277E-01
    686 T=   567. E= -.29988324E+02 F= -.31752809E+02 E0= -.31715991E+02  EK= 0.19072E+01 SP= -.15E+00 SK= 0.64E-02 mag=     -0.026
       N       E                     dE             d eps       ncg     rms          rms(c)
DAV:   1    -0.317177623380E+02    0.33924E-01   -0.16393E-02  2512   0.925E-01    0.715E-02
RMM:   2    -0.317193196898E+02   -0.15574E-02   -0.50506E-03  1573   0.272E-01    0.549E-02
RMM:   3    -0.317200017795E+02   -0.68209E-03   -0.15581E-03  1458   0.108E-01
    687 T=   567. E= -.29985101E+02 F= -.31720002E+02 E0= -.31683586E+02  EK= 0.19052E+01 SP= -.19E+00 SK= 0.18E-01 mag=     -0.018
       N       E                     dE             d eps       ncg     rms          rms(c)
DAV:   1    -0.316846047698E+02    0.34715E-01   -0.25768E-02  2464   0.896E-01    0.711E-02
RMM:   2    -0.316863421889E+02   -0.17374E-02   -0.54962E-03  1499   0.238E-01    0.549E-02
RMM:   3    -0.316868100014E+02   -0.46781E-03   -0.10897E-03  1351   0.884E-02
    688 T=   570. E= -.29982832E+02 F= -.31686810E+02 E0= -.31650636E+02  EK= 0.19157E+01 SP= -.25E+00 SK= 0.34E-01 mag=      0.014
       N       E                     dE             d eps       ncg     rms          rms(c)
DAV:   1    -0.316524003048E+02    0.33942E-01   -0.53484E-02  2376   0.925E-01    0.529E-02
RMM:   2    -0.316533113335E+02   -0.91103E-03   -0.48668E-03  1557   0.276E-01
    689 T=   578. E= -.29979637E+02 F= -.31653311E+02 E0= -.31617420E+02  EK= 0.19409E+01 SP= -.32E+00 SK= 0.56E-01 mag=      0.044
       N       E                     dE             d eps       ncg     rms          rms(c)
DAV:   1    -0.316183541020E+02    0.34046E-01   -0.35183E-02  2456   0.932E-01    0.399E-02
RMM:   2    -0.316192145493E+02   -0.86045E-03   -0.44773E-03  1561   0.274E-01
    690 T=   589. E= -.29977014E+02 F= -.31619215E+02 E0= -.31583578E+02  EK= 0.19794E+01 SP= -.42E+00 SK= 0.82E-01 mag=      0.037
       N       E                     dE             d eps       ncg     rms          rms(c)
DAV:   1    -0.315838976134E+02    0.34456E-01   -0.14780E-02  2408   0.925E-01    0.377E-02
RMM:   2    -0.315847007239E+02   -0.80311E-03   -0.45840E-03  1553   0.280E-01
    691 T=   605. E= -.29974685E+02 F= -.31584701E+02 E0= -.31549247E+02  EK= 0.20318E+01 SP= -.53E+00 SK= 0.11E+00 mag=     -0.005
       N       E                     dE             d eps       ncg     rms          rms(c)
DAV:   1    -0.315479226582E+02    0.35975E-01   -0.15743E-02  2560   0.979E-01    0.462E-02
RMM:   2    -0.315489672401E+02   -0.10446E-02   -0.44568E-03  1551   0.264E-01
    692 T=   625. E= -.29970968E+02 F= -.31548967E+02 E0= -.31513788E+02  EK= 0.20994E+01 SP= -.66E+00 SK= 0.14E+00 mag=     -0.040
       N       E                     dE             d eps       ncg     rms          rms(c)
DAV:   1    -0.315121922267E+02    0.35730E-01   -0.12353E-02  2384   0.976E-01    0.515E-02
RMM:   2    -0.315131815785E+02   -0.98935E-03   -0.42966E-03  1575   0.278E-01
    693 T=   649. E= -.29967439E+02 F= -.31513182E+02 E0= -.31478177E+02  EK= 0.21819E+01 SP= -.81E+00 SK= 0.17E+00 mag=     -0.042
       N       E                     dE             d eps       ncg     rms          rms(c)
DAV:   1    -0.314758477526E+02    0.36344E-01   -0.14100E-02  2640   0.993E-01    0.446E-02
RMM:   2    -0.314768923036E+02   -0.10446E-02   -0.47813E-03  1599   0.274E-01
    694 T=   678. E= -.29963742E+02 F= -.31476892E+02 E0= -.31441977E+02  EK= 0.22793E+01 SP= -.96E+00 SK= 0.20E+00 mag=     -0.005
       N       E                     dE             d eps       ncg     rms          rms(c)
DAV:   1    -0.314387028543E+02    0.37145E-01   -0.16223E-02  2336   0.999E-01    0.478E-02
RMM:   2    -0.314398949324E+02   -0.11921E-02   -0.51664E-03  1578   0.305E-01
    695 T=   711. E= -.29960141E+02 F= -.31439895E+02 E0= -.31405070E+02  EK= 0.23907E+01 SP= -.11E+01 SK= 0.22E+00 mag=      0.047
       N       E                     dE             d eps       ncg     rms          rms(c)
DAV:   1    -0.314005298970E+02    0.38173E-01   -0.19506E-02  2720   0.107E+00    0.649E-02
RMM:   2    -0.314021799962E+02   -0.16501E-02   -0.57302E-03  1576   0.296E-01    0.495E-02
RMM:   3    -0.314029038158E+02   -0.72382E-03   -0.19791E-03  1420   0.115E-01
    696 T=   748. E= -.29957611E+02 F= -.31402904E+02 E0= -.31368158E+02  EK= 0.25149E+01 SP= -.13E+01 SK= 0.23E+00 mag=      0.012
       N       E                     dE             d eps       ncg     rms          rms(c)
DAV:   1    -0.313634856134E+02    0.38694E-01   -0.25947E-02  2488   0.106E+00    0.740E-02
RMM:   2    -0.313653186629E+02   -0.18330E-02   -0.48480E-03  1510   0.284E-01    0.537E-02
RMM:   3    -0.313659915784E+02   -0.67292E-03   -0.13636E-03  1389   0.102E-01
    697 T=   789. E= -.29955069E+02 F= -.31365992E+02 E0= -.31331188E+02  EK= 0.26518E+01 SP= -.15E+01 SK= 0.24E+00 mag=     -0.020
       N       E                     dE             d eps       ncg     rms          rms(c)
DAV:   1    -0.313282168657E+02    0.37102E-01   -0.42068E-02  2736   0.109E+00    0.519E-02
RMM:   2    -0.313292931764E+02   -0.10763E-02   -0.47975E-03  1601   0.283E-01
    698 T=   833. E= -.29951220E+02 F= -.31329293E+02 E0= -.31294426E+02  EK= 0.28005E+01 SP= -.17E+01 SK= 0.24E+00 mag=     -0.027
       N       E                     dE             d eps       ncg     rms          rms(c)
DAV:   1    -0.312917950915E+02    0.36422E-01   -0.29452E-02  2880   0.114E+00    0.424E-02
RMM:   2    -0.312930416260E+02   -0.12465E-02   -0.51252E-03  1626   0.288E-01
    699 T=   879. E= -.29950376E+02 F= -.31293042E+02 E0= -.31258031E+02  EK= 0.29537E+01 SP= -.18E+01 SK= 0.23E+00 mag=     -0.001
       N       E                     dE             d eps       ncg     rms          rms(c)
DAV:   1    -0.312566963308E+02    0.35099E-01   -0.18557E-02  2680   0.113E+00    0.481E-02
RMM:   2    -0.312581087853E+02   -0.14125E-02   -0.50690E-03  1630   0.319E-01    0.323E-02
RMM:   3    -0.312584005662E+02   -0.29178E-03   -0.13489E-03  1400   0.120E-01
    700 T=   925. E= -.29950700E+02 F= -.31258401E+02 E0= -.31223156E+02  EK= 0.31102E+01 SP= -.20E+01 SK= 0.20E+00 mag=      0.013
       N       E                     dE             d eps       ncg     rms          rms(c)
DAV:   1    -0.312234910724E+02    0.34618E-01   -0.28784E-02  2352   0.124E+00    0.403E-02
RMM:   2    -0.312248890520E+02   -0.13980E-02   -0.43395E-03  1596   0.302E-01    0.290E-02
RMM:   3    -0.312251579692E+02   -0.26892E-03   -0.98603E-04  1240   0.110E-01
    701 T=   973. E= -.29946656E+02 F= -.31225158E+02 E0= -.31189649E+02  EK= 0.32700E+01 SP= -.22E+01 SK= 0.18E+00 mag=      0.005
       N       E                     dE             d eps       ncg     rms          rms(c)
DAV:   1    -0.311928518842E+02    0.32037E-01   -0.23063E-02  2744   0.119E+00    0.324E-02
RMM:   2    -0.311941628714E+02   -0.13110E-02   -0.45021E-03  1618   0.293E-01
    702 T=  1019. E= -.29941064E+02 F= -.31194163E+02 E0= -.31158302E+02  EK= 0.34252E+01 SP= -.23E+01 SK= 0.14E+00 mag=     -0.016
       N       E                     dE             d eps       ncg     rms          rms(c)
DAV:   1    -0.311648296433E+02    0.28022E-01   -0.23888E-02  2736   0.126E+00    0.317E-02
RMM:   2    -0.311663299598E+02   -0.15003E-02   -0.51545E-03  1644   0.296E-01    0.222E-02
RMM:   3    -0.311665646858E+02   -0.23473E-03   -0.12921E-03  1370   0.112E-01
    703 T=  1061. E= -.29939299E+02 F= -.31166565E+02 E0= -.31130271E+02  EK= 0.35642E+01 SP= -.24E+01 SK= 0.10E+00 mag=     -0.017
       N       E                     dE             d eps       ncg     rms          rms(c)
DAV:   1    -0.311410144529E+02    0.25316E-01   -0.24204E-02  2176   0.127E+00    0.350E-02
RMM:   2    -0.311425725932E+02   -0.15581E-02   -0.39828E-03  1638   0.285E-01    0.233E-02
RMM:   3    -0.311427877747E+02   -0.21518E-03   -0.90130E-04  1205   0.107E-01
    704 T=  1096. E= -.29937280E+02 F= -.31142788E+02 E0= -.31106013E+02  EK= 0.36844E+01 SP= -.25E+01 SK= 0.66E-01 mag=      0.000
       N       E                     dE             d eps       ncg     rms          rms(c)
DAV:   1    -0.311219522077E+02    0.20620E-01   -0.29154E-02  2536   0.129E+00    0.319E-02
RMM:   2    -0.311234752308E+02   -0.15230E-02   -0.46066E-03  1679   0.304E-01    0.207E-02
RMM:   3    -0.311236900907E+02   -0.21486E-03   -0.11093E-03  1259   0.110E-01
    705 T=  1125. E= -.29932794E+02 F= -.31123690E+02 E0= -.31086360E+02  EK= 0.37820E+01 SP= -.26E+01 SK= 0.34E-01 mag=      0.011
       N       E                     dE             d eps       ncg     rms          rms(c)
DAV:   1    -0.311082550889E+02    0.15220E-01   -0.23925E-02  2304   0.129E+00    0.212E-02
RMM:   2    -0.311097884358E+02   -0.15333E-02   -0.40965E-03  1600   0.293E-01    0.123E-02
RMM:   3    -0.311099158713E+02   -0.12744E-03   -0.75399E-04  1159   0.108E-01
    706 T=  1145. E= -.29929495E+02 F= -.31109916E+02 E0= -.31071962E+02  EK= 0.38480E+01 SP= -.27E+01 SK= 0.12E-01 mag=      0.007
       N       E                     dE             d eps       ncg     rms          rms(c)
DAV:   1    -0.311001050292E+02    0.96834E-02   -0.28429E-02  2384   0.132E+00    0.310E-02
RMM:   2    -0.311017017394E+02   -0.15967E-02   -0.39304E-03  1651   0.299E-01    0.189E-02
RMM:   3    -0.311019005177E+02   -0.19878E-03   -0.88713E-04  1229   0.109E-01
    707 T=  1155. E= -.29925651E+02 F= -.31101901E+02 E0= -.31063306E+02  EK= 0.38803E+01 SP= -.27E+01 SK= 0.87E-03 mag=     -0.003
       N       E                     dE             d eps       ncg     rms          rms(c)
DAV:   1    -0.310986113213E+02    0.30904E-02   -0.27905E-02  2368   0.133E+00    0.223E-02
RMM:   2    -0.311002187188E+02   -0.16074E-02   -0.37596E-03  1555   0.296E-01    0.126E-02
RMM:   3    -0.311003538997E+02   -0.13518E-03   -0.76461E-04  1132   0.108E-01
    708 T=  1154. E= -.29921245E+02 F= -.31100354E+02 E0= -.31061060E+02  EK= 0.38774E+01 SP= -.27E+01 SK= 0.26E-02 mag=     -0.010
       N       E                     dE             d eps       ncg     rms          rms(c)
DAV:   1    -0.311037807370E+02   -0.35620E-02   -0.27472E-02  2328   0.132E+00    0.196E-02
RMM:   2    -0.311053619257E+02   -0.15812E-02   -0.35315E-03  1494   0.288E-01    0.117E-02
RMM:   3    -0.311054850212E+02   -0.12310E-03   -0.69915E-04  1143   0.106E-01
    709 T=  1142. E= -.29916773E+02 F= -.31105485E+02 E0= -.31065490E+02  EK= 0.38393E+01 SP= -.27E+01 SK= 0.17E-01 mag=     -0.007
       N       E                     dE             d eps       ncg     rms          rms(c)
DAV:   1    -0.311151392681E+02   -0.97773E-02   -0.27739E-02  2336   0.132E+00    0.249E-02
RMM:   2    -0.311168122017E+02   -0.16729E-02   -0.36747E-03  1606   0.294E-01    0.169E-02
RMM:   3    -0.311169743176E+02   -0.16212E-03   -0.74499E-04  1154   0.107E-01
    710 T=  1121. E= -.29912159E+02 F= -.31116974E+02 E0= -.31076278E+02  EK= 0.37682E+01 SP= -.26E+01 SK= 0.43E-01 mag=      0.000
       N       E                     dE             d eps       ncg     rms          rms(c)
DAV:   1    -0.311330748281E+02   -0.16263E-01   -0.27723E-02  2344   0.131E+00    0.202E-02
RMM:   2    -0.311346379106E+02   -0.15631E-02   -0.31963E-03  1544   0.287E-01    0.899E-03
RMM:   3    -0.311347501915E+02   -0.11228E-03   -0.64944E-04  1152   0.101E-01
    711 T=  1092. E= -.29907819E+02 F= -.31134750E+02 E0= -.31093338E+02  EK= 0.36685E+01 SP= -.25E+01 SK= 0.76E-01 mag=      0.007
       N       E                     dE             d eps       ncg     rms          rms(c)
DAV:   1    -0.311564132647E+02   -0.21775E-01   -0.25789E-02  2472   0.127E+00    0.227E-02
RMM:   2    -0.311579641752E+02   -0.15509E-02   -0.33014E-03  1571   0.277E-01    0.135E-02
RMM:   3    -0.311581002039E+02   -0.13603E-03   -0.64012E-04  1144   0.988E-02
    712 T=  1055. E= -.29903608E+02 F= -.31158100E+02 E0= -.31116014E+02  EK= 0.35454E+01 SP= -.24E+01 SK= 0.11E+00 mag=      0.008
       N       E                     dE             d eps       ncg     rms          rms(c)
DAV:   1    -0.311852775038E+02   -0.27313E-01   -0.24432E-02  2392   0.125E+00    0.200E-02
RMM:   2    -0.311867573816E+02   -0.14799E-02   -0.30406E-03  1432   0.274E-01    0.120E-02
RMM:   3    -0.311868745138E+02   -0.11713E-03   -0.60654E-04  1132   0.995E-02
    713 T=  1013. E= -.29899747E+02 F= -.31186875E+02 E0= -.31144130E+02  EK= 0.34056E+01 SP= -.23E+01 SK= 0.15E+00 mag=      0.001
       N       E                     dE             d eps       ncg     rms          rms(c)
DAV:   1    -0.312186564667E+02   -0.31899E-01   -0.24070E-02  2368   0.123E+00    0.154E-02
RMM:   2    -0.312200030800E+02   -0.13466E-02   -0.27223E-03  1367   0.263E-01
    714 T=   969. E= -.29895030E+02 F= -.31220003E+02 E0= -.31176631E+02  EK= 0.32564E+01 SP= -.21E+01 SK= 0.19E+00 mag=     -0.009
       N       E                     dE             d eps       ncg     rms          rms(c)
DAV:   1    -0.312552557597E+02   -0.36599E-01   -0.24708E-02  2808   0.126E+00    0.218E-02
RMM:   2    -0.312566541582E+02   -0.13984E-02   -0.32207E-03  1544   0.254E-01    0.139E-02
RMM:   3    -0.312567931756E+02   -0.13902E-03   -0.60293E-04  1154   0.911E-02
    715 T=   923. E= -.29892129E+02 F= -.31256793E+02 E0= -.31212844E+02  EK= 0.31010E+01 SP= -.20E+01 SK= 0.22E+00 mag=     -0.008
       N       E                     dE             d eps       ncg     rms          rms(c)
DAV:   1    -0.312950519488E+02   -0.38398E-01   -0.18663E-02  2152   0.114E+00    0.218E-02
RMM:   2    -0.312964436321E+02   -0.13917E-02   -0.29136E-03  1494   0.271E-01    0.920E-03
RMM:   3    -0.312965375389E+02   -0.93907E-04   -0.47754E-04  1175   0.853E-02
    716 T=   877. E= -.29889134E+02 F= -.31296538E+02 E0= -.31252033E+02  EK= 0.29467E+01 SP= -.18E+01 SK= 0.24E+00 mag=      0.002
       N       E                     dE             d eps       ncg     rms          rms(c)
DAV:   1    -0.313368716127E+02   -0.40428E-01   -0.21533E-02  2576   0.115E+00    0.184E-02
RMM:   2    -0.313379967795E+02   -0.11252E-02   -0.25274E-03  1498   0.237E-01
    717 T=   833. E= -.29884809E+02 F= -.31337997E+02 E0= -.31292994E+02  EK= 0.27985E+01 SP= -.16E+01 SK= 0.25E+00 mag=      0.015
       N       E                     dE             d eps       ncg     rms          rms(c)
DAV:   1    -0.313796639931E+02   -0.42792E-01   -0.16349E-02  2760   0.114E+00    0.200E-02
RMM:   2    -0.313807848415E+02   -0.11208E-02   -0.30230E-03  1523   0.232E-01
    718 T=   790. E= -.29883858E+02 F= -.31380785E+02 E0= -.31335327E+02  EK= 0.26553E+01 SP= -.14E+01 SK= 0.26E+00 mag=      0.020
       N       E                     dE             d eps       ncg     rms          rms(c)
DAV:   1    -0.314231928898E+02   -0.43529E-01   -0.13852E-02  2432   0.105E+00    0.190E-02
RMM:   2    -0.314243453678E+02   -0.11525E-02   -0.31146E-03  1541   0.260E-01
    719 T=   751. E= -.29881431E+02 F= -.31424345E+02 E0= -.31378449E+02  EK= 0.25245E+01 SP= -.12E+01 SK= 0.25E+00 mag=      0.012
       N       E                     dE             d eps       ncg     rms          rms(c)
DAV:   1    -0.314670497101E+02   -0.43857E-01   -0.20116E-02  2496   0.110E+00    0.141E-02
RMM:   2    -0.314681075395E+02   -0.10578E-02   -0.31885E-03  1533   0.251E-01
    720 T=   716. E= -.29877408E+02 F= -.31468108E+02 E0= -.31421806E+02  EK= 0.24076E+01 SP= -.11E+01 SK= 0.23E+00 mag=     -0.006
       N       E                     dE             d eps       ncg     rms          rms(c)
DAV:   1    -0.315100287858E+02   -0.42979E-01   -0.11629E-02  2336   0.100E+00    0.179E-02
RMM:   2    -0.315110531684E+02   -0.10244E-02   -0.32067E-03  1507   0.258E-01
    721 T=   685. E= -.29873899E+02 F= -.31511053E+02 E0= -.31464404E+02  EK= 0.23029E+01 SP= -.88E+00 SK= 0.21E+00 mag=     -0.024
       N       E                     dE             d eps       ncg     rms          rms(c)
DAV:   1    -0.315519720872E+02   -0.41943E-01   -0.14508E-02  2544   0.104E+00    0.216E-02
RMM:   2    -0.315529851925E+02   -0.10131E-02   -0.34353E-03  1534   0.244E-01
    722 T=   658. E= -.29870231E+02 F= -.31552985E+02 E0= -.31506020E+02  EK= 0.22115E+01 SP= -.71E+00 SK= 0.19E+00 mag=     -0.028
       N       E                     dE             d eps       ncg     rms          rms(c)
DAV:   1    -0.315927887799E+02   -0.40817E-01   -0.12282E-02  2408   0.981E-01    0.176E-02
RMM:   2    -0.315936803286E+02   -0.89155E-03   -0.31705E-03  1514   0.254E-01
    723 T=   635. E= -.29866916E+02 F= -.31593680E+02 E0= -.31546390E+02  EK= 0.21331E+01 SP= -.56E+00 SK= 0.16E+00 mag=     -0.013
       N       E                     dE             d eps       ncg     rms          rms(c)
DAV:   1    -0.316319573121E+02   -0.39169E-01   -0.13346E-02  2472   0.993E-01    0.145E-02
RMM:   2    -0.316327973430E+02   -0.84003E-03   -0.31974E-03  1514   0.243E-01
    724 T=   615. E= -.29863618E+02 F= -.31632797E+02 E0= -.31585223E+02  EK= 0.20679E+01 SP= -.43E+00 SK= 0.13E+00 mag=      0.014
       N       E                     dE             d eps       ncg     rms          rms(c)
DAV:   1    -0.316690449527E+02   -0.37088E-01   -0.12273E-02  2448   0.957E-01    0.234E-02
RMM:   2    -0.316699466626E+02   -0.90171E-03   -0.35736E-03  1559   0.248E-01
    725 T=   600. E= -.29860149E+02 F= -.31669947E+02 E0= -.31622155E+02  EK= 0.20156E+01 SP= -.30E+00 SK= 0.98E-01 mag=      0.037
       N       E                     dE             d eps       ncg     rms          rms(c)
DAV:   1    -0.317043505138E+02   -0.35306E-01   -0.12151E-02  2496   0.964E-01    0.254E-02
RMM:   2    -0.317052002655E+02   -0.84975E-03   -0.33939E-03  1549   0.249E-01
    726 T=   588. E= -.29856939E+02 F= -.31705200E+02 E0= -.31657185E+02  EK= 0.19755E+01 SP= -.20E+00 SK= 0.71E-01 mag=      0.035
       N       E                     dE             d eps       ncg     rms          rms(c)
DAV:   1    -0.317377438501E+02   -0.33393E-01   -0.10540E-02  2512   0.937E-01    0.171E-02
RMM:   2    -0.317384722053E+02   -0.72836E-03   -0.31784E-03  1524   0.248E-01
    727 T=   579. E= -.29854049E+02 F= -.31738472E+02 E0= -.31690205E+02  EK= 0.19473E+01 SP= -.11E+00 SK= 0.47E-01 mag=      0.006
       N       E                     dE             d eps       ncg     rms          rms(c)
DAV:   1    -0.317685835469E+02   -0.30840E-01   -0.11745E-02  2472   0.941E-01    0.215E-02
RMM:   2    -0.317693797057E+02   -0.79616E-03   -0.36812E-03  1542   0.250E-01
    728 T=   575. E= -.29850795E+02 F= -.31769380E+02 E0= -.31720941E+02  EK= 0.19311E+01 SP= -.40E-01 SK= 0.27E-01 mag=     -0.033
       N       E                     dE             d eps       ncg     rms          rms(c)
DAV:   1    -0.317970589127E+02   -0.28475E-01   -0.12070E-02  2464   0.937E-01    0.318E-02
RMM:   2    -0.317979215150E+02   -0.86260E-03   -0.36337E-03  1538   0.256E-01
    729 T=   573. E= -.29847324E+02 F= -.31797922E+02 E0= -.31749373E+02  EK= 0.19264E+01 SP= 0.11E-01 SK= 0.13E-01 mag=     -0.054
       N       E                     dE             d eps       ncg     rms          rms(c)
DAV:   1    -0.318237524660E+02   -0.26694E-01   -0.11043E-02  2488   0.959E-01    0.276E-02
RMM:   2    -0.318245387339E+02   -0.78627E-03   -0.34814E-03  1534   0.254E-01
    730 T=   575. E= -.29844150E+02 F= -.31824539E+02 E0= -.31775809E+02  EK= 0.19331E+01 SP= 0.43E-01 SK= 0.39E-02 mag=     -0.037
       N       E                     dE             d eps       ncg     rms          rms(c)
DAV:   1    -0.318479290749E+02   -0.24177E-01   -0.10609E-02  2384   0.938E-01    0.184E-02
RMM:   2    -0.318486631313E+02   -0.73406E-03   -0.39219E-03  1556   0.265E-01
    731 T=   580. E= -.29840832E+02 F= -.31848663E+02 E0= -.31799746E+02  EK= 0.19508E+01 SP= 0.57E-01 SK= 0.15E-03 mag=      0.013
       N       E                     dE             d eps       ncg     rms          rms(c)
DAV:   1    -0.318689024933E+02   -0.20973E-01   -0.12948E-02  2376   0.948E-01    0.336E-02
RMM:   2    -0.318698238418E+02   -0.92135E-03   -0.43319E-03  1573   0.260E-01
    732 T=   589. E= -.29836932E+02 F= -.31869824E+02 E0= -.31820882E+02  EK= 0.19793E+01 SP= 0.52E-01 SK= 0.14E-02 mag=      0.058
       N       E                     dE             d eps       ncg     rms          rms(c)
DAV:   1    -0.318878455904E+02   -0.18943E-01   -0.13787E-02  2568   0.970E-01    0.406E-02
RMM:   2    -0.318888027444E+02   -0.95715E-03   -0.42405E-03  1574   0.277E-01
    733 T=   601. E= -.29833264E+02 F= -.31888803E+02 E0= -.31839809E+02  EK= 0.20185E+01 SP= 0.30E-01 SK= 0.70E-02 mag=      0.065
       N       E                     dE             d eps       ncg     rms          rms(c)
DAV:   1    -0.319049660744E+02   -0.17120E-01   -0.11785E-02  2432   0.955E-01    0.272E-02
RMM:   2    -0.319057839561E+02   -0.81788E-03   -0.41328E-03  1550   0.270E-01
    734 T=   615. E= -.29830229E+02 F= -.31905784E+02 E0= -.31856607E+02  EK= 0.20680E+01 SP= -.86E-02 SK= 0.16E-01 mag=      0.020
       N       E                     dE             d eps       ncg     rms          rms(c)
DAV:   1    -0.319190238102E+02   -0.14058E-01   -0.12539E-02  2392   0.969E-01    0.274E-02
RMM:   2    -0.319198388745E+02   -0.81506E-03   -0.42783E-03  1544   0.260E-01
    735 T=   633. E= -.29827102E+02 F= -.31919839E+02 E0= -.31870611E+02  EK= 0.21274E+01 SP= -.63E-01 SK= 0.28E-01 mag=     -0.052
       N       E                     dE             d eps       ncg     rms          rms(c)
DAV:   1    -0.319296519908E+02   -0.10628E-01   -0.14266E-02  2584   0.978E-01    0.520E-02
RMM:   2    -0.319308723231E+02   -0.12203E-02   -0.46688E-03  1555   0.269E-01
    736 T=   654. E= -.29823415E+02 F= -.31930872E+02 E0= -.31881834E+02  EK= 0.21969E+01 SP= -.13E+00 SK= 0.41E-01 mag=     -0.081
       N       E                     dE             d eps       ncg     rms          rms(c)
DAV:   1    -0.319399334752E+02   -0.10281E-01   -0.14491E-02  2592   0.105E+00    0.387E-02
RMM:   2    -0.319408236653E+02   -0.89019E-03   -0.46226E-03  1571   0.298E-01
    737 T=   677. E= -.29820782E+02 F= -.31940824E+02 E0= -.31891568E+02  EK= 0.22761E+01 SP= -.21E+00 SK= 0.55E-01 mag=     -0.044
       N       E                     dE             d eps       ncg     rms          rms(c)
DAV:   1    -0.319465940496E+02   -0.66606E-02   -0.17820E-02  2536   0.975E-01    0.284E-02
RMM:   2    -0.319474750853E+02   -0.88104E-03   -0.47391E-03  1558   0.278E-01
    738 T=   703. E= -.29817435E+02 F= -.31947475E+02 E0= -.31898157E+02  EK= 0.23640E+01 SP= -.30E+00 SK= 0.67E-01 mag=      0.036
       N       E                     dE             d eps       ncg     rms          rms(c)
DAV:   1    -0.319494234705E+02   -0.28294E-02   -0.15890E-02  2440   0.103E+00    0.534E-02
RMM:   2    -0.319507028924E+02   -0.12794E-02   -0.52184E-03  1574   0.276E-01
    739 T=   732. E= -.29813249E+02 F= -.31950703E+02 E0= -.31901650E+02  EK= 0.24596E+01 SP= -.40E+00 SK= 0.77E-01 mag=      0.100
       N       E                     dE             d eps       ncg     rms          rms(c)
DAV:   1    -0.319504554866E+02   -0.10320E-02   -0.16604E-02  2568   0.104E+00    0.570E-02
RMM:   2    -0.319518341099E+02   -0.13786E-02   -0.52690E-03  1566   0.296E-01    0.449E-02
RMM:   3    -0.319524997536E+02   -0.66564E-03   -0.18230E-03  1470   0.117E-01
    740 T=   762. E= -.29810810E+02 F= -.31952500E+02 E0= -.31903364E+02  EK= 0.25608E+01 SP= -.50E+00 SK= 0.84E-01 mag=      0.026
       N       E                     dE             d eps       ncg     rms          rms(c)
DAV:   1    -0.319483579068E+02    0.34762E-02   -0.40194E-02  2528   0.106E+00    0.753E-02
RMM:   2    -0.319501489285E+02   -0.17910E-02   -0.37208E-03  1440   0.258E-01    0.605E-02
RMM:   3    -0.319507600407E+02   -0.61111E-03   -0.10023E-03  1330   0.926E-02
    741 T=   793. E= -.29807240E+02 F= -.31950760E+02 E0= -.31901790E+02  EK= 0.26667E+01 SP= -.61E+00 SK= 0.87E-01 mag=     -0.048
       N       E                     dE             d eps       ncg     rms          rms(c)
DAV:   1    -0.319459821291E+02    0.41668E-02   -0.51234E-02  2592   0.110E+00    0.571E-02
RMM:   2    -0.319470618218E+02   -0.10797E-02   -0.58565E-03  1608   0.299E-01
    742 T=   826. E= -.29803287E+02 F= -.31947062E+02 E0= -.31898034E+02  EK= 0.27758E+01 SP= -.72E+00 SK= 0.86E-01 mag=     -0.079
       N       E                     dE             d eps       ncg     rms          rms(c)
DAV:   1    -0.319397767694E+02    0.62054E-02   -0.35409E-02  2672   0.109E+00    0.327E-02
RMM:   2    -0.319406854710E+02   -0.90870E-03   -0.52948E-03  1584   0.292E-01
    743 T=   858. E= -.29801602E+02 F= -.31940685E+02 E0= -.31891645E+02  EK= 0.28820E+01 SP= -.82E+00 SK= 0.80E-01 mag=     -0.044
       N       E                     dE             d eps       ncg     rms          rms(c)
DAV:   1    -0.319300674555E+02    0.97093E-02   -0.20154E-02  2680   0.112E+00    0.369E-02
RMM:   2    -0.319310017672E+02   -0.93431E-03   -0.50907E-03  1606   0.308E-01
    744 T=   888. E= -.29798510E+02 F= -.31931002E+02 E0= -.31882093E+02  EK= 0.29851E+01 SP= -.92E+00 SK= 0.71E-01 mag=      0.036
       N       E                     dE             d eps       ncg     rms          rms(c)
DAV:   1    -0.319165420013E+02    0.13525E-01   -0.21843E-02  2400   0.121E+00    0.573E-02
RMM:   2    -0.319178538112E+02   -0.13118E-02   -0.51289E-03  1571   0.302E-01
    745 T=   917. E= -.29792549E+02 F= -.31917854E+02 E0= -.31869331E+02  EK= 0.30832E+01 SP= -.10E+01 SK= 0.59E-01 mag=      0.100
       N       E                     dE             d eps       ncg     rms          rms(c)
DAV:   1    -0.319016518754E+02    0.14890E-01   -0.12510E-02  2624   0.114E+00    0.512E-02
RMM:   2    -0.319028891887E+02   -0.12373E-02   -0.51486E-03  1599   0.302E-01
    746 T=   943. E= -.29787321E+02 F= -.31902889E+02 E0= -.31854468E+02  EK= 0.31706E+01 SP= -.11E+01 SK= 0.46E-01 mag=      0.089
       N       E                     dE             d eps       ncg     rms          rms(c)
DAV:   1    -0.318843858380E+02    0.17266E-01   -0.20969E-02  2528   0.119E+00    0.237E-02
RMM:   2    -0.318853029834E+02   -0.91715E-03   -0.52569E-03  1569   0.312E-01
    747 T=   965. E= -.29782177E+02 F= -.31885303E+02 E0= -.31836870E+02  EK= 0.32437E+01 SP= -.12E+01 SK= 0.32E-01 mag=      0.003
       N       E                     dE             d eps       ncg     rms          rms(c)
DAV:   1    -0.318614752149E+02    0.22911E-01   -0.20324E-02  2488   0.118E+00    0.580E-02
RMM:   2    -0.318630082261E+02   -0.15330E-02   -0.63678E-03  1564   0.315E-01    0.451E-02
RMM:   3    -0.318636442286E+02   -0.63600E-03   -0.19196E-03  1458   0.126E-01
    748 T=   981. E= -.29777508E+02 F= -.31863644E+02 E0= -.31815611E+02  EK= 0.32972E+01 SP= -.12E+01 SK= 0.19E-01 mag=     -0.025
       N       E                     dE             d eps       ncg     rms          rms(c)
DAV:   1    -0.318390179662E+02    0.23990E-01   -0.25828E-02  2560   0.119E+00    0.385E-02
RMM:   2    -0.318401211468E+02   -0.11032E-02   -0.46860E-03  1579   0.298E-01
    749 T=   992. E= -.29770371E+02 F= -.31840121E+02 E0= -.31792181E+02  EK= 0.33339E+01 SP= -.13E+01 SK= 0.93E-02 mag=     -0.001
       N       E                     dE             d eps       ncg     rms          rms(c)
DAV:   1    -0.318115276892E+02    0.27490E-01   -0.37480E-02  3000   0.127E+00    0.513E-02
RMM:   2    -0.318127331261E+02   -0.12054E-02   -0.57907E-03  1607   0.291E-01
    750 T=   996. E= -.29763507E+02 F= -.31812733E+02 E0= -.31765195E+02  EK= 0.33471E+01 SP= -.13E+01 SK= 0.27E-02 mag=      0.040
       N       E                     dE             d eps       ncg     rms          rms(c)
DAV:   1    -0.317813326963E+02    0.30195E-01   -0.15386E-02  2336   0.113E+00    0.532E-02
RMM:   2    -0.317826845048E+02   -0.13518E-02   -0.54037E-03  1588   0.323E-01    0.387E-02
RMM:   3    -0.317832514117E+02   -0.56691E-03   -0.17798E-03  1475   0.130E-01
    751 T=   992. E= -.29761637E+02 F= -.31783251E+02 E0= -.31735997E+02  EK= 0.33330E+01 SP= -.13E+01 SK= 0.66E-04 mag=      0.023
       N       E                     dE             d eps       ncg     rms          rms(c)
DAV:   1    -0.317496327687E+02    0.33052E-01   -0.26084E-02  2664   0.123E+00    0.471E-02
RMM:   2    -0.317505979440E+02   -0.96518E-03   -0.37073E-03  1551   0.283E-01
    752 T=   982. E= -.29754532E+02 F= -.31750598E+02 E0= -.31703700E+02  EK= 0.33013E+01 SP= -.13E+01 SK= 0.12E-02 mag=     -0.029
       N       E                     dE             d eps       ncg     rms          rms(c)
DAV:   1    -0.317123891124E+02    0.37244E-01   -0.26949E-02  3144   0.127E+00    0.703E-02
RMM:   2    -0.317141786867E+02   -0.17896E-02   -0.60271E-03  1561   0.264E-01    0.545E-02
RMM:   3    -0.317153547164E+02   -0.11760E-02   -0.22478E-03  1400   0.118E-01
    753 T=   966. E= -.29748470E+02 F= -.31715355E+02 E0= -.31668919E+02  EK= 0.32477E+01 SP= -.13E+01 SK= 0.55E-02 mag=     -0.008
       N       E                     dE             d eps       ncg     rms          rms(c)
DAV:   1    -0.316762842529E+02    0.37894E-01   -0.24002E-02  2600   0.112E+00    0.632E-02
RMM:   2    -0.316777374132E+02   -0.14532E-02   -0.45245E-03  1479   0.268E-01    0.462E-02
RMM:   3    -0.316780740655E+02   -0.33665E-03   -0.95262E-04  1210   0.100E-01
    754 T=   944. E= -.29745792E+02 F= -.31678074E+02 E0= -.31631988E+02  EK= 0.31727E+01 SP= -.13E+01 SK= 0.12E-01 mag=      0.013
       N       E                     dE             d eps       ncg     rms          rms(c)
DAV:   1    -0.316370568654E+02    0.40681E-01   -0.38298E-02  2656   0.119E+00    0.572E-02
RMM:   2    -0.316382203173E+02   -0.11635E-02   -0.50732E-03  1586   0.299E-01
    755 T=   918. E= -.29739251E+02 F= -.31638220E+02 E0= -.31592650E+02  EK= 0.30862E+01 SP= -.12E+01 SK= 0.19E-01 mag=      0.023
       N       E                     dE             d eps       ncg     rms          rms(c)
DAV:   1    -0.315959821979E+02    0.41075E-01   -0.24912E-02  2944   0.120E+00    0.530E-02
RMM:   2    -0.315971114750E+02   -0.11293E-02   -0.49423E-03  1565   0.287E-01
    756 T=   889. E= -.29734998E+02 F= -.31597111E+02 E0= -.31551994E+02  EK= 0.29866E+01 SP= -.12E+01 SK= 0.27E-01 mag=      0.012
       N       E                     dE             d eps       ncg     rms          rms(c)
DAV:   1    -0.315540691056E+02    0.41913E-01   -0.14642E-02  2664   0.112E+00    0.282E-02
RMM:   2    -0.315548945203E+02   -0.82541E-03   -0.46821E-03  1548   0.303E-01
    757 T=   857. E= -.29731428E+02 F= -.31554895E+02 E0= -.31510174E+02  EK= 0.28793E+01 SP= -.11E+01 SK= 0.32E-01 mag=     -0.013
       N       E                     dE             d eps       ncg     rms          rms(c)
DAV:   1    -0.315096444450E+02    0.44425E-01   -0.19440E-02  2536   0.119E+00    0.432E-02
RMM:   2    -0.315106739720E+02   -0.10295E-02   -0.49278E-03  1550   0.287E-01
    758 T=   824. E= -.29725441E+02 F= -.31510674E+02 E0= -.31466560E+02  EK= 0.27700E+01 SP= -.10E+01 SK= 0.36E-01 mag=     -0.030
       N       E                     dE             d eps       ncg     rms          rms(c)
DAV:   1    -0.314642520122E+02    0.45392E-01   -0.11662E-02  2616   0.108E+00    0.597E-02
RMM:   2    -0.314656449991E+02   -0.13930E-02   -0.51157E-03  1558   0.307E-01    0.467E-02
RMM:   3    -0.314664632916E+02   -0.81829E-03   -0.20877E-03  1402   0.122E-01
    759 T=   791. E= -.29721270E+02 F= -.31466463E+02 E0= -.31422872E+02  EK= 0.26596E+01 SP= -.95E+00 SK= 0.36E-01 mag=      0.002
       N       E                     dE             d eps       ncg     rms          rms(c)
DAV:   1    -0.314200263034E+02    0.45619E-01   -0.23045E-02  2600   0.107E+00    0.625E-02
RMM:   2    -0.314213601238E+02   -0.13338E-02   -0.38668E-03  1462   0.282E-01
    760 T=   760. E= -.29713256E+02 F= -.31421360E+02 E0= -.31378368E+02  EK= 0.25556E+01 SP= -.88E+00 SK= 0.34E-01 mag=      0.047
       N       E                     dE             d eps       ncg     rms          rms(c)
DAV:   1    -0.313723385615E+02    0.47688E-01   -0.32382E-02  2968   0.114E+00    0.974E-02
RMM:   2    -0.313747671565E+02   -0.24286E-02   -0.57218E-03  1523   0.263E-01    0.750E-02
RMM:   3    -0.313771344687E+02   -0.23673E-02   -0.41531E-03  1401   0.123E-01    0.420E-02
RMM:   4    -0.313778329024E+02   -0.69843E-03   -0.19667E-03  1400   0.891E-02
    761 T=   731. E= -.29708435E+02 F= -.31377833E+02 E0= -.31335233E+02  EK= 0.24556E+01 SP= -.82E+00 SK= 0.30E-01 mag=     -0.012
       N       E                     dE             d eps       ncg     rms          rms(c)
DAV:   1    -0.313280191498E+02    0.49115E-01   -0.24924E-02  2600   0.101E+00    0.108E-01
RMM:   2    -0.313307287102E+02   -0.27096E-02   -0.70410E-03  1437   0.245E-01    0.829E-02
RMM:   3    -0.313332279440E+02   -0.24992E-02   -0.47425E-03  1400   0.115E-01    0.490E-02
RMM:   4    -0.313341660867E+02   -0.93814E-03   -0.22499E-03  1400   0.844E-02
    762 T=   702. E= -.29706844E+02 F= -.31334166E+02 E0= -.31292116E+02  EK= 0.23598E+01 SP= -.76E+00 SK= 0.24E-01 mag=      0.005
       N       E                     dE             d eps       ncg     rms          rms(c)
DAV:   1    -0.312909853934E+02    0.42243E-01   -0.16216E-02  2672   0.109E+00    0.506E-02
RMM:   2    -0.312916152160E+02   -0.62982E-03   -0.33193E-03  1487   0.246E-01
    763 T=   677. E= -.29702547E+02 F= -.31291615E+02 E0= -.31250093E+02  EK= 0.22768E+01 SP= -.70E+00 SK= 0.16E-01 mag=      0.054
       N       E                     dE             d eps       ncg     rms          rms(c)
DAV:   1    -0.312493440713E+02    0.41641E-01   -0.14347E-02  2704   0.982E-01    0.510E-02
RMM:   2    -0.312502314523E+02   -0.88738E-03   -0.39362E-03  1512   0.255E-01
    764 T=   656. E= -.29697973E+02 F= -.31250231E+02 E0= -.31209278E+02  EK= 0.22052E+01 SP= -.66E+00 SK= 0.96E-02 mag=      0.069
       N       E                     dE             d eps       ncg     rms          rms(c)
DAV:   1    -0.312104527065E+02    0.38891E-01   -0.89112E-03  2248   0.105E+00    0.425E-02
RMM:   2    -0.312112248709E+02   -0.77216E-03   -0.37767E-03  1537   0.274E-01
    765 T=   638. E= -.29694386E+02 F= -.31211225E+02 E0= -.31170772E+02  EK= 0.21456E+01 SP= -.63E+00 SK= 0.40E-02 mag=      0.027
       N       E                     dE             d eps       ncg     rms          rms(c)
DAV:   1    -0.311740093110E+02    0.36443E-01   -0.11807E-02  2488   0.995E-01    0.392E-02
RMM:   2    -0.311746453979E+02   -0.63609E-03   -0.39644E-03  1533   0.282E-01
    766 T=   625. E= -.29689527E+02 F= -.31174645E+02 E0= -.31134648E+02  EK= 0.21010E+01 SP= -.62E+00 SK= 0.62E-03 mag=     -0.045
       N       E                     dE             d eps       ncg     rms          rms(c)
DAV:   1    -0.311392492841E+02    0.34760E-01   -0.83246E-03  2264   0.966E-01    0.372E-02
RMM:   2    -0.311399939090E+02   -0.74462E-03   -0.42000E-03  1539   0.281E-01
    767 T=   616. E= -.29684125E+02 F= -.31139994E+02 E0= -.31100490E+02  EK= 0.20703E+01 SP= -.61E+00 SK= 0.25E-03 mag=     -0.081
       N       E                     dE             d eps       ncg     rms          rms(c)
DAV:   1    -0.311070356363E+02    0.32214E-01   -0.10569E-02  2408   0.997E-01    0.492E-02
RMM:   2    -0.311079264375E+02   -0.89080E-03   -0.42507E-03  1545   0.290E-01
    768 T=   611. E= -.29678198E+02 F= -.31107926E+02 E0= -.31068965E+02  EK= 0.20544E+01 SP= -.63E+00 SK= 0.34E-02 mag=     -0.047
       N       E                     dE             d eps       ncg     rms          rms(c)
DAV:   1    -0.310784058432E+02    0.28630E-01   -0.95754E-03  2440   0.969E-01    0.440E-02
RMM:   2    -0.310791794157E+02   -0.77357E-03   -0.40190E-03  1555   0.289E-01
    769 T=   611. E= -.29672722E+02 F= -.31079179E+02 E0= -.31040656E+02  EK= 0.20534E+01 SP= -.66E+00 SK= 0.10E-01 mag=      0.032
       N       E                     dE             d eps       ncg     rms          rms(c)
DAV:   1    -0.310524250953E+02    0.25981E-01   -0.94806E-03  2328   0.965E-01    0.370E-02
RMM:   2    -0.310531138311E+02   -0.68874E-03   -0.39725E-03  1524   0.276E-01
    770 T=   615. E= -.29667704E+02 F= -.31053114E+02 E0= -.31014990E+02  EK= 0.20667E+01 SP= -.70E+00 SK= 0.21E-01 mag=      0.091
       N       E                     dE             d eps       ncg     rms          rms(c)
DAV:   1    -0.310281814800E+02    0.24244E-01   -0.10517E-02  2424   0.980E-01    0.550E-02
RMM:   2    -0.310292911199E+02   -0.11096E-02   -0.47812E-03  1542   0.276E-01
    771 T=   623. E= -.29662347E+02 F= -.31029291E+02 E0= -.30991662E+02  EK= 0.20949E+01 SP= -.76E+00 SK= 0.34E-01 mag=      0.065
       N       E                     dE             d eps       ncg     rms          rms(c)
DAV:   1    -0.310084072167E+02    0.19774E-01   -0.10981E-02  2536   0.982E-01    0.516E-02
RMM:   2    -0.310093092972E+02   -0.90208E-03   -0.40829E-03  1556   0.283E-01
    772 T=   636. E= -.29658271E+02 F= -.31009309E+02 E0= -.30972091E+02  EK= 0.21380E+01 SP= -.84E+00 SK= 0.50E-01 mag=     -0.028
       N       E                     dE             d eps       ncg     rms          rms(c)
DAV:   1    -0.309912219202E+02    0.17185E-01   -0.11201E-02  2360   0.967E-01    0.426E-02
RMM:   2    -0.309920406895E+02   -0.81877E-03   -0.44374E-03  1554   0.286E-01
    773 T=   653. E= -.29654468E+02 F= -.30992041E+02 E0= -.30955156E+02  EK= 0.21958E+01 SP= -.93E+00 SK= 0.67E-01 mag=     -0.103
       N       E                     dE             d eps       ncg     rms          rms(c)
DAV:   1    -0.309753886459E+02    0.15833E-01   -0.13023E-02  2472   0.101E+00    0.565E-02
RMM:   2    -0.309765076138E+02   -0.11190E-02   -0.50897E-03  1561   0.293E-01
    774 T=   675. E= -.29649376E+02 F= -.30976508E+02 E0= -.30940046E+02  EK= 0.22690E+01 SP= -.10E+01 SK= 0.84E-01 mag=     -0.094
       N       E                     dE             d eps       ncg     rms          rms(c)
DAV:   1    -0.309619384638E+02    0.13450E-01   -0.12509E-02  2576   0.103E+00    0.659E-02
RMM:   2    -0.309634239981E+02   -0.14855E-02   -0.52311E-03  1565   0.301E-01    0.502E-02
RMM:   3    -0.309644313220E+02   -0.10073E-02   -0.24961E-03  1402   0.121E-01
    775 T=   701. E= -.29646214E+02 F= -.30964431E+02 E0= -.30928305E+02  EK= 0.23555E+01 SP= -.11E+01 SK= 0.10E+00 mag=      0.001
       N       E                     dE             d eps       ncg     rms          rms(c)
DAV:   1    -0.309516589700E+02    0.11765E-01   -0.18715E-02  2488   0.102E+00    0.704E-02
RMM:   2    -0.309531879936E+02   -0.15290E-02   -0.39763E-03  1459   0.244E-01    0.526E-02
RMM:   3    -0.309539077445E+02   -0.71975E-03   -0.12583E-03  1384   0.937E-02
    776 T=   730. E= -.29642988E+02 F= -.30953908E+02 E0= -.30918100E+02  EK= 0.24549E+01 SP= -.13E+01 SK= 0.11E+00 mag=      0.022
       N       E                     dE             d eps       ncg     rms          rms(c)
DAV:   1    -0.309450631663E+02    0.81248E-02   -0.35784E-02  2528   0.104E+00    0.404E-02
RMM:   2    -0.309457790882E+02   -0.71592E-03   -0.39213E-03  1552   0.267E-01
    777 T=   764. E= -.29638965E+02 F= -.30945779E+02 E0= -.30910263E+02  EK= 0.25674E+01 SP= -.14E+01 SK= 0.12E+00 mag=     -0.022
       N       E                     dE             d eps       ncg     rms          rms(c)
DAV:   1    -0.309379965925E+02    0.70666E-02   -0.28328E-02  2704   0.108E+00    0.346E-02
RMM:   2    -0.309387933349E+02   -0.79674E-03   -0.42457E-03  1579   0.273E-01
    778 T=   800. E= -.29636457E+02 F= -.30938793E+02 E0= -.30903534E+02  EK= 0.26879E+01 SP= -.15E+01 SK= 0.12E+00 mag=     -0.067
       N       E                     dE             d eps       ncg     rms          rms(c)
DAV:   1    -0.309317322177E+02    0.62644E-02   -0.11465E-02  2496   0.110E+00    0.375E-02
RMM:   2    -0.309325886614E+02   -0.85644E-03   -0.47400E-03  1612   0.305E-01
    779 T=   838. E= -.29633590E+02 F= -.30932589E+02 E0= -.30897545E+02  EK= 0.28155E+01 SP= -.16E+01 SK= 0.12E+00 mag=     -0.061
       N       E                     dE             d eps       ncg     rms          rms(c)
DAV:   1    -0.309258541233E+02    0.58781E-02   -0.19421E-02  2440   0.118E+00    0.379E-02
RMM:   2    -0.309268194493E+02   -0.96533E-03   -0.45557E-03  1563   0.289E-01
    780 T=   877. E= -.29628886E+02 F= -.30926819E+02 E0= -.30892012E+02  EK= 0.29481E+01 SP= -.18E+01 SK= 0.11E+00 mag=      0.001
       N       E                     dE             d eps       ncg     rms          rms(c)
DAV:   1    -0.309205087967E+02    0.53453E-02   -0.10212E-02  2464   0.114E+00    0.379E-02
RMM:   2    -0.309214773017E+02   -0.96851E-03   -0.44474E-03  1578   0.299E-01
    781 T=   916. E= -.29624275E+02 F= -.30921477E+02 E0= -.30886838E+02  EK= 0.30799E+01 SP= -.19E+01 SK= 0.97E-01 mag=      0.066
       N       E                     dE             d eps       ncg     rms          rms(c)
DAV:   1    -0.309146927950E+02    0.58160E-02   -0.16597E-02  2680   0.120E+00    0.354E-02
RMM:   2    -0.309156490304E+02   -0.95624E-03   -0.45396E-03  1609   0.292E-01
    782 T=   954. E= -.29619842E+02 F= -.30915649E+02 E0= -.30881091E+02  EK= 0.32055E+01 SP= -.20E+01 SK= 0.79E-01 mag=      0.074
       N       E                     dE             d eps       ncg     rms          rms(c)
DAV:   1    -0.309070971551E+02    0.75956E-02   -0.15048E-02  2424   0.119E+00    0.362E-02
RMM:   2    -0.309082878141E+02   -0.11907E-02   -0.57012E-03  1609   0.321E-01
    783 T=   987. E= -.29615647E+02 F= -.30908288E+02 E0= -.30873832E+02  EK= 0.33187E+01 SP= -.21E+01 SK= 0.59E-01 mag=      0.014
       N       E                     dE             d eps       ncg     rms          rms(c)
DAV:   1    -0.308977888319E+02    0.93083E-02   -0.21325E-02  2840   0.124E+00    0.500E-02
RMM:   2    -0.308992341770E+02   -0.14453E-02   -0.56912E-03  1626   0.314E-01    0.379E-02
RMM:   3    -0.308997453694E+02   -0.51119E-03   -0.16188E-03  1447   0.121E-01
    784 T=  1016. E= -.29612345E+02 F= -.30899745E+02 E0= -.30865318E+02  EK= 0.34141E+01 SP= -.22E+01 SK= 0.39E-01 mag=     -0.011
       N       E                     dE             d eps       ncg     rms          rms(c)
DAV:   1    -0.308873511992E+02    0.11883E-01   -0.24511E-02  2496   0.122E+00    0.539E-02
RMM:   2    -0.308887805484E+02   -0.14293E-02   -0.42889E-03  1506   0.299E-01    0.388E-02
RMM:   3    -0.308891573492E+02   -0.37680E-03   -0.10204E-03  1266   0.106E-01
    785 T=  1038. E= -.29607974E+02 F= -.30889157E+02 E0= -.30854680E+02  EK= 0.34881E+01 SP= -.22E+01 SK= 0.21E-01 mag=     -0.005
       N       E                     dE             d eps       ncg     rms          rms(c)
DAV:   1    -0.308754723212E+02    0.13308E-01   -0.32771E-02  2848   0.125E+00    0.409E-02
RMM:   2    -0.308765430807E+02   -0.10708E-02   -0.47231E-03  1621   0.286E-01
    786 T=  1053. E= -.29601677E+02 F= -.30876543E+02 E0= -.30841993E+02  EK= 0.35378E+01 SP= -.23E+01 SK= 0.79E-02 mag=      0.022
       N       E                     dE             d eps       ncg     rms          rms(c)
DAV:   1    -0.308607651214E+02    0.14707E-01   -0.24384E-02  2992   0.130E+00    0.314E-02
RMM:   2    -0.308618853618E+02   -0.11202E-02   -0.50568E-03  1633   0.297E-01
    787 T=  1058. E= -.29599464E+02 F= -.30861885E+02 E0= -.30827179E+02  EK= 0.35543E+01 SP= -.23E+01 SK= 0.96E-03 mag=      0.041
       N       E                     dE             d eps       ncg     rms          rms(c)
DAV:   1    -0.308435286326E+02    0.17236E-01   -0.17042E-02  2400   0.123E+00    0.331E-02
RMM:   2    -0.308447379596E+02   -0.12093E-02   -0.53596E-03  1649   0.345E-01
    788 T=  1054. E= -.29595931E+02 F= -.30844738E+02 E0= -.30809826E+02  EK= 0.35415E+01 SP= -.23E+01 SK= 0.74E-03 mag=      0.032
       N       E                     dE             d eps       ncg     rms          rms(c)
DAV:   1    -0.308242240811E+02    0.19305E-01   -0.27433E-02  3048   0.133E+00    0.358E-02
RMM:   2    -0.308255290516E+02   -0.13050E-02   -0.53735E-03  1621   0.317E-01
    789 T=  1042. E= -.29590486E+02 F= -.30825529E+02 E0= -.30790403E+02  EK= 0.35011E+01 SP= -.23E+01 SK= 0.70E-02 mag=     -0.006
       N       E                     dE             d eps       ncg     rms          rms(c)
DAV:   1    -0.308035491011E+02    0.20675E-01   -0.15453E-02  2720   0.124E+00    0.359E-02
RMM:   2    -0.308047979826E+02   -0.12489E-02   -0.52394E-03  1648   0.325E-01
    790 T=  1021. E= -.29585960E+02 F= -.30804798E+02 E0= -.30769370E+02  EK= 0.34328E+01 SP= -.22E+01 SK= 0.19E-01 mag=     -0.043
       N       E                     dE             d eps       ncg     rms          rms(c)
DAV:   1    -0.307819549768E+02    0.21594E-01   -0.24619E-02  2688   0.128E+00    0.311E-02
RMM:   2    -0.307831065979E+02   -0.11516E-02   -0.49973E-03  1635   0.318E-01
    791 T=   995. E= -.29580406E+02 F= -.30783107E+02 E0= -.30747303E+02  EK= 0.33427E+01 SP= -.22E+01 SK= 0.34E-01 mag=     -0.044
       N       E                     dE             d eps       ncg     rms          rms(c)
DAV:   1    -0.307593740040E+02    0.22581E-01   -0.19157E-02  2736   0.123E+00    0.332E-02
RMM:   2    -0.307607540133E+02   -0.13800E-02   -0.70754E-03  1686   0.331E-01    0.243E-02
RMM:   3    -0.307610120718E+02   -0.25806E-03   -0.14658E-03  1404   0.126E-01
    792 T=   962. E= -.29576202E+02 F= -.30761012E+02 E0= -.30724824E+02  EK= 0.32333E+01 SP= -.21E+01 SK= 0.50E-01 mag=     -0.003
       N       E                     dE             d eps       ncg     rms          rms(c)
DAV:   1    -0.307380597614E+02    0.22694E-01   -0.22214E-02  2400   0.120E+00    0.325E-02
RMM:   2    -0.307390167145E+02   -0.95695E-03   -0.36159E-03  1574   0.288E-01
    793 T=   927. E= -.29568071E+02 F= -.30739017E+02 E0= -.30702381E+02  EK= 0.31153E+01 SP= -.20E+01 SK= 0.66E-01 mag=      0.050
       N       E                     dE             d eps       ncg     rms          rms(c)
DAV:   1    -0.307169877569E+02    0.21072E-01   -0.25892E-02  2808   0.130E+00    0.386E-02
RMM:   2    -0.307180697675E+02   -0.10820E-02   -0.48745E-03  1622   0.276E-01
    794 T=   889. E= -.29561503E+02 F= -.30718070E+02 E0= -.30680958E+02  EK= 0.29888E+01 SP= -.19E+01 SK= 0.79E-01 mag=      0.065
       N       E                     dE             d eps       ncg     rms          rms(c)
DAV:   1    -0.306983042355E+02    0.18684E-01   -0.12928E-02  2560   0.111E+00    0.347E-02
RMM:   2    -0.306993085057E+02   -0.10043E-02   -0.48744E-03  1605   0.332E-01
    795 T=   850. E= -.29558049E+02 F= -.30699309E+02 E0= -.30661683E+02  EK= 0.28580E+01 SP= -.18E+01 SK= 0.89E-01 mag=      0.026
       N       E                     dE             d eps       ncg     rms          rms(c)
DAV:   1    -0.306820970990E+02    0.16207E-01   -0.25463E-02  2880   0.121E+00    0.338E-02
RMM:   2    -0.306831510396E+02   -0.10539E-02   -0.49464E-03  1577   0.294E-01
    796 T=   813. E= -.29553455E+02 F= -.30683151E+02 E0= -.30645000E+02  EK= 0.27317E+01 SP= -.17E+01 SK= 0.93E-01 mag=     -0.038
       N       E                     dE             d eps       ncg     rms          rms(c)
DAV:   1    -0.306696173898E+02    0.12480E-01   -0.12670E-02  2368   0.107E+00    0.377E-02
RMM:   2    -0.306706174115E+02   -0.10000E-02   -0.46920E-03  1566   0.315E-01
    797 T=   778. E= -.29548047E+02 F= -.30670617E+02 E0= -.30631869E+02  EK= 0.26138E+01 SP= -.16E+01 SK= 0.92E-01 mag=     -0.080
       N       E                     dE             d eps       ncg     rms          rms(c)
DAV:   1    -0.306613587431E+02    0.82586E-02   -0.18195E-02  2848   0.113E+00    0.365E-02
RMM:   2    -0.306623089600E+02   -0.95022E-03   -0.45061E-03  1570   0.280E-01
    798 T=   746. E= -.29542179E+02 F= -.30662309E+02 E0= -.30622953E+02  EK= 0.25069E+01 SP= -.15E+01 SK= 0.87E-01 mag=     -0.056
       N       E                     dE             d eps       ncg     rms          rms(c)
DAV:   1    -0.306578762257E+02    0.34825E-02   -0.13338E-02  2480   0.105E+00    0.329E-02
RMM:   2    -0.306587977051E+02   -0.92148E-03   -0.51376E-03  1602   0.309E-01
    799 T=   718. E= -.29537834E+02 F= -.30658798E+02 E0= -.30618813E+02  EK= 0.24115E+01 SP= -.14E+01 SK= 0.78E-01 mag=      0.023
       N       E                     dE             d eps       ncg     rms          rms(c)
DAV:   1    -0.306591207648E+02   -0.12445E-02   -0.18162E-02  2776   0.105E+00    0.474E-02
RMM:   2    -0.306602223228E+02   -0.11016E-02   -0.48864E-03  1573   0.277E-01
    800 T=   693. E= -.29533460E+02 F= -.30660222E+02 E0= -.30619644E+02  EK= 0.23305E+01 SP= -.13E+01 SK= 0.66E-01 mag=      0.083
       N       E                     dE             d eps       ncg     rms          rms(c)
DAV:   1    -0.306671069099E+02   -0.79861E-02   -0.14503E-02  2584   0.100E+00    0.411E-02
RMM:   2    -0.306680138453E+02   -0.90694E-03   -0.50003E-03  1603   0.300E-01
    801 T=   674. E= -.29529463E+02 F= -.30668014E+02 E0= -.30626705E+02  EK= 0.22658E+01 SP= -.12E+01 SK= 0.53E-01 mag=      0.086
       N       E                     dE             d eps       ncg     rms          rms(c)
DAV:   1    -0.306801984382E+02   -0.13092E-01   -0.17635E-02  2568   0.997E-01    0.445E-02
RMM:   2    -0.306811408621E+02   -0.94242E-03   -0.46842E-03  1541   0.289E-01
    802 T=   660. E= -.29524305E+02 F= -.30681141E+02 E0= -.30639167E+02  EK= 0.22181E+01 SP= -.11E+01 SK= 0.40E-01 mag=      0.022
       N       E                     dE             d eps       ncg     rms          rms(c)
DAV:   1    -0.306990058598E+02   -0.18807E-01   -0.12187E-02  2256   0.970E-01    0.494E-02
RMM:   2    -0.307000687521E+02   -0.10629E-02   -0.50243E-03  1580   0.279E-01
    803 T=   651. E= -.29519541E+02 F= -.30700069E+02 E0= -.30657436E+02  EK= 0.21864E+01 SP= -.10E+01 SK= 0.28E-01 mag=     -0.071
       N       E                     dE             d eps       ncg     rms          rms(c)
DAV:   1    -0.307240129081E+02   -0.25007E-01   -0.12632E-02  2744   0.970E-01    0.480E-02
RMM:   2    -0.307250002757E+02   -0.98737E-03   -0.44892E-03  1553   0.280E-01
    804 T=   646. E= -.29515211E+02 F= -.30725000E+02 E0= -.30681674E+02  EK= 0.21711E+01 SP= -.98E+00 SK= 0.18E-01 mag=     -0.105
       N       E                     dE             d eps       ncg     rms          rms(c)
DAV:   1    -0.307549611555E+02   -0.30948E-01   -0.15556E-02  2672   0.970E-01    0.457E-02
RMM:   2    -0.307558614359E+02   -0.90028E-03   -0.49090E-03  1566   0.285E-01
    805 T=   646. E= -.29511539E+02 F= -.30755861E+02 E0= -.30711743E+02  EK= 0.21714E+01 SP= -.94E+00 SK= 0.97E-02 mag=     -0.057
       N       E                     dE             d eps       ncg     rms          rms(c)
DAV:   1    -0.307899625042E+02   -0.35001E-01   -0.18271E-02  2728   0.952E-01    0.598E-02
RMM:   2    -0.307912865540E+02   -0.13240E-02   -0.52931E-03  1582   0.275E-01
    806 T=   651. E= -.29507326E+02 F= -.30791287E+02 E0= -.30746534E+02  EK= 0.21872E+01 SP= -.91E+00 SK= 0.41E-02 mag=      0.031
       N       E                     dE             d eps       ncg     rms          rms(c)
DAV:   1    -0.308319169101E+02   -0.41954E-01   -0.16304E-02  2624   0.976E-01    0.478E-02
RMM:   2    -0.308328505796E+02   -0.93367E-03   -0.52339E-03  1566   0.295E-01
    807 T=   660. E= -.29504391E+02 F= -.30832851E+02 E0= -.30787272E+02  EK= 0.22177E+01 SP= -.89E+00 SK= 0.96E-03 mag=      0.109
       N       E                     dE             d eps       ncg     rms          rms(c)
DAV:   1    -0.308762762799E+02   -0.44359E-01   -0.21952E-02  2616   0.964E-01    0.615E-02
RMM:   2    -0.308776758950E+02   -0.13996E-02   -0.57717E-03  1542   0.299E-01    0.490E-02
RMM:   3    -0.308783534322E+02   -0.67754E-03   -0.17836E-03  1499   0.114E-01
    808 T=   673. E= -.29501647E+02 F= -.30878353E+02 E0= -.30832035E+02  EK= 0.22614E+01 SP= -.88E+00 SK= 0.38E-06 mag=      0.057
       N       E                     dE             d eps       ncg     rms          rms(c)
DAV:   1    -0.309264176939E+02   -0.48742E-01   -0.16560E-02  2560   0.983E-01    0.575E-02
RMM:   2    -0.309274283308E+02   -0.10106E-02   -0.36519E-03  1503   0.246E-01
    809 T=   690. E= -.29497344E+02 F= -.30927428E+02 E0= -.30880364E+02  EK= 0.23191E+01 SP= -.89E+00 SK= 0.69E-03 mag=     -0.079
       N       E                     dE             d eps       ncg     rms          rms(c)
DAV:   1    -0.309767773217E+02   -0.50360E-01   -0.28462E-02  2728   0.105E+00    0.770E-02
RMM:   2    -0.309784672602E+02   -0.16899E-02   -0.52128E-03  1549   0.266E-01    0.610E-02
RMM:   3    -0.309795490052E+02   -0.10817E-02   -0.19512E-03  1417   0.107E-01
    810 T=   710. E= -.29493564E+02 F= -.30979549E+02 E0= -.30931859E+02  EK= 0.23875E+01 SP= -.90E+00 SK= 0.24E-02 mag=     -0.088
       N       E                     dE             d eps       ncg     rms          rms(c)
DAV:   1    -0.310331078877E+02   -0.54641E-01   -0.23324E-02  2608   0.984E-01    0.666E-02
RMM:   2    -0.310343312890E+02   -0.12234E-02   -0.45259E-03  1476   0.246E-01
    811 T=   733. E= -.29491025E+02 F= -.31034331E+02 E0= -.30985774E+02  EK= 0.24643E+01 SP= -.93E+00 SK= 0.45E-02 mag=      0.022
       N       E                     dE             d eps       ncg     rms          rms(c)
DAV:   1    -0.310853752433E+02   -0.52267E-01   -0.40328E-02  2744   0.109E+00    0.993E-02
RMM:   2    -0.310878025141E+02   -0.24273E-02   -0.66211E-03  1570   0.289E-01    0.757E-02
RMM:   3    -0.310901384671E+02   -0.23360E-02   -0.44559E-03  1401   0.134E-01    0.456E-02
RMM:   4    -0.310909829399E+02   -0.84447E-03   -0.24112E-03  1400   0.979E-02
    812 T=   758. E= -.29489278E+02 F= -.31090983E+02 E0= -.31041554E+02  EK= 0.25481E+01 SP= -.95E+00 SK= 0.63E-02 mag=      0.041
       N       E                     dE             d eps       ncg     rms          rms(c)
DAV:   1    -0.311423717257E+02   -0.52233E-01   -0.30212E-02  2568   0.103E+00    0.107E-01
RMM:   2    -0.311447083800E+02   -0.23367E-02   -0.72104E-03  1455   0.274E-01    0.773E-02
RMM:   3    -0.311465667035E+02   -0.18583E-02   -0.39647E-03  1400   0.118E-01    0.497E-02
RMM:   4    -0.311474009661E+02   -0.83426E-03   -0.16764E-03  1398   0.819E-02
    813 T=   784. E= -.29487917E+02 F= -.31147401E+02 E0= -.31097304E+02  EK= 0.26354E+01 SP= -.98E+00 SK= 0.74E-02 mag=     -0.010
       N       E                     dE             d eps       ncg     rms          rms(c)
DAV:   1    -0.312028407641E+02   -0.56274E-01   -0.19068E-02  2656   0.109E+00    0.612E-02
RMM:   2    -0.312035876757E+02   -0.74691E-03   -0.38194E-03  1497   0.253E-01
    814 T=   811. E= -.29484444E+02 F= -.31203588E+02 E0= -.31152828E+02  EK= 0.27269E+01 SP= -.10E+01 SK= 0.75E-02 mag=     -0.082
       N       E                     dE             d eps       ncg     rms          rms(c)
DAV:   1    -0.312579679435E+02   -0.55127E-01   -0.18446E-02  3016   0.108E+00    0.367E-02
RMM:   2    -0.312587390769E+02   -0.77113E-03   -0.43500E-03  1551   0.263E-01
    815 T=   838. E= -.29483165E+02 F= -.31258739E+02 E0= -.31207359E+02  EK= 0.28152E+01 SP= -.10E+01 SK= 0.65E-02 mag=     -0.130
       N       E                     dE             d eps       ncg     rms          rms(c)
DAV:   1    -0.313107094995E+02   -0.52742E-01   -0.14825E-02  2320   0.108E+00    0.491E-02
RMM:   2    -0.313116959501E+02   -0.98645E-03   -0.46696E-03  1542   0.287E-01
    816 T=   863. E= -.29481390E+02 F= -.31311696E+02 E0= -.31259794E+02  EK= 0.28995E+01 SP= -.11E+01 SK= 0.48E-02 mag=     -0.106
       N       E                     dE             d eps       ncg     rms          rms(c)
DAV:   1    -0.313615365731E+02   -0.50827E-01   -0.18445E-02  2688   0.118E+00    0.447E-02
RMM:   2    -0.313625532240E+02   -0.10167E-02   -0.48424E-03  1549   0.299E-01
    817 T=   887. E= -.29476679E+02 F= -.31362553E+02 E0= -.31310049E+02  EK= 0.29798E+01 SP= -.11E+01 SK= 0.27E-02 mag=     -0.008
       N       E                     dE             d eps       ncg     rms          rms(c)
DAV:   1    -0.314095012920E+02   -0.47965E-01   -0.11741E-02  2544   0.113E+00    0.399E-02
RMM:   2    -0.314104550443E+02   -0.95375E-03   -0.52309E-03  1590   0.325E-01
    818 T=   908. E= -.29471691E+02 F= -.31410455E+02 E0= -.31357468E+02  EK= 0.30500E+01 SP= -.11E+01 SK= 0.92E-03 mag=      0.119
       N       E                     dE             d eps       ncg     rms          rms(c)
DAV:   1    -0.314534063395E+02   -0.43905E-01   -0.19587E-02  2448   0.118E+00    0.417E-02
RMM:   2    -0.314544367876E+02   -0.10304E-02   -0.51342E-03  1575   0.307E-01
    819 T=   924. E= -.29466478E+02 F= -.31454437E+02 E0= -.31401229E+02  EK= 0.31066E+01 SP= -.11E+01 SK= 0.15E-04 mag=      0.203
       N       E                     dE             d eps       ncg     rms          rms(c)
DAV:   1    -0.314930054383E+02   -0.39599E-01   -0.19926E-02  2576   0.118E+00    0.592E-02
RMM:   2    -0.314944801670E+02   -0.14747E-02   -0.61658E-03  1603   0.316E-01    0.461E-02
RMM:   3    -0.314952491727E+02   -0.76901E-03   -0.22877E-03  1405   0.130E-01
    820 T=   936. E= -.29462827E+02 F= -.31495249E+02 E0= -.31441627E+02  EK= 0.31467E+01 SP= -.11E+01 SK= 0.67E-03 mag=      0.093
       N       E                     dE             d eps       ncg     rms          rms(c)
DAV:   1    -0.315310317250E+02   -0.36552E-01   -0.25005E-02  2616   0.115E+00    0.514E-02
RMM:   2    -0.315321772328E+02   -0.11455E-02   -0.48718E-03  1568   0.300E-01
    821 T=   944. E= -.29455291E+02 F= -.31532177E+02 E0= -.31478302E+02  EK= 0.31734E+01 SP= -.11E+01 SK= 0.33E-02 mag=     -0.153
       N       E                     dE             d eps       ncg     rms          rms(c)
DAV:   1    -0.315615077883E+02   -0.30476E-01   -0.39271E-02  3032   0.128E+00    0.822E-02
RMM:   2    -0.315634719144E+02   -0.19641E-02   -0.59880E-03  1566   0.288E-01    0.648E-02
RMM:   3    -0.315649214053E+02   -0.14495E-02   -0.25261E-03  1402   0.120E-01    0.449E-02
RMM:   4    -0.315657290981E+02   -0.80769E-03   -0.17448E-03  1400   0.869E-02
    822 T=   946. E= -.29449519E+02 F= -.31565729E+02 E0= -.31511616E+02  EK= 0.31808E+01 SP= -.11E+01 SK= 0.83E-02 mag=     -0.082
       N       E                     dE             d eps       ncg     rms          rms(c)
DAV:   1    -0.315920634349E+02   -0.27142E-01   -0.22323E-02  2432   0.112E+00    0.846E-02
RMM:   2    -0.315938779758E+02   -0.18145E-02   -0.63642E-03  1524   0.274E-01    0.619E-02
RMM:   3    -0.315949654791E+02   -0.10875E-02   -0.26737E-03  1400   0.116E-01
    823 T=   942. E= -.29446251E+02 F= -.31594965E+02 E0= -.31540931E+02  EK= 0.31671E+01 SP= -.10E+01 SK= 0.15E-01 mag=      0.131
       N       E                     dE             d eps       ncg     rms          rms(c)
DAV:   1    -0.316197900174E+02   -0.25912E-01   -0.31645E-02  2904   0.118E+00    0.777E-02
RMM:   2    -0.316210102690E+02   -0.12203E-02   -0.44061E-03  1496   0.279E-01
    824 T=   934. E= -.29440989E+02 F= -.31621010E+02 E0= -.31567455E+02  EK= 0.31387E+01 SP= -.98E+00 SK= 0.24E-01 mag=      0.300
       N       E                     dE             d eps       ncg     rms          rms(c)
DAV:   1    -0.316440279580E+02   -0.24238E-01   -0.22654E-02  3096   0.121E+00    0.593E-02
RMM:   2    -0.316451318738E+02   -0.11039E-02   -0.44023E-03  1550   0.261E-01
    825 T=   920. E= -.29439637E+02 F= -.31645132E+02 E0= -.31591483E+02  EK= 0.30923E+01 SP= -.92E+00 SK= 0.34E-01 mag=      0.306
       N       E                     dE             d eps       ncg     rms          rms(c)
DAV:   1    -0.316662265714E+02   -0.22199E-01   -0.14420E-02  2256   0.109E+00    0.499E-02
RMM:   2    -0.316672444428E+02   -0.10179E-02   -0.44567E-03  1555   0.293E-01
    826 T=   903. E= -.29436595E+02 F= -.31667244E+02 E0= -.31613373E+02  EK= 0.30355E+01 SP= -.85E+00 SK= 0.44E-01 mag=      0.105
       N       E                     dE             d eps       ncg     rms          rms(c)
DAV:   1    -0.316857334528E+02   -0.19507E-01   -0.23022E-02  3000   0.123E+00    0.573E-02
RMM:   2    -0.316869507111E+02   -0.12173E-02   -0.49416E-03  1540   0.289E-01
    827 T=   884. E= -.29430664E+02 F= -.31686951E+02 E0= -.31633502E+02  EK= 0.29712E+01 SP= -.77E+00 SK= 0.53E-01 mag=     -0.215
       N       E                     dE             d eps       ncg     rms          rms(c)
DAV:   1    -0.317029171529E+02   -0.17184E-01   -0.11626E-02  2632   0.106E+00    0.811E-02
RMM:   2    -0.317046817837E+02   -0.17646E-02   -0.53451E-03  1568   0.322E-01    0.646E-02
RMM:   3    -0.317058044703E+02   -0.11227E-02   -0.20317E-03  1442   0.129E-01
    828 T=   862. E= -.29427180E+02 F= -.31705804E+02 E0= -.31652867E+02  EK= 0.28980E+01 SP= -.68E+00 SK= 0.61E-01 mag=     -0.170
       N       E                     dE             d eps       ncg     rms          rms(c)
DAV:   1    -0.317225924912E+02   -0.17911E-01   -0.27679E-02  2552   0.109E+00    0.701E-02
RMM:   2    -0.317239667856E+02   -0.13743E-02   -0.44068E-03  1476   0.300E-01    0.523E-02
RMM:   3    -0.317244836510E+02   -0.51687E-03   -0.12347E-03  1369   0.108E-01
    829 T=   840. E= -.29422507E+02 F= -.31724484E+02 E0= -.31671447E+02  EK= 0.28228E+01 SP= -.59E+00 SK= 0.67E-01 mag=      0.072
       N       E                     dE             d eps       ncg     rms          rms(c)
DAV:   1    -0.317402423702E+02   -0.16276E-01   -0.30557E-02  2712   0.107E+00    0.780E-02
RMM:   2    -0.317414747433E+02   -0.12324E-02   -0.47706E-03  1564   0.266E-01
    830 T=   817. E= -.29415986E+02 F= -.31741475E+02 E0= -.31689313E+02  EK= 0.27469E+01 SP= -.49E+00 SK= 0.71E-01 mag=      0.294
       N       E                     dE             d eps       ncg     rms          rms(c)
DAV:   1    -0.317585652827E+02   -0.18323E-01   -0.21392E-02  2784   0.107E+00    0.709E-02
RMM:   2    -0.317596972133E+02   -0.11319E-02   -0.42641E-03  1528   0.263E-01
    831 T=   794. E= -.29413204E+02 F= -.31759697E+02 E0= -.31707828E+02  EK= 0.26698E+01 SP= -.39E+00 SK= 0.71E-01 mag=      0.328
       N       E                     dE             d eps       ncg     rms          rms(c)
DAV:   1    -0.317776550578E+02   -0.19090E-01   -0.17956E-02  2712   0.107E+00    0.533E-02
RMM:   2    -0.317786317801E+02   -0.97672E-03   -0.39959E-03  1545   0.285E-01
    832 T=   773. E= -.29409793E+02 F= -.31778632E+02 E0= -.31726720E+02  EK= 0.25972E+01 SP= -.30E+00 SK= 0.69E-01 mag=      0.117
       N       E                     dE             d eps       ncg     rms          rms(c)
DAV:   1    -0.317959898031E+02   -0.18335E-01   -0.17933E-02  2480   0.109E+00    0.601E-02
RMM:   2    -0.317971444112E+02   -0.11546E-02   -0.44547E-03  1543   0.281E-01
    833 T=   753. E= -.29403982E+02 F= -.31797144E+02 E0= -.31745827E+02  EK= 0.25312E+01 SP= -.20E+00 SK= 0.65E-01 mag=     -0.218
       N       E                     dE             d eps       ncg     rms          rms(c)
DAV:   1    -0.318139474601E+02   -0.17958E-01   -0.11776E-02  2512   0.990E-01    0.883E-02
RMM:   2    -0.318156512137E+02   -0.17038E-02   -0.46081E-03  1538   0.292E-01    0.687E-02
RMM:   3    -0.318166689331E+02   -0.10177E-02   -0.16467E-03  1427   0.113E-01
    834 T=   735. E= -.29399968E+02 F= -.31816669E+02 E0= -.31766014E+02  EK= 0.24702E+01 SP= -.11E+00 SK= 0.59E-01 mag=     -0.148
       N       E                     dE             d eps       ncg     rms          rms(c)
DAV:   1    -0.318355100503E+02   -0.19859E-01   -0.21730E-02  2560   0.986E-01    0.791E-02
RMM:   2    -0.318369522827E+02   -0.14422E-02   -0.47256E-03  1535   0.265E-01    0.580E-02
RMM:   3    -0.318374283146E+02   -0.47603E-03   -0.10395E-03  1340   0.964E-02
    835 T=   719. E= -.29396123E+02 F= -.31837428E+02 E0= -.31786825E+02  EK= 0.24171E+01 SP= -.27E-01 SK= 0.51E-01 mag=      0.089
       N       E                     dE             d eps       ncg     rms          rms(c)
DAV:   1    -0.318567014123E+02   -0.19749E-01   -0.42074E-02  2544   0.992E-01    0.748E-02
RMM:   2    -0.318579813010E+02   -0.12799E-02   -0.50104E-03  1556   0.267E-01
    836 T=   706. E= -.29390512E+02 F= -.31857981E+02 E0= -.31808155E+02  EK= 0.23731E+01 SP= 0.52E-01 SK= 0.42E-01 mag=      0.312
       N       E                     dE             d eps       ncg     rms          rms(c)
DAV:   1    -0.318785640532E+02   -0.21863E-01   -0.26147E-02  2632   0.986E-01    0.791E-02
RMM:   2    -0.318797839905E+02   -0.12199E-02   -0.42601E-03  1555   0.264E-01
    837 T=   695. E= -.29386955E+02 F= -.31879784E+02 E0= -.31830383E+02  EK= 0.23363E+01 SP= 0.12E+00 SK= 0.33E-01 mag=      0.348
       N       E                     dE             d eps       ncg     rms          rms(c)
DAV:   1    -0.319018744798E+02   -0.23310E-01   -0.14638E-02  2584   0.988E-01    0.528E-02
RMM:   2    -0.319027870851E+02   -0.91261E-03   -0.40081E-03  1546   0.280E-01
    838 T=   687. E= -.29383883E+02 F= -.31902787E+02 E0= -.31853378E+02  EK= 0.23086E+01 SP= 0.19E+00 SK= 0.25E-01 mag=      0.130
       N       E                     dE             d eps       ncg     rms          rms(c)
DAV:   1    -0.319240781905E+02   -0.22204E-01   -0.14092E-02  2376   0.102E+00    0.633E-02
RMM:   2    -0.319251113632E+02   -0.10332E-02   -0.39710E-03  1525   0.263E-01
    839 T=   682. E= -.29378441E+02 F= -.31925111E+02 E0= -.31876301E+02  EK= 0.22911E+01 SP= 0.24E+00 SK= 0.17E-01 mag=     -0.235
       N       E                     dE             d eps       ncg     rms          rms(c)
DAV:   1    -0.319442226531E+02   -0.20144E-01   -0.95119E-03  2304   0.954E-01    0.968E-02
RMM:   2    -0.319462020356E+02   -0.19794E-02   -0.47554E-03  1558   0.279E-01    0.758E-02
RMM:   3    -0.319480332252E+02   -0.18312E-02   -0.27935E-03  1400   0.123E-01    0.459E-02
RMM:   4    -0.319488022907E+02   -0.76907E-03   -0.14901E-03  1400   0.883E-02
    840 T=   679. E= -.29375781E+02 F= -.31948802E+02 E0= -.31900144E+02  EK= 0.22808E+01 SP= 0.28E+00 SK= 0.11E-01 mag=     -0.037
       N       E                     dE             d eps       ncg     rms          rms(c)
DAV:   1    -0.319665428801E+02   -0.18510E-01   -0.13556E-02  2480   0.988E-01    0.106E-01
RMM:   2    -0.319688097635E+02   -0.22669E-02   -0.35678E-03  1429   0.220E-01    0.842E-02
RMM:   3    -0.319705758696E+02   -0.17661E-02   -0.18320E-03  1400   0.929E-02    0.542E-02
RMM:   4    -0.319716734341E+02   -0.10976E-02   -0.17306E-03  1398   0.817E-02
    841 T=   678. E= -.29373322E+02 F= -.31971673E+02 E0= -.31923444E+02  EK= 0.22782E+01 SP= 0.31E+00 SK= 0.59E-02 mag=      0.043
       N       E                     dE             d eps       ncg     rms          rms(c)
DAV:   1    -0.319934160894E+02   -0.22840E-01   -0.17551E-02  2568   0.963E-01    0.387E-02
RMM:   2    -0.319940752710E+02   -0.65918E-03   -0.32133E-03  1481   0.227E-01
    842 T=   680. E= -.29369582E+02 F= -.31994075E+02 E0= -.31946200E+02  EK= 0.22849E+01 SP= 0.34E+00 SK= 0.24E-02 mag=      0.015
       N       E                     dE             d eps       ncg     rms          rms(c)
DAV:   1    -0.320147248732E+02   -0.21309E-01   -0.17319E-02  2688   0.978E-01    0.432E-02
RMM:   2    -0.320155757841E+02   -0.85091E-03   -0.36804E-03  1529   0.250E-01
    843 T=   684. E= -.29366470E+02 F= -.32015576E+02 E0= -.31968192E+02  EK= 0.22985E+01 SP= 0.35E+00 SK= 0.49E-03 mag=     -0.075
       N       E                     dE             d eps       ncg     rms          rms(c)
DAV:   1    -0.320353541633E+02   -0.20629E-01   -0.81589E-03  1960   0.987E-01    0.481E-02
RMM:   2    -0.320363108834E+02   -0.95672E-03   -0.41331E-03  1555   0.269E-01
    844 T=   690. E= -.29363627E+02 F= -.32036311E+02 E0= -.31989427E+02  EK= 0.23193E+01 SP= 0.35E+00 SK= 0.13E-04 mag=     -0.132
       N       E                     dE             d eps       ncg     rms          rms(c)
DAV:   1    -0.320554731320E+02   -0.20119E-01   -0.16620E-02  2712   0.105E+00    0.354E-02
RMM:   2    -0.320561914776E+02   -0.71835E-03   -0.38262E-03  1526   0.266E-01
    845 T=   699. E= -.29359278E+02 F= -.32056191E+02 E0= -.32009614E+02  EK= 0.23486E+01 SP= 0.35E+00 SK= 0.76E-03 mag=     -0.118
       N       E                     dE             d eps       ncg     rms          rms(c)
DAV:   1    -0.320726025194E+02   -0.17129E-01   -0.13112E-02  2464   0.974E-01    0.441E-02
RMM:   2    -0.320736448296E+02   -0.10423E-02   -0.48393E-03  1566   0.291E-01
    846 T=   709. E= -.29353831E+02 F= -.32073645E+02 E0= -.32027468E+02  EK= 0.23841E+01 SP= 0.33E+00 SK= 0.24E-02 mag=     -0.029
       N       E                     dE             d eps       ncg     rms          rms(c)
DAV:   1    -0.320882432382E+02   -0.15641E-01   -0.12244E-02  2376   0.102E+00    0.521E-02
RMM:   2    -0.320893604813E+02   -0.11172E-02   -0.46563E-03  1591   0.274E-01
    847 T=   721. E= -.29349144E+02 F= -.32089360E+02 E0= -.32043624E+02  EK= 0.24240E+01 SP= 0.31E+00 SK= 0.47E-02 mag=      0.093
       N       E                     dE             d eps       ncg     rms          rms(c)
DAV:   1    -0.321019716006E+02   -0.13728E-01   -0.12421E-02  2528   0.100E+00    0.419E-02
RMM:   2    -0.321029364816E+02   -0.96488E-03   -0.43792E-03  1550   0.279E-01
    848 T=   734. E= -.29345162E+02 F= -.32102936E+02 E0= -.32057669E+02  EK= 0.24673E+01 SP= 0.28E+00 SK= 0.72E-02 mag=      0.161
       N       E                     dE             d eps       ncg     rms          rms(c)
DAV:   1    -0.321123744325E+02   -0.10403E-01   -0.15379E-02  2568   0.103E+00    0.473E-02
RMM:   2    -0.321134513323E+02   -0.10769E-02   -0.48946E-03  1544   0.287E-01
    849 T=   748. E= -.29340566E+02 F= -.32113451E+02 E0= -.32068532E+02  EK= 0.25137E+01 SP= 0.25E+00 SK= 0.97E-02 mag=      0.127
       N       E                     dE             d eps       ncg     rms          rms(c)
DAV:   1    -0.321184997855E+02   -0.61254E-02   -0.14587E-02  2592   0.104E+00    0.677E-02
RMM:   2    -0.321201433264E+02   -0.16435E-02   -0.56120E-03  1562   0.288E-01    0.522E-02
RMM:   3    -0.321211928229E+02   -0.10495E-02   -0.24949E-03  1406   0.122E-01
    850 T=   762. E= -.29337284E+02 F= -.32121193E+02 E0= -.32076542E+02  EK= 0.25607E+01 SP= 0.21E+00 SK= 0.12E-01 mag=      0.005
       N       E                     dE             d eps       ncg     rms          rms(c)
DAV:   1    -0.321230866603E+02   -0.29433E-02   -0.24577E-02  2552   0.103E+00    0.642E-02
RMM:   2    -0.321245605342E+02   -0.14739E-02   -0.40466E-03  1469   0.253E-01    0.502E-02
RMM:   3    -0.321252194528E+02   -0.65892E-03   -0.12589E-03  1382   0.960E-02
    851 T=   776. E= -.29333772E+02 F= -.32125219E+02 E0= -.32081006E+02  EK= 0.26078E+01 SP= 0.17E+00 SK= 0.13E-01 mag=     -0.075
       N       E                     dE             d eps       ncg     rms          rms(c)
DAV:   1    -0.321244950776E+02    0.65457E-04   -0.31448E-02  2640   0.105E+00    0.556E-02
RMM:   2    -0.321254232362E+02   -0.92816E-03   -0.41438E-03  1575   0.260E-01
    852 T=   790. E= -.29328974E+02 F= -.32125423E+02 E0= -.32081529E+02  EK= 0.26552E+01 SP= 0.13E+00 SK= 0.14E-01 mag=     -0.072
       N       E                     dE             d eps       ncg     rms          rms(c)
DAV:   1    -0.321211790686E+02    0.33160E-02   -0.19966E-02  2776   0.108E+00    0.390E-02
RMM:   2    -0.321220394687E+02   -0.86040E-03   -0.40071E-03  1583   0.258E-01
    853 T=   803. E= -.29326540E+02 F= -.32122039E+02 E0= -.32078428E+02  EK= 0.26980E+01 SP= 0.83E-01 SK= 0.15E-01 mag=      0.009
       N       E                     dE             d eps       ncg     rms          rms(c)
DAV:   1    -0.321132109250E+02    0.79681E-02   -0.13124E-02  2360   0.105E+00    0.417E-02
RMM:   2    -0.321141062671E+02   -0.89534E-03   -0.39935E-03  1554   0.278E-01
    854 T=   814. E= -.29323589E+02 F= -.32114106E+02 E0= -.32070907E+02  EK= 0.27373E+01 SP= 0.39E-01 SK= 0.14E-01 mag=      0.117
       N       E                     dE             d eps       ncg     rms          rms(c)
DAV:   1    -0.320999629869E+02    0.13248E-01   -0.18534E-02  2712   0.115E+00    0.541E-02
RMM:   2    -0.321012210502E+02   -0.12581E-02   -0.43637E-03  1549   0.270E-01
    855 T=   825. E= -.29318548E+02 F= -.32101221E+02 E0= -.32058575E+02  EK= 0.27732E+01 SP= -.35E-02 SK= 0.13E-01 mag=      0.165
       N       E                     dE             d eps       ncg     rms          rms(c)
DAV:   1    -0.320835344488E+02    0.16429E-01   -0.13755E-02  2624   0.106E+00    0.523E-02
RMM:   2    -0.320848847804E+02   -0.13503E-02   -0.54003E-03  1625   0.303E-01    0.395E-02
RMM:   3    -0.320854086240E+02   -0.52384E-03   -0.14782E-03  1421   0.118E-01
    856 T=   834. E= -.29315757E+02 F= -.32085409E+02 E0= -.32042898E+02  EK= 0.28022E+01 SP= -.44E-01 SK= 0.12E-01 mag=      0.058
       N       E                     dE             d eps       ncg     rms          rms(c)
DAV:   1    -0.320630829294E+02    0.21802E-01   -0.22860E-02  2264   0.109E+00    0.525E-02
RMM:   2    -0.320643142893E+02   -0.12314E-02   -0.39816E-03  1563   0.274E-01
    857 T=   841. E= -.29309233E+02 F= -.32064314E+02 E0= -.32022235E+02  EK= 0.28271E+01 SP= -.82E-01 SK= 0.98E-02 mag=     -0.144
       N       E                     dE             d eps       ncg     rms          rms(c)
DAV:   1    -0.320343289846E+02    0.28754E-01   -0.29134E-02  3072   0.117E+00    0.989E-02
RMM:   2    -0.320368497370E+02   -0.25208E-02   -0.56885E-03  1541   0.264E-01    0.768E-02
RMM:   3    -0.320394802488E+02   -0.26305E-02   -0.51098E-03  1400   0.132E-01    0.401E-02
RMM:   4    -0.320401194297E+02   -0.63918E-03   -0.20454E-03  1400   0.916E-02
    858 T=   846. E= -.29305432E+02 F= -.32040119E+02 E0= -.31998162E+02  EK= 0.28428E+01 SP= -.12E+00 SK= 0.79E-02 mag=     -0.033
       N       E                     dE             d eps       ncg     rms          rms(c)
DAV:   1    -0.320052848589E+02    0.34195E-01   -0.27999E-02  2536   0.105E+00    0.106E-01
RMM:   2    -0.320079965739E+02   -0.27117E-02   -0.62627E-03  1470   0.267E-01    0.810E-02
RMM:   3    -0.320102412754E+02   -0.22447E-02   -0.38611E-03  1400   0.119E-01    0.525E-02
RMM:   4    -0.320112678205E+02   -0.10265E-02   -0.18015E-03  1400   0.856E-02
    859 T=   847. E= -.29303683E+02 F= -.32011268E+02 E0= -.31969688E+02  EK= 0.28480E+01 SP= -.15E+00 SK= 0.61E-02 mag=      0.052
       N       E                     dE             d eps       ncg     rms          rms(c)
DAV:   1    -0.319782137033E+02    0.32028E-01   -0.21959E-02  2920   0.114E+00    0.504E-02
RMM:   2    -0.319790603822E+02   -0.84668E-03   -0.33967E-03  1543   0.247E-01
    860 T=   847. E= -.29299893E+02 F= -.31979060E+02 E0= -.31937734E+02  EK= 0.28478E+01 SP= -.17E+00 SK= 0.46E-02 mag=      0.070
       N       E                     dE             d eps       ncg     rms          rms(c)
DAV:   1    -0.319425644268E+02    0.35649E-01   -0.18897E-02  3000   0.107E+00    0.462E-02
RMM:   2    -0.319436645249E+02   -0.11001E-02   -0.43224E-03  1556   0.260E-01
    861 T=   844. E= -.29298089E+02 F= -.31943665E+02 E0= -.31902627E+02  EK= 0.28381E+01 SP= -.20E+00 SK= 0.33E-02 mag=      0.015
       N       E                     dE             d eps       ncg     rms          rms(c)
DAV:   1    -0.319050502894E+02    0.37514E-01   -0.11633E-02  2256   0.110E+00    0.461E-02
RMM:   2    -0.319062027444E+02   -0.11525E-02   -0.43131E-03  1555   0.278E-01
    862 T=   840. E= -.29295659E+02 F= -.31906203E+02 E0= -.31865459E+02  EK= 0.28230E+01 SP= -.21E+00 SK= 0.23E-02 mag=     -0.077
       N       E                     dE             d eps       ncg     rms          rms(c)
DAV:   1    -0.318663451332E+02    0.38705E-01   -0.20368E-02  2944   0.112E+00    0.458E-02
RMM:   2    -0.318674126343E+02   -0.10675E-02   -0.46291E-03  1556   0.284E-01
    863 T=   835. E= -.29291162E+02 F= -.31867413E+02 E0= -.31826931E+02  EK= 0.28051E+01 SP= -.23E+00 SK= 0.15E-02 mag=     -0.147
       N       E                     dE             d eps       ncg     rms          rms(c)
DAV:   1    -0.318260857609E+02    0.40259E-01   -0.14321E-02  2584   0.107E+00    0.530E-02
RMM:   2    -0.318273567772E+02   -0.12710E-02   -0.50051E-03  1583   0.300E-01
    864 T=   828. E= -.29286841E+02 F= -.31827357E+02 E0= -.31787090E+02  EK= 0.27827E+01 SP= -.24E+00 SK= 0.10E-02 mag=     -0.132
       N       E                     dE             d eps       ncg     rms          rms(c)
DAV:   1    -0.317859801624E+02    0.40106E-01   -0.17972E-02  2760   0.109E+00    0.516E-02
RMM:   2    -0.317872308784E+02   -0.12507E-02   -0.46305E-03  1559   0.284E-01
    865 T=   821. E= -.29282301E+02 F= -.31787231E+02 E0= -.31747121E+02  EK= 0.27578E+01 SP= -.25E+00 SK= 0.69E-03 mag=     -0.017
       N       E                     dE             d eps       ncg     rms          rms(c)
DAV:   1    -0.317466783313E+02    0.39302E-01   -0.14738E-02  2600   0.108E+00    0.459E-02
RMM:   2    -0.317479107987E+02   -0.12325E-02   -0.52327E-03  1614   0.303E-01
    866 T=   813. E= -.29277575E+02 F= -.31747911E+02 E0= -.31708046E+02  EK= 0.27322E+01 SP= -.26E+00 SK= 0.51E-03 mag=      0.121
       N       E                     dE             d eps       ncg     rms          rms(c)
DAV:   1    -0.317085178570E+02    0.38160E-01   -0.20028E-02  2800   0.108E+00    0.605E-02
RMM:   2    -0.317099141948E+02   -0.13963E-02   -0.57739E-03  1580   0.307E-01    0.451E-02
RMM:   3    -0.317103253290E+02   -0.41113E-03   -0.14420E-03  1497   0.115E-01
    867 T=   805. E= -.29273695E+02 F= -.31710325E+02 E0= -.31670592E+02  EK= 0.27062E+01 SP= -.27E+00 SK= 0.42E-03 mag=      0.074
       N       E                     dE             d eps       ncg     rms          rms(c)
DAV:   1    -0.316737365372E+02    0.36178E-01   -0.21570E-02  2544   0.107E+00    0.527E-02
RMM:   2    -0.316748957025E+02   -0.11592E-02   -0.46461E-03  1549   0.267E-01
    868 T=   799. E= -.29268071E+02 F= -.31674896E+02 E0= -.31635270E+02  EK= 0.26837E+01 SP= -.28E+00 SK= 0.40E-03 mag=     -0.116
       N       E                     dE             d eps       ncg     rms          rms(c)
DAV:   1    -0.316389883111E+02    0.34748E-01   -0.30737E-02  3032   0.113E+00    0.830E-02
RMM:   2    -0.316408434528E+02   -0.18551E-02   -0.51590E-03  1579   0.261E-01    0.626E-02
RMM:   3    -0.316422391986E+02   -0.13957E-02   -0.24209E-03  1402   0.113E-01    0.403E-02
RMM:   4    -0.316428663950E+02   -0.62720E-03   -0.15027E-03  1398   0.779E-02
    869 T=   792. E= -.29263866E+02 F= -.31642866E+02 E0= -.31603246E+02  EK= 0.26632E+01 SP= -.28E+00 SK= 0.44E-03 mag=     -0.026
       N       E                     dE             d eps       ncg     rms          rms(c)
DAV:   1    -0.316101788193E+02    0.32060E-01   -0.20970E-02  2528   0.101E+00    0.847E-02
RMM:   2    -0.316121568380E+02   -0.19780E-02   -0.55700E-03  1462   0.256E-01    0.640E-02
RMM:   3    -0.316134379285E+02   -0.12811E-02   -0.25114E-03  1400   0.106E-01
    870 T=   787. E= -.29261013E+02 F= -.31613438E+02 E0= -.31574104E+02  EK= 0.26445E+01 SP= -.29E+00 SK= 0.55E-03 mag=      0.089
       N       E                     dE             d eps       ncg     rms          rms(c)
DAV:   1    -0.315888694770E+02    0.23287E-01   -0.34101E-02  2640   0.105E+00    0.630E-02
RMM:   2    -0.315898590012E+02   -0.98952E-03   -0.39658E-03  1558   0.267E-01
    871 T=   784. E= -.29257159E+02 F= -.31589859E+02 E0= -.31550511E+02  EK= 0.26336E+01 SP= -.30E+00 SK= 0.72E-03 mag=      0.144
       N       E                     dE             d eps       ncg     rms          rms(c)
DAV:   1    -0.315703509648E+02    0.18519E-01   -0.30843E-02  2776   0.109E+00    0.381E-02
RMM:   2    -0.315712160542E+02   -0.86509E-03   -0.40749E-03  1543   0.264E-01
    872 T=   782. E= -.29254534E+02 F= -.31571216E+02 E0= -.31531824E+02  EK= 0.26278E+01 SP= -.31E+00 SK= 0.94E-03 mag=      0.089
       N       E                     dE             d eps       ncg     rms          rms(c)
DAV:   1    -0.315569091466E+02    0.13442E-01   -0.14066E-02  2568   0.102E+00    0.418E-02
RMM:   2    -0.315577871469E+02   -0.87800E-03   -0.41574E-03  1539   0.286E-01
    873 T=   782. E= -.29250936E+02 F= -.31557787E+02 E0= -.31518395E+02  EK= 0.26297E+01 SP= -.32E+00 SK= 0.12E-02 mag=     -0.048
       N       E                     dE             d eps       ncg     rms          rms(c)
DAV:   1    -0.315485535601E+02    0.83556E-02   -0.17952E-02  2576   0.113E+00    0.560E-02
RMM:   2    -0.315497399403E+02   -0.11864E-02   -0.44266E-03  1541   0.272E-01
    874 T=   786. E= -.29245756E+02 F= -.31549740E+02 E0= -.31510529E+02  EK= 0.26399E+01 SP= -.34E+00 SK= 0.15E-02 mag=     -0.170
       N       E                     dE             d eps       ncg     rms          rms(c)
DAV:   1    -0.315475174042E+02    0.10362E-02   -0.99578E-03  2544   0.101E+00    0.494E-02
RMM:   2    -0.315485979689E+02   -0.10806E-02   -0.42206E-03  1558   0.291E-01
    875 T=   791. E= -.29241735E+02 F= -.31548598E+02 E0= -.31509372E+02  EK= 0.26572E+01 SP= -.35E+00 SK= 0.17E-02 mag=     -0.168
       N       E                     dE             d eps       ncg     rms          rms(c)
DAV:   1    -0.315530125723E+02   -0.54952E-02   -0.16314E-02  2560   0.111E+00    0.339E-02
RMM:   2    -0.315538660617E+02   -0.85349E-03   -0.45333E-03  1567   0.287E-01
    876 T=   798. E= -.29237474E+02 F= -.31553866E+02 E0= -.31514478E+02  EK= 0.26819E+01 SP= -.37E+00 SK= 0.18E-02 mag=     -0.030
       N       E                     dE             d eps       ncg     rms          rms(c)
DAV:   1    -0.315625076563E+02   -0.94951E-02   -0.15750E-02  2544   0.105E+00    0.564E-02
RMM:   2    -0.315637935638E+02   -0.12859E-02   -0.52740E-03  1560   0.304E-01
    877 T=   807. E= -.29232351E+02 F= -.31563794E+02 E0= -.31524525E+02  EK= 0.27126E+01 SP= -.38E+00 SK= 0.17E-02 mag=      0.154
       N       E                     dE             d eps       ncg     rms          rms(c)
DAV:   1    -0.315779218989E+02   -0.15414E-01   -0.18217E-02  2696   0.115E+00    0.707E-02
RMM:   2    -0.315795453377E+02   -0.16234E-02   -0.52123E-03  1571   0.300E-01    0.553E-02
RMM:   3    -0.315804180463E+02   -0.87271E-03   -0.18345E-03  1433   0.119E-01
    878 T=   818. E= -.29228883E+02 F= -.31580418E+02 E0= -.31541109E+02  EK= 0.27478E+01 SP= -.40E+00 SK= 0.15E-02 mag=      0.064
       N       E                     dE             d eps       ncg     rms          rms(c)
DAV:   1    -0.315994675750E+02   -0.19922E-01   -0.28756E-02  2600   0.106E+00    0.761E-02
RMM:   2    -0.316012435174E+02   -0.17759E-02   -0.48645E-03  1477   0.277E-01    0.585E-02
RMM:   3    -0.316018537182E+02   -0.61020E-03   -0.11594E-03  1356   0.100E-01
    879 T=   829. E= -.29225000E+02 F= -.31601854E+02 E0= -.31562491E+02  EK= 0.27870E+01 SP= -.41E+00 SK= 0.11E-02 mag=     -0.070
       N       E                     dE             d eps       ncg     rms          rms(c)
DAV:   1    -0.316271799491E+02   -0.25936E-01   -0.42522E-02  2640   0.111E+00    0.571E-02
RMM:   2    -0.316282878201E+02   -0.11079E-02   -0.49371E-03  1557   0.292E-01
    880 T=   842. E= -.29220019E+02 F= -.31628288E+02 E0= -.31588879E+02  EK= 0.28299E+01 SP= -.42E+00 SK= 0.65E-03 mag=     -0.161
       N       E                     dE             d eps       ncg     rms          rms(c)
DAV:   1    -0.316579101095E+02   -0.30730E-01   -0.27912E-02  2688   0.112E+00    0.428E-02
RMM:   2    -0.316589258365E+02   -0.10157E-02   -0.47150E-03  1574   0.287E-01
    881 T=   854. E= -.29217192E+02 F= -.31658926E+02 E0= -.31619381E+02  EK= 0.28714E+01 SP= -.43E+00 SK= 0.21E-03 mag=     -0.118
       N       E                     dE             d eps       ncg     rms          rms(c)
DAV:   1    -0.316918158596E+02   -0.33906E-01   -0.18115E-02  2696   0.112E+00    0.358E-02
RMM:   2    -0.316927371159E+02   -0.92126E-03   -0.49286E-03  1586   0.316E-01
    882 T=   866. E= -.29213702E+02 F= -.31692737E+02 E0= -.31653068E+02  EK= 0.29120E+01 SP= -.43E+00 SK= 0.67E-06 mag=      0.034
       N       E                     dE             d eps       ncg     rms          rms(c)
DAV:   1    -0.317266503410E+02   -0.34834E-01   -0.23906E-02  2464   0.120E+00    0.589E-02
RMM:   2    -0.317281180678E+02   -0.14677E-02   -0.53807E-03  1543   0.304E-01    0.463E-02
RMM:   3    -0.317288525054E+02   -0.73444E-03   -0.19110E-03  1436   0.119E-01
    883 T=   878. E= -.29209098E+02 F= -.31728853E+02 E0= -.31689204E+02  EK= 0.29500E+01 SP= -.43E+00 SK= 0.24E-03 mag=      0.051
       N       E                     dE             d eps       ncg     rms          rms(c)
DAV:   1    -0.317662287950E+02   -0.38111E-01   -0.21640E-02  2624   0.110E+00    0.468E-02
RMM:   2    -0.317671586519E+02   -0.92986E-03   -0.33551E-03  1501   0.256E-01
    884 T=   888. E= -.29203583E+02 F= -.31767159E+02 E0= -.31727358E+02  EK= 0.29840E+01 SP= -.42E+00 SK= 0.12E-02 mag=     -0.039
       N       E                     dE             d eps       ncg     rms          rms(c)
DAV:   1    -0.318038318006E+02   -0.37603E-01   -0.32362E-02  2904   0.122E+00    0.648E-02
RMM:   2    -0.318052207631E+02   -0.13890E-02   -0.46790E-03  1555   0.271E-01    0.476E-02
RMM:   3    -0.318058941328E+02   -0.67337E-03   -0.14389E-03  1431   0.106E-01
    885 T=   896. E= -.29198083E+02 F= -.31805894E+02 E0= -.31766080E+02  EK= 0.30101E+01 SP= -.41E+00 SK= 0.31E-02 mag=     -0.050
       N       E                     dE             d eps       ncg     rms          rms(c)
DAV:   1    -0.318444916241E+02   -0.39271E-01   -0.17442E-02  2464   0.108E+00    0.516E-02
RMM:   2    -0.318454798269E+02   -0.98820E-03   -0.45583E-03  1585   0.277E-01
    886 T=   901. E= -.29193664E+02 F= -.31845480E+02 E0= -.31805484E+02  EK= 0.30271E+01 SP= -.38E+00 SK= 0.60E-02 mag=      0.006
       N       E                     dE             d eps       ncg     rms          rms(c)
DAV:   1    -0.318822702682E+02   -0.37779E-01   -0.32823E-02  3000   0.121E+00    0.607E-02
RMM:   2    -0.318836162379E+02   -0.13460E-02   -0.51501E-03  1558   0.284E-01
    887 T=   903. E= -.29188470E+02 F= -.31883616E+02 E0= -.31843634E+02  EK= 0.30338E+01 SP= -.35E+00 SK= 0.10E-01 mag=      0.061
       N       E                     dE             d eps       ncg     rms          rms(c)
DAV:   1    -0.319205554247E+02   -0.38285E-01   -0.14621E-02  2392   0.110E+00    0.537E-02
RMM:   2    -0.319217124080E+02   -0.11570E-02   -0.52218E-03  1604   0.317E-01
    888 T=   901. E= -.29185340E+02 F= -.31921712E+02 E0= -.31881570E+02  EK= 0.30288E+01 SP= -.31E+00 SK= 0.15E-01 mag=      0.067
       N       E                     dE             d eps       ncg     rms          rms(c)
DAV:   1    -0.319568795905E+02   -0.36324E-01   -0.26843E-02  2672   0.121E+00    0.384E-02
RMM:   2    -0.319579109256E+02   -0.10313E-02   -0.53320E-03  1597   0.314E-01
    889 T=   897. E= -.29180076E+02 F= -.31957911E+02 E0= -.31917581E+02  EK= 0.30148E+01 SP= -.26E+00 SK= 0.22E-01 mag=      0.023
       N       E                     dE             d eps       ncg     rms          rms(c)
DAV:   1    -0.319896064056E+02   -0.32727E-01   -0.17696E-02  2568   0.111E+00    0.493E-02
RMM:   2    -0.319909699829E+02   -0.13636E-02   -0.56154E-03  1562   0.310E-01    0.375E-02
RMM:   3    -0.319915452843E+02   -0.57530E-03   -0.20135E-03  1463   0.123E-01
    890 T=   889. E= -.29175861E+02 F= -.31991545E+02 E0= -.31951123E+02  EK= 0.29885E+01 SP= -.20E+00 SK= 0.28E-01 mag=     -0.011
       N       E                     dE             d eps       ncg     rms          rms(c)
DAV:   1    -0.320220791328E+02   -0.31109E-01   -0.16758E-02  2520   0.110E+00    0.412E-02
RMM:   2    -0.320229859228E+02   -0.90679E-03   -0.37091E-03  1551   0.279E-01
    891 T=   879. E= -.29169064E+02 F= -.32022986E+02 E0= -.31982384E+02  EK= 0.29552E+01 SP= -.14E+00 SK= 0.35E-01 mag=     -0.030
       N       E                     dE             d eps       ncg     rms          rms(c)
DAV:   1    -0.320501160335E+02   -0.28037E-01   -0.25731E-02  3016   0.116E+00    0.453E-02
RMM:   2    -0.320511687370E+02   -0.10527E-02   -0.42756E-03  1569   0.248E-01
    892 T=   866. E= -.29163154E+02 F= -.32051169E+02 E0= -.32010425E+02  EK= 0.29114E+01 SP= -.65E-01 SK= 0.41E-01 mag=     -0.027
       N       E                     dE             d eps       ncg     rms          rms(c)
DAV:   1    -0.320754227851E+02   -0.25307E-01   -0.11104E-02  2016   0.105E+00    0.398E-02
RMM:   2    -0.320764932323E+02   -0.10704E-02   -0.48364E-03  1560   0.290E-01
    893 T=   850. E= -.29159683E+02 F= -.32076493E+02 E0= -.32035599E+02  EK= 0.28577E+01 SP= 0.12E-01 SK= 0.47E-01 mag=     -0.002
       N       E                     dE             d eps       ncg     rms          rms(c)
DAV:   1    -0.320982317040E+02   -0.22809E-01   -0.21586E-02  2800   0.118E+00    0.390E-02
RMM:   2    -0.320992531845E+02   -0.10215E-02   -0.48047E-03  1578   0.285E-01
    894 T=   833. E= -.29154899E+02 F= -.32099253E+02 E0= -.32058165E+02  EK= 0.28000E+01 SP= 0.93E-01 SK= 0.51E-01 mag=      0.031
       N       E                     dE             d eps       ncg     rms          rms(c)
DAV:   1    -0.321177062527E+02   -0.19475E-01   -0.15718E-02  2696   0.101E+00    0.371E-02
RMM:   2    -0.321188189372E+02   -0.11127E-02   -0.58053E-03  1607   0.320E-01
    895 T=   815. E= -.29150325E+02 F= -.32118819E+02 E0= -.32077520E+02  EK= 0.27379E+01 SP= 0.18E+00 SK= 0.54E-01 mag=      0.053
       N       E                     dE             d eps       ncg     rms          rms(c)
DAV:   1    -0.321337941878E+02   -0.16088E-01   -0.17977E-02  2656   0.108E+00    0.502E-02
RMM:   2    -0.321350335363E+02   -0.12393E-02   -0.50845E-03  1572   0.281E-01
    896 T=   796. E= -.29145306E+02 F= -.32135034E+02 E0= -.32093601E+02  EK= 0.26736E+01 SP= 0.26E+00 SK= 0.54E-01 mag=      0.040
       N       E                     dE             d eps       ncg     rms          rms(c)
DAV:   1    -0.321481248125E+02   -0.14331E-01   -0.14333E-02  2664   0.104E+00    0.447E-02
RMM:   2    -0.321492136946E+02   -0.10889E-02   -0.54955E-03  1594   0.290E-01
    897 T=   776. E= -.29140643E+02 F= -.32149214E+02 E0= -.32107525E+02  EK= 0.26093E+01 SP= 0.35E+00 SK= 0.53E-01 mag=     -0.007
       N       E                     dE             d eps       ncg     rms          rms(c)
DAV:   1    -0.321595847367E+02   -0.11460E-01   -0.15914E-02  2624   0.105E+00    0.432E-02
RMM:   2    -0.321606171468E+02   -0.10324E-02   -0.48818E-03  1553   0.290E-01
    898 T=   758. E= -.29135729E+02 F= -.32160617E+02 E0= -.32118689E+02  EK= 0.25463E+01 SP= 0.43E+00 SK= 0.49E-01 mag=     -0.061
       N       E                     dE             d eps       ncg     rms          rms(c)
DAV:   1    -0.321682219774E+02   -0.86372E-02   -0.13673E-02  2432   0.102E+00    0.513E-02
RMM:   2    -0.321694071611E+02   -0.11852E-02   -0.48633E-03  1530   0.282E-01
    899 T=   740. E= -.29130664E+02 F= -.32169407E+02 E0= -.32127316E+02  EK= 0.24860E+01 SP= 0.51E+00 SK= 0.44E-01 mag=     -0.084
       N       E                     dE             d eps       ncg     rms          rms(c)
DAV:   1    -0.321751142935E+02   -0.68923E-02   -0.15518E-02  2752   0.105E+00    0.538E-02
RMM:   2    -0.321763713095E+02   -0.12570E-02   -0.48755E-03  1553   0.280E-01
    900 T=   723. E= -.29125627E+02 F= -.32176371E+02 E0= -.32134066E+02  EK= 0.24302E+01 SP= 0.58E+00 SK= 0.38E-01 mag=     -0.040
       N       E                     dE             d eps       ncg     rms          rms(c)
DAV:   1    -0.321812411794E+02   -0.61269E-02   -0.15906E-02  2696   0.102E+00    0.446E-02
RMM:   2    -0.321822180455E+02   -0.97687E-03   -0.50164E-03  1547   0.304E-01
    901 T=   708. E= -.29121393E+02 F= -.32182218E+02 E0= -.32139514E+02  EK= 0.23796E+01 SP= 0.65E+00 SK= 0.31E-01 mag=      0.050
       N       E                     dE             d eps       ncg     rms          rms(c)
DAV:   1    -0.321830424160E+02   -0.18012E-02   -0.22261E-02  2736   0.102E+00    0.698E-02
RMM:   2    -0.321847162733E+02   -0.16739E-02   -0.59105E-03  1552   0.290E-01    0.535E-02
RMM:   3    -0.321855966174E+02   -0.88034E-03   -0.21926E-03  1455   0.115E-01
    902 T=   695. E= -.29117356E+02 F= -.32185597E+02 E0= -.32142701E+02  EK= 0.23342E+01 SP= 0.71E+00 SK= 0.23E-01 mag=      0.052
       N       E                     dE             d eps       ncg     rms          rms(c)
DAV:   1    -0.321868834612E+02   -0.21672E-02   -0.17361E-02  2560   0.992E-01    0.533E-02
RMM:   2    -0.321879589931E+02   -0.10755E-02   -0.39888E-03  1502   0.258E-01
    903 T=   684. E= -.29112244E+02 F= -.32187959E+02 E0= -.32144695E+02  EK= 0.22974E+01 SP= 0.76E+00 SK= 0.16E-01 mag=     -0.020
       N       E                     dE             d eps       ncg     rms          rms(c)
DAV:   1    -0.321866275706E+02    0.25589E-03   -0.32822E-02  2936   0.108E+00    0.689E-02
RMM:   2    -0.321882242848E+02   -0.15967E-02   -0.48943E-03  1539   0.261E-01    0.537E-02
RMM:   3    -0.321892172117E+02   -0.99293E-03   -0.19656E-03  1420   0.106E-01
    904 T=   675. E= -.29107857E+02 F= -.32189217E+02 E0= -.32145679E+02  EK= 0.22675E+01 SP= 0.80E+00 SK= 0.10E-01 mag=     -0.039
       N       E                     dE             d eps       ncg     rms          rms(c)
DAV:   1    -0.321880357108E+02    0.18857E-03   -0.18244E-02  2512   0.954E-01    0.645E-02
RMM:   2    -0.321892831218E+02   -0.12474E-02   -0.39917E-03  1416   0.241E-01
    905 T=   668. E= -.29104516E+02 F= -.32189283E+02 E0= -.32145397E+02  EK= 0.22446E+01 SP= 0.84E+00 SK= 0.50E-02 mag=     -0.007
       N       E                     dE             d eps       ncg     rms          rms(c)
DAV:   1    -0.321853913280E+02    0.26444E-02   -0.32439E-02  2904   0.108E+00    0.867E-02
RMM:   2    -0.321873848174E+02   -0.19935E-02   -0.49275E-03  1531   0.256E-01    0.655E-02
RMM:   3    -0.321889022300E+02   -0.15174E-02   -0.26708E-03  1401   0.111E-01    0.415E-02
RMM:   4    -0.321895943588E+02   -0.69213E-03   -0.17357E-03  1400   0.840E-02
    906 T=   664. E= -.29102358E+02 F= -.32189594E+02 E0= -.32145269E+02  EK= 0.22301E+01 SP= 0.86E+00 SK= 0.16E-02 mag=      0.009
       N       E                     dE             d eps       ncg     rms          rms(c)
DAV:   1    -0.321841719279E+02    0.47303E-02   -0.22211E-02  2456   0.943E-01    0.976E-02
RMM:   2    -0.321863839650E+02   -0.22120E-02   -0.68324E-03  1518   0.264E-01    0.718E-02
RMM:   3    -0.321877226185E+02   -0.13387E-02   -0.27003E-03  1400   0.113E-01
    907 T=   662. E= -.29099314E+02 F= -.32187723E+02 E0= -.32143193E+02  EK= 0.22237E+01 SP= 0.86E+00 SK= 0.84E-04 mag=      0.012
       N       E                     dE             d eps       ncg     rms          rms(c)
DAV:   1    -0.321861024149E+02    0.28155E-03   -0.32070E-02  2584   0.101E+00    0.648E-02
RMM:   2    -0.321869728735E+02   -0.87046E-03   -0.37353E-03  1546   0.266E-01
    908 T=   663. E= -.29095829E+02 F= -.32186973E+02 E0= -.32141993E+02  EK= 0.22284E+01 SP= 0.86E+00 SK= 0.49E-03 mag=     -0.006
       N       E                     dE             d eps       ncg     rms          rms(c)
DAV:   1    -0.321846487110E+02    0.14537E-02   -0.29652E-02  2688   0.103E+00    0.415E-02
RMM:   2    -0.321854648855E+02   -0.81617E-03   -0.41453E-03  1546   0.267E-01
    909 T=   667. E= -.29093503E+02 F= -.32185465E+02 E0= -.32140041E+02  EK= 0.22407E+01 SP= 0.85E+00 SK= 0.28E-02 mag=     -0.031
       N       E                     dE             d eps       ncg     rms          rms(c)
DAV:   1    -0.321821668100E+02    0.24819E-02   -0.14573E-02  2528   0.963E-01    0.490E-02
RMM:   2    -0.321831040459E+02   -0.93724E-03   -0.44013E-03  1555   0.282E-01
    910 T=   673. E= -.29090080E+02 F= -.32183104E+02 E0= -.32137334E+02  EK= 0.22626E+01 SP= 0.82E+00 SK= 0.68E-02 mag=     -0.043
       N       E                     dE             d eps       ncg     rms          rms(c)
DAV:   1    -0.321788827223E+02    0.32841E-02   -0.17478E-02  2504   0.110E+00    0.558E-02
RMM:   2    -0.321800580833E+02   -0.11754E-02   -0.48589E-03  1575   0.284E-01
    911 T=   683. E= -.29084687E+02 F= -.32180058E+02 E0= -.32133993E+02  EK= 0.22949E+01 SP= 0.79E+00 SK= 0.12E-01 mag=     -0.028
       N       E                     dE             d eps       ncg     rms          rms(c)
DAV:   1    -0.321761217364E+02    0.27610E-02   -0.90474E-03  2336   0.970E-01    0.469E-02
RMM:   2    -0.321772086091E+02   -0.10869E-02   -0.45743E-03  1593   0.293E-01
    912 T=   695. E= -.29080346E+02 F= -.32177209E+02 E0= -.32130700E+02  EK= 0.23352E+01 SP= 0.74E+00 SK= 0.18E-01 mag=      0.009
       N       E                     dE             d eps       ncg     rms          rms(c)
DAV:   1    -0.321729823063E+02    0.31394E-02   -0.17593E-02  2600   0.107E+00    0.420E-02
RMM:   2    -0.321738588198E+02   -0.87651E-03   -0.44722E-03  1564   0.286E-01
    913 T=   709. E= -.29076338E+02 F= -.32173859E+02 E0= -.32126878E+02  EK= 0.23831E+01 SP= 0.69E+00 SK= 0.25E-01 mag=      0.046
       N       E                     dE             d eps       ncg     rms          rms(c)
DAV:   1    -0.321666435558E+02    0.63388E-02   -0.19233E-02  2592   0.100E+00    0.589E-02
RMM:   2    -0.321681065684E+02   -0.14630E-02   -0.51627E-03  1550   0.286E-01    0.457E-02
RMM:   3    -0.321688665831E+02   -0.76001E-03   -0.20071E-03  1429   0.116E-01
    914 T=   725. E= -.29073101E+02 F= -.32168867E+02 E0= -.32121596E+02  EK= 0.24363E+01 SP= 0.63E+00 SK= 0.31E-01 mag=      0.032
       N       E                     dE             d eps       ncg     rms          rms(c)
DAV:   1    -0.321621573095E+02    0.59493E-02   -0.18722E-02  2600   0.102E+00    0.420E-02
RMM:   2    -0.321630950525E+02   -0.93774E-03   -0.36326E-03  1519   0.258E-01
    915 T=   743. E= -.29068319E+02 F= -.32163095E+02 E0= -.32115347E+02  EK= 0.24973E+01 SP= 0.56E+00 SK= 0.37E-01 mag=     -0.022
       N       E                     dE             d eps       ncg     rms          rms(c)
DAV:   1    -0.321532977726E+02    0.88595E-02   -0.28373E-02  2872   0.110E+00    0.587E-02
RMM:   2    -0.321546229448E+02   -0.13252E-02   -0.44802E-03  1559   0.257E-01
    916 T=   762. E= -.29063555E+02 F= -.32154623E+02 E0= -.32106713E+02  EK= 0.25616E+01 SP= 0.49E+00 SK= 0.41E-01 mag=     -0.078
       N       E                     dE             d eps       ncg     rms          rms(c)
DAV:   1    -0.321433381816E+02    0.99596E-02   -0.12403E-02  2104   0.101E+00    0.553E-02
RMM:   2    -0.321446274521E+02   -0.12893E-02   -0.41591E-03  1569   0.290E-01
    917 T=   782. E= -.29061151E+02 F= -.32144627E+02 E0= -.32096423E+02  EK= 0.26268E+01 SP= 0.41E+00 SK= 0.44E-01 mag=     -0.098
       N       E                     dE             d eps       ncg     rms          rms(c)
DAV:   1    -0.321308776530E+02    0.12461E-01   -0.22622E-02  2912   0.120E+00    0.400E-02
RMM:   2    -0.321321267008E+02   -0.12490E-02   -0.54332E-03  1613   0.308E-01
    918 T=   801. E= -.29057933E+02 F= -.32132127E+02 E0= -.32083441E+02  EK= 0.26936E+01 SP= 0.34E+00 SK= 0.45E-01 mag=     -0.061
       N       E                     dE             d eps       ncg     rms          rms(c)
DAV:   1    -0.321140987100E+02    0.16779E-01   -0.18586E-02  2640   0.106E+00    0.442E-02
RMM:   2    -0.321156004701E+02   -0.15018E-02   -0.66757E-03  1633   0.326E-01    0.325E-02
RMM:   3    -0.321159947145E+02   -0.39424E-03   -0.16794E-03  1494   0.122E-01
    919 T=   821. E= -.29055501E+02 F= -.32115995E+02 E0= -.32067030E+02  EK= 0.27577E+01 SP= 0.26E+00 SK= 0.43E-01 mag=      0.027
       N       E                     dE             d eps       ncg     rms          rms(c)
DAV:   1    -0.320943147882E+02    0.21286E-01   -0.18790E-02  2504   0.113E+00    0.528E-02
RMM:   2    -0.320955624112E+02   -0.12476E-02   -0.36673E-03  1478   0.276E-01
    920 T=   840. E= -.29049279E+02 F= -.32095562E+02 E0= -.32046510E+02  EK= 0.28214E+01 SP= 0.18E+00 SK= 0.41E-01 mag=      0.121
       N       E                     dE             d eps       ncg     rms          rms(c)
DAV:   1    -0.320695760961E+02    0.24739E-01   -0.24764E-02  3016   0.124E+00    0.585E-02
RMM:   2    -0.320710854835E+02   -0.15094E-02   -0.46835E-03  1604   0.276E-01    0.423E-02
RMM:   3    -0.320715882731E+02   -0.50279E-03   -0.12422E-03  1384   0.108E-01
    921 T=   856. E= -.29044758E+02 F= -.32071588E+02 E0= -.32022268E+02  EK= 0.28781E+01 SP= 0.11E+00 SK= 0.36E-01 mag=      0.090
       N       E                     dE             d eps       ncg     rms          rms(c)
DAV:   1    -0.320408699553E+02    0.30216E-01   -0.18733E-02  1968   0.111E+00    0.632E-02
RMM:   2    -0.320423499233E+02   -0.14800E-02   -0.35039E-03  1564   0.286E-01    0.437E-02
RMM:   3    -0.320426552226E+02   -0.30530E-03   -0.93105E-04  1240   0.107E-01
    922 T=   870. E= -.29042310E+02 F= -.32042655E+02 E0= -.31993088E+02  EK= 0.29240E+01 SP= 0.45E-01 SK= 0.31E-01 mag=     -0.037
       N       E                     dE             d eps       ncg     rms          rms(c)
DAV:   1    -0.320065526686E+02    0.35797E-01   -0.28503E-02  2864   0.117E+00    0.525E-02
RMM:   2    -0.320078533238E+02   -0.13007E-02   -0.45394E-03  1618   0.293E-01
    923 T=   881. E= -.29037008E+02 F= -.32007853E+02 E0= -.31958402E+02  EK= 0.29616E+01 SP= -.16E-01 SK= 0.25E-01 mag=     -0.189
       N       E                     dE             d eps       ncg     rms          rms(c)
DAV:   1    -0.319664567512E+02    0.40096E-01   -0.20449E-02  2984   0.124E+00    0.527E-02
RMM:   2    -0.319678563555E+02   -0.13996E-02   -0.45249E-03  1593   0.285E-01    0.399E-02
RMM:   3    -0.319682235034E+02   -0.36715E-03   -0.11486E-03  1335   0.109E-01
    924 T=   888. E= -.29034821E+02 F= -.31968224E+02 E0= -.31918715E+02  EK= 0.29846E+01 SP= -.71E-01 SK= 0.20E-01 mag=     -0.161
       N       E                     dE             d eps       ncg     rms          rms(c)
DAV:   1    -0.319219154593E+02    0.45941E-01   -0.19407E-02  2576   0.119E+00    0.551E-02
RMM:   2    -0.319231979580E+02   -0.12825E-02   -0.43085E-03  1591   0.299E-01
    925 T=   892. E= -.29029622E+02 F= -.31923198E+02 E0= -.31873351E+02  EK= 0.29974E+01 SP= -.12E+00 SK= 0.14E-01 mag=      0.037
       N       E                     dE             d eps       ncg     rms          rms(c)
DAV:   1    -0.318692711111E+02    0.52644E-01   -0.32148E-02  3064   0.133E+00    0.730E-02
RMM:   2    -0.318712028487E+02   -0.19317E-02   -0.54850E-03  1583   0.285E-01    0.574E-02
RMM:   3    -0.318722713009E+02   -0.10685E-02   -0.20258E-03  1401   0.116E-01
    926 T=   892. E= -.29023097E+02 F= -.31872271E+02 E0= -.31822820E+02  EK= 0.29972E+01 SP= -.16E+00 SK= 0.97E-02 mag=      0.149
       N       E                     dE             d eps       ncg     rms          rms(c)
DAV:   1    -0.318158497156E+02    0.55353E-01   -0.20224E-02  2592   0.118E+00    0.714E-02
RMM:   2    -0.318173750604E+02   -0.15253E-02   -0.45121E-03  1495   0.307E-01    0.477E-02
RMM:   3    -0.318177041808E+02   -0.32912E-03   -0.10499E-03  1232   0.113E-01
    927 T=   887. E= -.29020492E+02 F= -.31817704E+02 E0= -.31767912E+02  EK= 0.29809E+01 SP= -.19E+00 SK= 0.61E-02 mag=      0.087
       N       E                     dE             d eps       ncg     rms          rms(c)
DAV:   1    -0.317571912796E+02    0.60184E-01   -0.34005E-02  2744   0.122E+00    0.575E-02
RMM:   2    -0.317584496886E+02   -0.12584E-02   -0.47870E-03  1590   0.293E-01
    928 T=   879. E= -.29014482E+02 F= -.31758450E+02 E0= -.31708820E+02  EK= 0.29552E+01 SP= -.21E+00 SK= 0.35E-02 mag=     -0.122
       N       E                     dE             d eps       ncg     rms          rms(c)
DAV:   1    -0.316941561326E+02    0.63035E-01   -0.23428E-02  2928   0.126E+00    0.710E-02
RMM:   2    -0.316958096653E+02   -0.16535E-02   -0.49998E-03  1591   0.287E-01    0.542E-02
RMM:   3    -0.316965950281E+02   -0.78536E-03   -0.15277E-03  1433   0.117E-01
    929 T=   868. E= -.29010838E+02 F= -.31696595E+02 E0= -.31647462E+02  EK= 0.29169E+01 SP= -.23E+00 SK= 0.18E-02 mag=     -0.194
       N       E                     dE             d eps       ncg     rms          rms(c)
DAV:   1    -0.316326394591E+02    0.63170E-01   -0.22858E-02  2640   0.118E+00    0.765E-02
RMM:   2    -0.316338539402E+02   -0.12145E-02   -0.38989E-03  1518   0.280E-01
    930 T=   855. E= -.29006200E+02 F= -.31633854E+02 E0= -.31584314E+02  EK= 0.28725E+01 SP= -.25E+00 SK= 0.82E-03 mag=     -0.082
       N       E                     dE             d eps       ncg     rms          rms(c)
DAV:   1    -0.315675558307E+02    0.65084E-01   -0.35023E-02  2992   0.125E+00    0.817E-02
RMM:   2    -0.315695421856E+02   -0.19864E-02   -0.56873E-03  1573   0.279E-01    0.619E-02
RMM:   3    -0.315705644674E+02   -0.10223E-02   -0.18792E-03  1418   0.113E-01
    931 T=   840. E= -.29000365E+02 F= -.31570564E+02 E0= -.31521438E+02  EK= 0.28237E+01 SP= -.25E+00 SK= 0.31E-03 mag=      0.117
       N       E                     dE             d eps       ncg     rms          rms(c)
DAV:   1    -0.315089052376E+02    0.60637E-01   -0.19964E-02  2552   0.112E+00    0.975E-02
RMM:   2    -0.315103557570E+02   -0.14505E-02   -0.44686E-03  1499   0.284E-01    0.660E-02
RMM:   3    -0.315107906149E+02   -0.43486E-03   -0.11695E-03  1277   0.110E-01
    932 T=   825. E= -.28997738E+02 F= -.31510791E+02 E0= -.31461774E+02  EK= 0.27715E+01 SP= -.26E+00 SK= 0.11E-03 mag=      0.170
       N       E                     dE             d eps       ncg     rms          rms(c)
DAV:   1    -0.314537563178E+02    0.56599E-01   -0.38734E-02  2816   0.116E+00    0.759E-02
RMM:   2    -0.314548931517E+02   -0.11368E-02   -0.48393E-03  1576   0.292E-01
    933 T=   810. E= -.28993111E+02 F= -.31454893E+02 E0= -.31405820E+02  EK= 0.27231E+01 SP= -.26E+00 SK= 0.41E-04 mag=      0.038
       N       E                     dE             d eps       ncg     rms          rms(c)
DAV:   1    -0.314040506945E+02    0.49706E-01   -0.22979E-02  2768   0.114E+00    0.742E-02
RMM:   2    -0.314052969240E+02   -0.12462E-02   -0.46079E-03  1590   0.277E-01
    934 T=   797. E= -.28990200E+02 F= -.31405297E+02 E0= -.31356802E+02  EK= 0.26783E+01 SP= -.26E+00 SK= 0.31E-04 mag=     -0.220
       N       E                     dE             d eps       ncg     rms          rms(c)
DAV:   1    -0.313627370052E+02    0.41314E-01   -0.15601E-02  2560   0.108E+00    0.762E-02
RMM:   2    -0.313642022501E+02   -0.14652E-02   -0.45871E-03  1571   0.294E-01    0.591E-02
RMM:   3    -0.313649403973E+02   -0.73815E-03   -0.13800E-03  1446   0.116E-01
    935 T=   786. E= -.28987823E+02 F= -.31364940E+02 E0= -.31317010E+02  EK= 0.26425E+01 SP= -.27E+00 SK= 0.56E-04 mag=     -0.201
       N       E                     dE             d eps       ncg     rms          rms(c)
DAV:   1    -0.313347515351E+02    0.29451E-01   -0.25156E-02  2600   0.114E+00    0.588E-02
RMM:   2    -0.313359152162E+02   -0.11637E-02   -0.43417E-03  1484   0.278E-01
    936 T=   780. E= -.28982164E+02 F= -.31335915E+02 E0= -.31287570E+02  EK= 0.26223E+01 SP= -.27E+00 SK= 0.13E-03 mag=      0.072
       N       E                     dE             d eps       ncg     rms          rms(c)
DAV:   1    -0.313149565203E+02    0.19795E-01   -0.32196E-02  2960   0.113E+00    0.870E-02
RMM:   2    -0.313170471610E+02   -0.20906E-02   -0.50534E-03  1546   0.263E-01    0.724E-02
RMM:   3    -0.313186352895E+02   -0.15881E-02   -0.21559E-03  1410   0.108E-01    0.510E-02
RMM:   4    -0.313198463731E+02   -0.12111E-02   -0.20814E-03  1406   0.926E-02
    937 T=   778. E= -.28978529E+02 F= -.31319846E+02 E0= -.31271802E+02  EK= 0.26147E+01 SP= -.27E+00 SK= 0.26E-03 mag=      0.087
       N       E                     dE             d eps       ncg     rms          rms(c)
DAV:   1    -0.313129985544E+02    0.56367E-02   -0.18699E-02  2560   0.104E+00    0.927E-02
RMM:   2    -0.313151207105E+02   -0.21222E-02   -0.61984E-03  1473   0.253E-01    0.700E-02
RMM:   3    -0.313165170451E+02   -0.13963E-02   -0.23336E-03  1400   0.107E-01    0.488E-02
RMM:   4    -0.313174959998E+02   -0.97895E-03   -0.18709E-03  1403   0.821E-02
    938 T=   780. E= -.28977503E+02 F= -.31317496E+02 E0= -.31269624E+02  EK= 0.26199E+01 SP= -.28E+00 SK= 0.44E-03 mag=     -0.075
       N       E                     dE             d eps       ncg     rms          rms(c)
DAV:   1    -0.313281530541E+02   -0.11636E-01   -0.25363E-02  2744   0.110E+00    0.668E-02
RMM:   2    -0.313291834528E+02   -0.10304E-02   -0.42107E-03  1508   0.257E-01
    939 T=   787. E= -.28973334E+02 F= -.31329183E+02 E0= -.31282089E+02  EK= 0.26441E+01 SP= -.29E+00 SK= 0.61E-03 mag=     -0.274
       N       E                     dE             d eps       ncg     rms          rms(c)
DAV:   1    -0.313553946603E+02   -0.27242E-01   -0.21949E-02  2944   0.107E+00    0.729E-02
RMM:   2    -0.313567866272E+02   -0.13920E-02   -0.41585E-03  1566   0.261E-01    0.557E-02
RMM:   3    -0.313575565386E+02   -0.76991E-03   -0.12851E-03  1407   0.102E-01
    940 T=   799. E= -.28971656E+02 F= -.31357557E+02 E0= -.31310684E+02  EK= 0.26836E+01 SP= -.30E+00 SK= 0.70E-03 mag=     -0.135
       N       E                     dE             d eps       ncg     rms          rms(c)
DAV:   1    -0.314002675969E+02   -0.43481E-01   -0.15961E-02  2528   0.109E+00    0.684E-02
RMM:   2    -0.314012791305E+02   -0.10115E-02   -0.27140E-03  1552   0.238E-01
    941 T=   815. E= -.28968912E+02 F= -.31401279E+02 E0= -.31354623E+02  EK= 0.27398E+01 SP= -.31E+00 SK= 0.62E-03 mag=      0.213
       N       E                     dE             d eps       ncg     rms          rms(c)
DAV:   1    -0.314547705083E+02   -0.54503E-01   -0.33755E-02  3056   0.116E+00    0.101E-01
RMM:   2    -0.314570523562E+02   -0.22818E-02   -0.51185E-03  1554   0.259E-01    0.802E-02
RMM:   3    -0.314583382681E+02   -0.12859E-02   -0.17280E-03  1461   0.106E-01
    942 T=   836. E= -.28964586E+02 F= -.31458338E+02 E0= -.31412825E+02  EK= 0.28099E+01 SP= -.32E+00 SK= 0.36E-03 mag=      0.180
       N       E                     dE             d eps       ncg     rms          rms(c)
DAV:   1    -0.315287560192E+02   -0.71704E-01   -0.21942E-02  2568   0.109E+00    0.799E-02
RMM:   2    -0.315303161273E+02   -0.15601E-02   -0.45957E-03  1526   0.295E-01    0.573E-02
RMM:   3    -0.315307268608E+02   -0.41073E-03   -0.10740E-03  1330   0.106E-01
    943 T=   859. E= -.28964256E+02 F= -.31530727E+02 E0= -.31484639E+02  EK= 0.28883E+01 SP= -.32E+00 SK= 0.66E-04 mag=     -0.063
       N       E                     dE             d eps       ncg     rms          rms(c)
DAV:   1    -0.316105491113E+02   -0.80233E-01   -0.50720E-02  2768   0.116E+00    0.738E-02
RMM:   2    -0.316118936026E+02   -0.13445E-02   -0.56839E-03  1584   0.306E-01
    944 T=   885. E= -.28959918E+02 F= -.31611894E+02 E0= -.31566939E+02  EK= 0.29743E+01 SP= -.32E+00 SK= 0.69E-04 mag=     -0.343
       N       E                     dE             d eps       ncg     rms          rms(c)
DAV:   1    -0.316999785542E+02   -0.89429E-01   -0.26618E-02  2936   0.115E+00    0.922E-02
RMM:   2    -0.317018412353E+02   -0.18627E-02   -0.52789E-03  1598   0.278E-01    0.701E-02
RMM:   3    -0.317029076463E+02   -0.10664E-02   -0.17237E-03  1432   0.113E-01
    945 T=   910. E= -.28958986E+02 F= -.31702908E+02 E0= -.31658530E+02  EK= 0.30588E+01 SP= -.32E+00 SK= 0.93E-03 mag=     -0.147
       N       E                     dE             d eps       ncg     rms          rms(c)
DAV:   1    -0.317984645989E+02   -0.96623E-01   -0.31870E-02  2520   0.123E+00    0.924E-02
RMM:   2    -0.318001277690E+02   -0.16632E-02   -0.47708E-03  1576   0.299E-01    0.655E-02
RMM:   3    -0.318007209602E+02   -0.59319E-03   -0.12874E-03  1355   0.111E-01
    946 T=   934. E= -.28958067E+02 F= -.31800721E+02 E0= -.31756289E+02  EK= 0.31394E+01 SP= -.30E+00 SK= 0.34E-02 mag=      0.174
       N       E                     dE             d eps       ncg     rms          rms(c)
DAV:   1    -0.318980672109E+02   -0.97939E-01   -0.57315E-02  2808   0.122E+00    0.870E-02
RMM:   2    -0.318999873015E+02   -0.19201E-02   -0.62975E-03  1585   0.317E-01    0.688E-02
RMM:   3    -0.319009531787E+02   -0.96588E-03   -0.18594E-03  1485   0.120E-01
    947 T=   956. E= -.28954387E+02 F= -.31900953E+02 E0= -.31857392E+02  EK= 0.32116E+01 SP= -.27E+00 SK= 0.84E-02 mag=      0.178
       N       E                     dE             d eps       ncg     rms          rms(c)
DAV:   1    -0.320030282535E+02   -0.10304E+00   -0.21902E-02  2672   0.121E+00    0.506E-02
RMM:   2    -0.320040992945E+02   -0.10710E-02   -0.52118E-03  1618   0.309E-01
    948 T=   973. E= -.28952541E+02 F= -.32004099E+02 E0= -.31960107E+02  EK= 0.32686E+01 SP= -.23E+00 SK= 0.17E-01 mag=     -0.075
       N       E                     dE             d eps       ncg     rms          rms(c)
DAV:   1    -0.321011203338E+02   -0.98092E-01   -0.42125E-02  3008   0.129E+00    0.823E-02
RMM:   2    -0.321029363200E+02   -0.18160E-02   -0.68473E-03  1630   0.325E-01    0.614E-02
RMM:   3    -0.321040158310E+02   -0.10795E-02   -0.20956E-03  1500   0.129E-01
    949 T=   983. E= -.28950106E+02 F= -.32104016E+02 E0= -.32060895E+02  EK= 0.33049E+01 SP= -.18E+00 SK= 0.29E-01 mag=     -0.139
       N       E                     dE             d eps       ncg     rms          rms(c)
DAV:   1    -0.322001671463E+02   -0.97231E-01   -0.20015E-02  2536   0.124E+00    0.610E-02
RMM:   2    -0.322012762564E+02   -0.11091E-02   -0.40470E-03  1563   0.286E-01
    950 T=   988. E= -.28945426E+02 F= -.32201276E+02 E0= -.32158200E+02  EK= 0.33215E+01 SP= -.11E+00 SK= 0.45E-01 mag=     -0.041
       N       E                     dE             d eps       ncg     rms          rms(c)
DAV:   1    -0.322919774035E+02   -0.91810E-01   -0.34875E-02  3064   0.135E+00    0.627E-02
RMM:   2    -0.322932073170E+02   -0.12299E-02   -0.47805E-03  1606   0.281E-01
    951 T=   986. E= -.28939626E+02 F= -.32293207E+02 E0= -.32250497E+02  EK= 0.33145E+01 SP= -.26E-01 SK= 0.65E-01 mag=      0.110
       N       E                     dE             d eps       ncg     rms          rms(c)
DAV:   1    -0.323771390148E+02   -0.85162E-01   -0.11419E-02  1904   0.115E+00    0.500E-02
RMM:   2    -0.323783756428E+02   -0.12366E-02   -0.60668E-03  1611   0.335E-01
    952 T=   976. E= -.28936595E+02 F= -.32378376E+02 E0= -.32336398E+02  EK= 0.32798E+01 SP= 0.75E-01 SK= 0.87E-01 mag=      0.199
       N       E                     dE             d eps       ncg     rms          rms(c)
DAV:   1    -0.324542210580E+02   -0.77082E-01   -0.28243E-02  3160   0.132E+00    0.611E-02
RMM:   2    -0.324556621045E+02   -0.14410E-02   -0.61876E-03  1612   0.320E-01    0.449E-02
RMM:   3    -0.324562368396E+02   -0.57474E-03   -0.18833E-03  1463   0.124E-01
    953 T=   959. E= -.28933835E+02 F= -.32456237E+02 E0= -.32414650E+02  EK= 0.32217E+01 SP= 0.19E+00 SK= 0.11E+00 mag=      0.119
       N       E                     dE             d eps       ncg     rms          rms(c)
DAV:   1    -0.325251124092E+02   -0.69450E-01   -0.20429E-02  2632   0.118E+00    0.432E-02
RMM:   2    -0.325260387895E+02   -0.92638E-03   -0.43417E-03  1558   0.297E-01
    954 T=   936. E= -.28927704E+02 F= -.32526039E+02 E0= -.32484693E+02  EK= 0.31461E+01 SP= 0.32E+00 SK= 0.13E+00 mag=     -0.088
       N       E                     dE             d eps       ncg     rms          rms(c)
DAV:   1    -0.325840913761E+02   -0.58979E-01   -0.34354E-02  3096   0.131E+00    0.711E-02
RMM:   2    -0.325856320240E+02   -0.15406E-02   -0.53925E-03  1561   0.269E-01    0.540E-02
RMM:   3    -0.325865446690E+02   -0.91264E-03   -0.18882E-03  1406   0.111E-01
    955 T=   908. E= -.28920957E+02 F= -.32586545E+02 E0= -.32545963E+02  EK= 0.30530E+01 SP= 0.46E+00 SK= 0.16E+00 mag=     -0.123
       N       E                     dE             d eps       ncg     rms          rms(c)
DAV:   1    -0.326380812576E+02   -0.52449E-01   -0.13391E-02  2376   0.108E+00    0.558E-02
RMM:   2    -0.326390026821E+02   -0.92142E-03   -0.36653E-03  1500   0.268E-01
    956 T=   876. E= -.28916902E+02 F= -.32639003E+02 E0= -.32598667E+02  EK= 0.29443E+01 SP= 0.60E+00 SK= 0.17E+00 mag=      0.002
       N       E                     dE             d eps       ncg     rms          rms(c)
DAV:   1    -0.326809310324E+02   -0.42850E-01   -0.28733E-02  3136   0.122E+00    0.641E-02
RMM:   2    -0.326822242575E+02   -0.12932E-02   -0.47901E-03  1556   0.259E-01
    957 T=   841. E= -.28912464E+02 F= -.32682224E+02 E0= -.32642570E+02  EK= 0.28262E+01 SP= 0.76E+00 SK= 0.18E+00 mag=      0.149
       N       E                     dE             d eps       ncg     rms          rms(c)
DAV:   1    -0.327171945838E+02   -0.36264E-01   -0.11461E-02  2168   0.104E+00    0.584E-02
RMM:   2    -0.327183082988E+02   -0.11137E-02   -0.53189E-03  1570   0.307E-01
    958 T=   804. E= -.28909090E+02 F= -.32718308E+02 E0= -.32679292E+02  EK= 0.27034E+01 SP= 0.92E+00 SK= 0.19E+00 mag=      0.190
       N       E                     dE             d eps       ncg     rms          rms(c)
DAV:   1    -0.327460344019E+02   -0.28840E-01   -0.22842E-02  3120   0.118E+00    0.477E-02
RMM:   2    -0.327470738053E+02   -0.10394E-02   -0.50369E-03  1554   0.279E-01
    959 T=   768. E= -.28904405E+02 F= -.32747074E+02 E0= -.32708433E+02  EK= 0.25813E+01 SP= 0.11E+01 SK= 0.19E+00 mag=      0.091
       N       E                     dE             d eps       ncg     rms          rms(c)
DAV:   1    -0.327678369769E+02   -0.21803E-01   -0.13178E-02  2384   0.103E+00    0.510E-02
RMM:   2    -0.327689336656E+02   -0.10967E-02   -0.54477E-03  1561   0.307E-01
    960 T=   732. E= -.28900020E+02 F= -.32768934E+02 E0= -.32730757E+02  EK= 0.24616E+01 SP= 0.12E+01 SK= 0.18E+00 mag=     -0.082
       N       E                     dE             d eps       ncg     rms          rms(c)
DAV:   1    -0.327832248477E+02   -0.15388E-01   -0.15515E-02  2640   0.104E+00    0.603E-02
RMM:   2    -0.327844564564E+02   -0.12316E-02   -0.52785E-03  1570   0.280E-01
    961 T=   699. E= -.28895055E+02 F= -.32784456E+02 E0= -.32747030E+02  EK= 0.23479E+01 SP= 0.14E+01 SK= 0.16E+00 mag=     -0.188
       N       E                     dE             d eps       ncg     rms          rms(c)
DAV:   1    -0.327938641863E+02   -0.10639E-01   -0.15768E-02  2568   0.101E+00    0.573E-02
RMM:   2    -0.327950069521E+02   -0.11428E-02   -0.53037E-03  1546   0.294E-01
    962 T=   667. E= -.28890479E+02 F= -.32795007E+02 E0= -.32758070E+02  EK= 0.22421E+01 SP= 0.15E+01 SK= 0.14E+00 mag=     -0.162
       N       E                     dE             d eps       ncg     rms          rms(c)
DAV:   1    -0.327996682813E+02   -0.58041E-02   -0.14130E-02  2672   0.987E-01    0.609E-02
RMM:   2    -0.328009266685E+02   -0.12584E-02   -0.50550E-03  1528   0.273E-01
    963 T=   639. E= -.28885617E+02 F= -.32800927E+02 E0= -.32764305E+02  EK= 0.21462E+01 SP= 0.17E+01 SK= 0.12E+00 mag=     -0.019
       N       E                     dE             d eps       ncg     rms          rms(c)
DAV:   1    -0.328021781756E+02   -0.25099E-02   -0.13367E-02  2328   0.962E-01    0.616E-02
RMM:   2    -0.328031978881E+02   -0.10197E-02   -0.48133E-03  1535   0.284E-01
    964 T=   613. E= -.28880814E+02 F= -.32803198E+02 E0= -.32767066E+02  EK= 0.20614E+01 SP= 0.18E+01 SK= 0.90E-01 mag=      0.161
       N       E                     dE             d eps       ncg     rms          rms(c)
DAV:   1    -0.327993076673E+02    0.28705E-02   -0.17847E-02  2584   0.944E-01    0.782E-02
RMM:   2    -0.328009230094E+02   -0.16153E-02   -0.56122E-03  1524   0.269E-01    0.608E-02
RMM:   3    -0.328017900365E+02   -0.86703E-03   -0.19996E-03  1451   0.108E-01
    965 T=   591. E= -.28876282E+02 F= -.32801790E+02 E0= -.32766228E+02  EK= 0.19878E+01 SP= 0.19E+01 SK= 0.65E-01 mag=      0.076
       N       E                     dE             d eps       ncg     rms          rms(c)
DAV:   1    -0.327964907492E+02    0.44323E-02   -0.21831E-02  2480   0.906E-01    0.700E-02
RMM:   2    -0.327979119368E+02   -0.14212E-02   -0.43414E-03  1501   0.236E-01    0.524E-02
RMM:   3    -0.327984939954E+02   -0.58206E-03   -0.12546E-03  1388   0.893E-02
    966 T=   573. E= -.28873786E+02 F= -.32798494E+02 E0= -.32763129E+02  EK= 0.19254E+01 SP= 0.20E+01 SK= 0.42E-01 mag=     -0.069
       N       E                     dE             d eps       ncg     rms          rms(c)
DAV:   1    -0.327911785071E+02    0.67334E-02   -0.48111E-02  2360   0.897E-01    0.637E-02
RMM:   2    -0.327920329794E+02   -0.85447E-03   -0.41850E-03  1525   0.250E-01
    967 T=   558. E= -.28869587E+02 F= -.32792033E+02 E0= -.32757090E+02  EK= 0.18767E+01 SP= 0.20E+01 SK= 0.23E-01 mag=     -0.165
       N       E                     dE             d eps       ncg     rms          rms(c)
DAV:   1    -0.327828879124E+02    0.82906E-02   -0.25476E-02  2432   0.876E-01    0.592E-02
RMM:   2    -0.327838762288E+02   -0.98832E-03   -0.38835E-03  1522   0.248E-01
    968 T=   548. E= -.28865872E+02 F= -.32783876E+02 E0= -.32749233E+02  EK= 0.18407E+01 SP= 0.21E+01 SK= 0.92E-02 mag=     -0.103
       N       E                     dE             d eps       ncg     rms          rms(c)
DAV:   1    -0.327747261474E+02    0.81618E-02   -0.12538E-02  2424   0.879E-01    0.449E-02
RMM:   2    -0.327752919366E+02   -0.56579E-03   -0.36168E-03  1517   0.245E-01
    969 T=   541. E= -.28863326E+02 F= -.32775292E+02 E0= -.32740767E+02  EK= 0.18178E+01 SP= 0.21E+01 SK= 0.14E-02 mag=      0.062
       N       E                     dE             d eps       ncg     rms          rms(c)
DAV:   1    -0.327630580694E+02    0.11668E-01   -0.14265E-02  2504   0.889E-01    0.634E-02
RMM:   2    -0.327641752124E+02   -0.11171E-02   -0.43644E-03  1521   0.247E-01
    970 T=   538. E= -.28858387E+02 F= -.32764175E+02 E0= -.32730096E+02  EK= 0.18096E+01 SP= 0.21E+01 SK= 0.45E-03 mag=      0.170
       N       E                     dE             d eps       ncg     rms          rms(c)
DAV:   1    -0.327520983584E+02    0.10960E-01   -0.12636E-02  2440   0.851E-01    0.673E-02
RMM:   2    -0.327531429897E+02   -0.10446E-02   -0.39020E-03  1536   0.249E-01
    971 T=   540. E= -.28854274E+02 F= -.32753143E+02 E0= -.32719215E+02  EK= 0.18152E+01 SP= 0.21E+01 SK= 0.65E-02 mag=      0.146
       N       E                     dE             d eps       ncg     rms          rms(c)
DAV:   1    -0.327412318988E+02    0.10866E-01   -0.10299E-02  2368   0.861E-01    0.514E-02
RMM:   2    -0.327419640013E+02   -0.73210E-03   -0.35764E-03  1532   0.245E-01
    972 T=   546. E= -.28851004E+02 F= -.32741964E+02 E0= -.32708016E+02  EK= 0.18347E+01 SP= 0.20E+01 SK= 0.19E-01 mag=      0.002
       N       E                     dE             d eps       ncg     rms          rms(c)
DAV:   1    -0.327283652439E+02    0.12867E-01   -0.10951E-02  2200   0.863E-01    0.571E-02
RMM:   2    -0.327293668757E+02   -0.10016E-02   -0.52514E-03  1604   0.268E-01
    973 T=   556. E= -.28846976E+02 F= -.32729367E+02 E0= -.32695625E+02  EK= 0.18684E+01 SP= 0.20E+01 SK= 0.38E-01 mag=     -0.171
       N       E                     dE             d eps       ncg     rms          rms(c)
DAV:   1    -0.327134345700E+02    0.14931E-01   -0.18181E-02  2528   0.886E-01    0.883E-02
RMM:   2    -0.327152750720E+02   -0.18405E-02   -0.52467E-03  1523   0.264E-01    0.674E-02
RMM:   3    -0.327167982499E+02   -0.15232E-02   -0.33927E-03  1400   0.116E-01    0.401E-02
RMM:   4    -0.327174163523E+02   -0.61810E-03   -0.16396E-03  1400   0.825E-02
    974 T=   570. E= -.28845326E+02 F= -.32717416E+02 E0= -.32683616E+02  EK= 0.19157E+01 SP= 0.19E+01 SK= 0.62E-01 mag=     -0.026
       N       E                     dE             d eps       ncg     rms          rms(c)
DAV:   1    -0.327002333427E+02    0.16565E-01   -0.14157E-02  2416   0.906E-01    0.981E-02
RMM:   2    -0.327021842447E+02   -0.19509E-02   -0.48981E-03  1444   0.205E-01    0.743E-02
RMM:   3    -0.327037097532E+02   -0.15255E-02   -0.28958E-03  1400   0.928E-02    0.419E-02
RMM:   4    -0.327042982239E+02   -0.58847E-03   -0.11890E-03  1375   0.666E-02
    975 T=   588. E= -.28844375E+02 F= -.32704298E+02 E0= -.32670553E+02  EK= 0.19765E+01 SP= 0.18E+01 SK= 0.90E-01 mag=      0.043
       N       E                     dE             d eps       ncg     rms          rms(c)
DAV:   1    -0.326901504724E+02    0.13559E-01   -0.13086E-02  2488   0.881E-01    0.493E-02
RMM:   2    -0.326906018143E+02   -0.45134E-03   -0.29469E-03  1540   0.218E-01
    976 T=   611. E= -.28842081E+02 F= -.32690602E+02 E0= -.32656816E+02  EK= 0.20539E+01 SP= 0.17E+01 SK= 0.12E+00 mag=      0.017
       N       E                     dE             d eps       ncg     rms          rms(c)
DAV:   1    -0.326754481615E+02    0.14702E-01   -0.15035E-02  2744   0.916E-01    0.333E-02
RMM:   2    -0.326760305679E+02   -0.58241E-03   -0.33063E-03  1552   0.237E-01
    977 T=   638. E= -.28840478E+02 F= -.32676031E+02 E0= -.32642192E+02  EK= 0.21456E+01 SP= 0.15E+01 SK= 0.15E+00 mag=     -0.067
       N       E                     dE             d eps       ncg     rms          rms(c)
DAV:   1    -0.326595581873E+02    0.15890E-01   -0.99685E-03  2176   0.944E-01    0.515E-02
RMM:   2    -0.326603059269E+02   -0.74774E-03   -0.32963E-03  1555   0.240E-01
    978 T=   670. E= -.28838984E+02 F= -.32660306E+02 E0= -.32626436E+02  EK= 0.22519E+01 SP= 0.14E+01 SK= 0.18E+00 mag=     -0.121
       N       E                     dE             d eps       ncg     rms          rms(c)
DAV:   1    -0.326429423359E+02    0.16616E-01   -0.14037E-02  2584   0.102E+00    0.387E-02
RMM:   2    -0.326436422184E+02   -0.69988E-03   -0.37748E-03  1560   0.256E-01
    979 T=   706. E= -.28836138E+02 F= -.32643642E+02 E0= -.32609644E+02  EK= 0.23741E+01 SP= 0.12E+01 SK= 0.20E+00 mag=     -0.097
       N       E                     dE             d eps       ncg     rms          rms(c)
DAV:   1    -0.326243450009E+02    0.18597E-01   -0.98767E-03  2144   0.989E-01    0.356E-02
RMM:   2    -0.326250757779E+02   -0.73078E-03   -0.38632E-03  1563   0.278E-01
    980 T=   747. E= -.28832654E+02 F= -.32625076E+02 E0= -.32590864E+02  EK= 0.25096E+01 SP= 0.11E+01 SK= 0.21E+00 mag=      0.000
       N       E                     dE             d eps       ncg     rms          rms(c)
DAV:   1    -0.326030461464E+02    0.21299E-01   -0.15075E-02  2528   0.106E+00    0.410E-02
RMM:   2    -0.326039573450E+02   -0.91120E-03   -0.42493E-03  1575   0.273E-01
    981 T=   790. E= -.28828743E+02 F= -.32603957E+02 E0= -.32569586E+02  EK= 0.26559E+01 SP= 0.90E+00 SK= 0.22E+00 mag=      0.106
       N       E                     dE             d eps       ncg     rms          rms(c)
DAV:   1    -0.325794477548E+02    0.23598E-01   -0.17527E-02  2584   0.109E+00    0.448E-02
RMM:   2    -0.325805624228E+02   -0.11147E-02   -0.49164E-03  1575   0.294E-01
    982 T=   836. E= -.28825070E+02 F= -.32580562E+02 E0= -.32546033E+02  EK= 0.28099E+01 SP= 0.73E+00 SK= 0.22E+00 mag=      0.125
       N       E                     dE             d eps       ncg     rms          rms(c)
DAV:   1    -0.325536409899E+02    0.25807E-01   -0.22829E-02  2720   0.114E+00    0.339E-02
RMM:   2    -0.325547424509E+02   -0.11015E-02   -0.57085E-03  1638   0.303E-01
    983 T=   883. E= -.28822007E+02 F= -.32554742E+02 E0= -.32519881E+02  EK= 0.29676E+01 SP= 0.56E+00 SK= 0.20E+00 mag=      0.038
       N       E                     dE             d eps       ncg     rms          rms(c)
DAV:   1    -0.325236212895E+02    0.30020E-01   -0.22405E-02  2624   0.115E+00    0.453E-02
RMM:   2    -0.325249556434E+02   -0.13344E-02   -0.58051E-03  1636   0.316E-01
    984 T=   929. E= -.28818568E+02 F= -.32524956E+02 E0= -.32489824E+02  EK= 0.31237E+01 SP= 0.40E+00 SK= 0.18E+00 mag=     -0.088
       N       E                     dE             d eps       ncg     rms          rms(c)
DAV:   1    -0.324900627588E+02    0.33559E-01   -0.27060E-02  2712   0.123E+00    0.507E-02
RMM:   2    -0.324915603782E+02   -0.14976E-02   -0.60724E-03  1617   0.326E-01    0.384E-02
RMM:   3    -0.324919710970E+02   -0.41072E-03   -0.15911E-03  1485   0.123E-01
    985 T=   974. E= -.28815669E+02 F= -.32491971E+02 E0= -.32456560E+02  EK= 0.32724E+01 SP= 0.25E+00 SK= 0.16E+00 mag=     -0.070
       N       E                     dE             d eps       ncg     rms          rms(c)
DAV:   1    -0.324535515916E+02    0.38009E-01   -0.28166E-02  2624   0.121E+00    0.440E-02
RMM:   2    -0.324550147564E+02   -0.14632E-02   -0.54266E-03  1581   0.284E-01    0.326E-02
RMM:   3    -0.324552642805E+02   -0.24952E-03   -0.96035E-04  1249   0.104E-01
    986 T=  1014. E= -.28812218E+02 F= -.32455264E+02 E0= -.32419441E+02  EK= 0.34080E+01 SP= 0.11E+00 SK= 0.12E+00 mag=      0.038
       N       E                     dE             d eps       ncg     rms          rms(c)
DAV:   1    -0.324129550721E+02    0.42060E-01   -0.37583E-02  2776   0.123E+00    0.522E-02
RMM:   2    -0.324143172437E+02   -0.13622E-02   -0.51005E-03  1642   0.294E-01    0.333E-02
RMM:   3    -0.324146938338E+02   -0.37659E-03   -0.12519E-03  1442   0.115E-01
    987 T=  1049. E= -.28808050E+02 F= -.32414694E+02 E0= -.32378538E+02  EK= 0.35240E+01 SP= -.57E-02 SK= 0.88E-01 mag=      0.070
       N       E                     dE             d eps       ncg     rms          rms(c)
DAV:   1    -0.323695872330E+02    0.44730E-01   -0.28047E-02  2144   0.127E+00    0.300E-02
RMM:   2    -0.323708714753E+02   -0.12842E-02   -0.48432E-03  1663   0.306E-01
    988 T=  1076. E= -.28802648E+02 F= -.32370871E+02 E0= -.32334292E+02  EK= 0.36153E+01 SP= -.10E+00 SK= 0.56E-01 mag=      0.016
       N       E                     dE             d eps       ncg     rms          rms(c)
DAV:   1    -0.323220845718E+02    0.47503E-01   -0.36798E-02  3072   0.133E+00    0.457E-02
RMM:   2    -0.323237004955E+02   -0.16159E-02   -0.56323E-03  1645   0.299E-01    0.334E-02
RMM:   3    -0.323242020844E+02   -0.50159E-03   -0.18434E-03  1403   0.121E-01
    989 T=  1093. E= -.28799028E+02 F= -.32324202E+02 E0= -.32287251E+02  EK= 0.36737E+01 SP= -.18E+00 SK= 0.30E-01 mag=     -0.023
       N       E                     dE             d eps       ncg     rms          rms(c)
DAV:   1    -0.322736276099E+02    0.50073E-01   -0.32793E-02  2416   0.125E+00    0.458E-02
RMM:   2    -0.322752548802E+02   -0.16273E-02   -0.41491E-03  1607   0.304E-01    0.290E-02
RMM:   3    -0.322754759472E+02   -0.22107E-03   -0.99950E-04  1223   0.106E-01
    990 T=  1100. E= -.28795725E+02 F= -.32275476E+02 E0= -.32238095E+02  EK= 0.36977E+01 SP= -.23E+00 SK= 0.11E-01 mag=     -0.016
       N       E                     dE             d eps       ncg     rms          rms(c)
DAV:   1    -0.322234563641E+02    0.51799E-01   -0.44708E-02  2928   0.133E+00    0.385E-02
RMM:   2    -0.322248228315E+02   -0.13665E-02   -0.42775E-03  1616   0.282E-01    0.228E-02
RMM:   3    -0.322250540973E+02   -0.23127E-03   -0.10911E-03  1271   0.106E-01
    991 T=  1097. E= -.28790338E+02 F= -.32225054E+02 E0= -.32187258E+02  EK= 0.36881E+01 SP= -.25E+00 SK= 0.14E-02 mag=      0.017
       N       E                     dE             d eps       ncg     rms          rms(c)
DAV:   1    -0.321729465106E+02    0.51876E-01   -0.24772E-02  2312   0.127E+00    0.268E-02
RMM:   2    -0.321742373503E+02   -0.12908E-02   -0.42987E-03  1652   0.293E-01
    992 T=  1084. E= -.28785263E+02 F= -.32174237E+02 E0= -.32136012E+02  EK= 0.36440E+01 SP= -.26E+00 SK= 0.86E-03 mag=      0.051
       N       E                     dE             d eps       ncg     rms          rms(c)
DAV:   1    -0.321224190123E+02    0.50527E-01   -0.38061E-02  2872   0.131E+00    0.301E-02
RMM:   2    -0.321238560257E+02   -0.14370E-02   -0.54620E-03  1624   0.295E-01    0.203E-02
RMM:   3    -0.321241293313E+02   -0.27331E-03   -0.16033E-03  1344   0.118E-01
    993 T=  1062. E= -.28781644E+02 F= -.32124129E+02 E0= -.32085487E+02  EK= 0.35676E+01 SP= -.23E+00 SK= 0.84E-02 mag=      0.035
       N       E                     dE             d eps       ncg     rms          rms(c)
DAV:   1    -0.320743875021E+02    0.49469E-01   -0.26660E-02  2264   0.120E+00    0.282E-02
RMM:   2    -0.320756254962E+02   -0.12380E-02   -0.33924E-03  1530   0.272E-01
    994 T=  1032. E= -.28775177E+02 F= -.32075625E+02 E0= -.32036540E+02  EK= 0.34680E+01 SP= -.19E+00 SK= 0.22E-01 mag=     -0.021
       N       E                     dE             d eps       ncg     rms          rms(c)
DAV:   1    -0.320286506869E+02    0.45737E-01   -0.40641E-02  2792   0.133E+00    0.290E-02
RMM:   2    -0.320298378904E+02   -0.11872E-02   -0.41041E-03  1609   0.262E-01
    995 T=   997. E= -.28768280E+02 F= -.32029838E+02 E0= -.31990348E+02  EK= 0.33490E+01 SP= -.13E+00 SK= 0.39E-01 mag=     -0.073
       N       E                     dE             d eps       ncg     rms          rms(c)
DAV:   1    -0.319866234654E+02    0.42027E-01   -0.18443E-02  2240   0.113E+00    0.281E-02
RMM:   2    -0.319879406562E+02   -0.13172E-02   -0.51730E-03  1620   0.325E-01
    996 T=   956. E= -.28763944E+02 F= -.31987941E+02 E0= -.31948034E+02  EK= 0.32145E+01 SP= -.46E-01 SK= 0.56E-01 mag=     -0.080
       N       E                     dE             d eps       ncg     rms          rms(c)
DAV:   1    -0.319492448709E+02    0.37379E-01   -0.34138E-02  2752   0.125E+00    0.287E-02
RMM:   2    -0.319504662071E+02   -0.12213E-02   -0.45872E-03  1585   0.284E-01
    997 T=   915. E= -.28758648E+02 F= -.31950466E+02 E0= -.31910115E+02  EK= 0.30742E+01 SP= 0.46E-01 SK= 0.72E-01 mag=     -0.027
       N       E                     dE             d eps       ncg     rms          rms(c)
DAV:   1    -0.319170140048E+02    0.32231E-01   -0.20622E-02  2560   0.111E+00    0.256E-02
RMM:   2    -0.319181150888E+02   -0.11011E-02   -0.46672E-03  1571   0.306E-01
    998 T=   873. E= -.28753653E+02 F= -.31918115E+02 E0= -.31877329E+02  EK= 0.29330E+01 SP= 0.15E+00 SK= 0.83E-01 mag=      0.058
       N       E                     dE             d eps       ncg     rms          rms(c)
DAV:   1    -0.318901400619E+02    0.26874E-01   -0.25142E-02  2696   0.116E+00    0.315E-02
RMM:   2    -0.318912117687E+02   -0.10717E-02   -0.45643E-03  1575   0.282E-01
    999 T=   832. E= -.28748209E+02 F= -.31891212E+02 E0= -.31850066E+02  EK= 0.27965E+01 SP= 0.26E+00 SK= 0.90E-01 mag=      0.106
       N       E                     dE             d eps       ncg     rms          rms(c)
DAV:   1    -0.318692960461E+02    0.20844E-01   -0.19082E-02  2616   0.108E+00    0.321E-02
RMM:   2    -0.318703324944E+02   -0.10364E-02   -0.48308E-03  1586   0.294E-01
   1000 T=   794. E= -.28743636E+02 F= -.31870332E+02 E0= -.31828744E+02  EK= 0.26677E+01 SP= 0.37E+00 SK= 0.92E-01 mag=      0.074
       N       E                     dE             d eps       ncg     rms          rms(c)
DAV:   1    -0.318547937629E+02    0.14502E-01   -0.17866E-02  2568   0.108E+00    0.282E-02
RMM:   2    -0.318557356654E+02   -0.94190E-03   -0.47695E-03  1592   0.288E-01
   1001 T=   759. E= -.28738909E+02 F= -.31855736E+02 E0= -.31813703E+02  EK= 0.25508E+01 SP= 0.48E+00 SK= 0.89E-01 mag=     -0.023
       N       E                     dE             d eps       ncg     rms          rms(c)
DAV:   1    -0.318463661645E+02    0.84276E-02   -0.17358E-02  2408   0.105E+00    0.317E-02
RMM:   2    -0.318472344283E+02   -0.86826E-03   -0.44087E-03  1565   0.290E-01
   1002 T=   728. E= -.28733866E+02 F= -.31847234E+02 E0= -.31804850E+02  EK= 0.24481E+01 SP= 0.58E+00 SK= 0.81E-01 mag=     -0.122
       N       E                     dE             d eps       ncg     rms          rms(c)
DAV:   1    -0.318439147931E+02    0.24514E-02   -0.16093E-02  2624   0.103E+00    0.395E-02
RMM:   2    -0.318448715070E+02   -0.95671E-03   -0.44613E-03  1546   0.279E-01
   1003 T=   702. E= -.28728705E+02 F= -.31844872E+02 E0= -.31802145E+02  EK= 0.23606E+01 SP= 0.68E+00 SK= 0.71E-01 mag=     -0.133
       N       E                     dE             d eps       ncg     rms          rms(c)
DAV:   1    -0.318485262834E+02   -0.46115E-02   -0.14168E-02  2472   0.102E+00    0.323E-02
RMM:   2    -0.318493034149E+02   -0.77713E-03   -0.41112E-03  1547   0.284E-01
   1004 T=   681. E= -.28724051E+02 F= -.31849303E+02 E0= -.31806075E+02  EK= 0.22894E+01 SP= 0.78E+00 SK= 0.58E-01 mag=     -0.036
       N       E                     dE             d eps       ncg     rms          rms(c)
DAV:   1    -0.318588600219E+02   -0.10334E-01   -0.12866E-02  2360   0.994E-01    0.320E-02
RMM:   2    -0.318596450961E+02   -0.78507E-03   -0.43242E-03  1566   0.279E-01
   1005 T=   665. E= -.28719302E+02 F= -.31859645E+02 E0= -.31816067E+02  EK= 0.22346E+01 SP= 0.86E+00 SK= 0.45E-01 mag=      0.108
       N       E                     dE             d eps       ncg     rms          rms(c)
DAV:   1    -0.318741987241E+02   -0.15339E-01   -0.13055E-02  2480   0.983E-01    0.453E-02
RMM:   2    -0.318751379605E+02   -0.93924E-03   -0.46917E-03  1568   0.281E-01
   1006 T=   653. E= -.28714155E+02 F= -.31875138E+02 E0= -.31831318E+02  EK= 0.21961E+01 SP= 0.93E+00 SK= 0.32E-01 mag=      0.184
       N       E                     dE             d eps       ncg     rms          rms(c)
DAV:   1    -0.318956094991E+02   -0.21411E-01   -0.14903E-02  2504   0.992E-01    0.441E-02
RMM:   2    -0.318964870102E+02   -0.87751E-03   -0.42708E-03  1539   0.284E-01
   1007 T=   647. E= -.28709400E+02 F= -.31896487E+02 E0= -.31852217E+02  EK= 0.21738E+01 SP= 0.99E+00 SK= 0.21E-01 mag=      0.126
       N       E                     dE             d eps       ncg     rms          rms(c)
DAV:   1    -0.319223421880E+02   -0.26733E-01   -0.11805E-02  2456   0.969E-01    0.344E-02
RMM:   2    -0.319232200096E+02   -0.87782E-03   -0.53162E-03  1601   0.281E-01
   1008 T=   645. E= -.28705060E+02 F= -.31923220E+02 E0= -.31878467E+02  EK= 0.21670E+01 SP= 0.10E+01 SK= 0.12E-01 mag=     -0.039
       N       E                     dE             d eps       ncg     rms          rms(c)
DAV:   1    -0.319533233164E+02   -0.30981E-01   -0.13596E-02  2608   0.949E-01    0.467E-02
RMM:   2    -0.319542526834E+02   -0.92937E-03   -0.48929E-03  1580   0.283E-01
   1009 T=   647. E= -.28700537E+02 F= -.31954253E+02 E0= -.31909325E+02  EK= 0.21751E+01 SP= 0.11E+01 SK= 0.57E-02 mag=     -0.204
       N       E                     dE             d eps       ncg     rms          rms(c)
DAV:   1    -0.319881500931E+02   -0.34827E-01   -0.15279E-02  2456   0.969E-01    0.596E-02
RMM:   2    -0.319893630020E+02   -0.12129E-02   -0.49154E-03  1559   0.275E-01
   1010 T=   654. E= -.28696087E+02 F= -.31989363E+02 E0= -.31944256E+02  EK= 0.21973E+01 SP= 0.11E+01 SK= 0.17E-02 mag=     -0.200
       N       E                     dE             d eps       ncg     rms          rms(c)
DAV:   1    -0.320288278875E+02   -0.40678E-01   -0.14837E-02  2536   0.977E-01    0.423E-02
RMM:   2    -0.320296177156E+02   -0.78983E-03   -0.44716E-03  1548   0.288E-01
   1011 T=   665. E= -.28692676E+02 F= -.32029618E+02 E0= -.31983822E+02  EK= 0.22335E+01 SP= 0.11E+01 SK= 0.95E-04 mag=     -0.024
       N       E                     dE             d eps       ncg     rms          rms(c)
DAV:   1    -0.320711799903E+02   -0.42352E-01   -0.15541E-02  2544   0.967E-01    0.523E-02
RMM:   2    -0.320722032136E+02   -0.10232E-02   -0.48335E-03  1564   0.282E-01
   1012 T=   679. E= -.28688097E+02 F= -.32072203E+02 E0= -.32026238E+02  EK= 0.22824E+01 SP= 0.11E+01 SK= 0.38E-03 mag=      0.204
       N       E                     dE             d eps       ncg     rms          rms(c)
DAV:   1    -0.321158223534E+02   -0.44642E-01   -0.13557E-02  2280   0.980E-01    0.740E-02
RMM:   2    -0.321172344521E+02   -0.14121E-02   -0.49810E-03  1565   0.284E-01    0.587E-02
RMM:   3    -0.321178586158E+02   -0.62416E-03   -0.15163E-03  1463   0.112E-01
   1013 T=   697. E= -.28684834E+02 F= -.32117859E+02 E0= -.32071773E+02  EK= 0.23418E+01 SP= 0.11E+01 SK= 0.20E-02 mag=      0.096
       N       E                     dE             d eps       ncg     rms          rms(c)
DAV:   1    -0.321649375440E+02   -0.47703E-01   -0.21827E-02  2520   0.999E-01    0.651E-02
RMM:   2    -0.321661889406E+02   -0.12514E-02   -0.40504E-03  1497   0.251E-01
   1014 T=   718. E= -.28680733E+02 F= -.32166189E+02 E0= -.32119600E+02  EK= 0.24125E+01 SP= 0.11E+01 SK= 0.44E-02 mag=     -0.234
       N       E                     dE             d eps       ncg     rms          rms(c)
DAV:   1    -0.322108171582E+02   -0.45880E-01   -0.35784E-02  2792   0.106E+00    0.117E-01
RMM:   2    -0.322132891424E+02   -0.24720E-02   -0.52568E-03  1548   0.264E-01    0.878E-02
RMM:   3    -0.322156129811E+02   -0.23238E-02   -0.28738E-03  1417   0.123E-01    0.579E-02
RMM:   4    -0.322167379758E+02   -0.11250E-02   -0.20618E-03  1400   0.926E-02
   1015 T=   741. E= -.28678144E+02 F= -.32216738E+02 E0= -.32169674E+02  EK= 0.24908E+01 SP= 0.10E+01 SK= 0.67E-02 mag=     -0.041
       N       E                     dE             d eps       ncg     rms          rms(c)
DAV:   1    -0.322621693106E+02   -0.46556E-01   -0.16261E-02  2560   0.963E-01    0.115E-01
RMM:   2    -0.322647624868E+02   -0.25932E-02   -0.55606E-03  1440   0.238E-01    0.859E-02
RMM:   3    -0.322669380536E+02   -0.21756E-02   -0.34191E-03  1400   0.106E-01    0.508E-02
RMM:   4    -0.322677459645E+02   -0.80791E-03   -0.15374E-03  1395   0.782E-02
   1016 T=   766. E= -.28677471E+02 F= -.32267746E+02 E0= -.32220413E+02  EK= 0.25729E+01 SP= 0.10E+01 SK= 0.86E-02 mag=      0.070
       N       E                     dE             d eps       ncg     rms          rms(c)
DAV:   1    -0.323173509214E+02   -0.50413E-01   -0.20231E-02  2672   0.108E+00    0.657E-02
RMM:   2    -0.323185320232E+02   -0.11811E-02   -0.41981E-03  1445   0.248E-01
   1017 T=   792. E= -.28674162E+02 F= -.32318532E+02 E0= -.32270983E+02  EK= 0.26613E+01 SP= 0.97E+00 SK= 0.95E-02 mag=      0.075
       N       E                     dE             d eps       ncg     rms          rms(c)
DAV:   1    -0.323686877706E+02   -0.51337E-01   -0.19648E-02  2920   0.107E+00    0.534E-02
RMM:   2    -0.323696852838E+02   -0.99751E-03   -0.39876E-03  1557   0.255E-01
   1018 T=   818. E= -.28673023E+02 F= -.32369685E+02 E0= -.32321861E+02  EK= 0.27497E+01 SP= 0.94E+00 SK= 0.93E-02 mag=     -0.005
       N       E                     dE             d eps       ncg     rms          rms(c)
DAV:   1    -0.324189573070E+02   -0.50270E-01   -0.11433E-02  2440   0.106E+00    0.382E-02
RMM:   2    -0.324198216164E+02   -0.86431E-03   -0.41557E-03  1540   0.287E-01
   1019 T=   844. E= -.28671874E+02 F= -.32419822E+02 E0= -.32371835E+02  EK= 0.28366E+01 SP= 0.90E+00 SK= 0.80E-02 mag=     -0.114
       N       E                     dE             d eps       ncg     rms          rms(c)
DAV:   1    -0.324663292073E+02   -0.47372E-01   -0.18446E-02  2528   0.114E+00    0.515E-02
RMM:   2    -0.324675308667E+02   -0.12017E-02   -0.52464E-03  1534   0.287E-01
   1020 T=   869. E= -.28668109E+02 F= -.32467531E+02 E0= -.32419561E+02  EK= 0.29210E+01 SP= 0.87E+00 SK= 0.59E-02 mag=     -0.176
       N       E                     dE             d eps       ncg     rms          rms(c)
DAV:   1    -0.325113293665E+02   -0.45000E-01   -0.13798E-02  2576   0.111E+00    0.550E-02
RMM:   2    -0.325127664029E+02   -0.14370E-02   -0.56933E-03  1569   0.314E-01    0.425E-02
RMM:   3    -0.325134213538E+02   -0.65495E-03   -0.19225E-03  1467   0.125E-01
   1021 T=   892. E= -.28665846E+02 F= -.32513421E+02 E0= -.32465241E+02  EK= 0.29966E+01 SP= 0.85E+00 SK= 0.34E-02 mag=     -0.071
       N       E                     dE             d eps       ncg     rms          rms(c)
DAV:   1    -0.325539478305E+02   -0.41181E-01   -0.21583E-02  2608   0.114E+00    0.580E-02
RMM:   2    -0.325554869522E+02   -0.15391E-02   -0.45321E-03  1495   0.288E-01    0.432E-02
RMM:   3    -0.325559086051E+02   -0.42165E-03   -0.11056E-03  1313   0.104E-01
   1022 T=   911. E= -.28661757E+02 F= -.32555909E+02 E0= -.32507626E+02  EK= 0.30627E+01 SP= 0.83E+00 SK= 0.12E-02 mag=      0.081
       N       E                     dE             d eps       ncg     rms          rms(c)
DAV:   1    -0.325927684393E+02   -0.37281E-01   -0.33309E-02  2688   0.113E+00    0.546E-02
RMM:   2    -0.325939410799E+02   -0.11726E-02   -0.44170E-03  1548   0.271E-01
   1023 T=   927. E= -.28656001E+02 F= -.32593941E+02 E0= -.32545811E+02  EK= 0.31158E+01 SP= 0.82E+00 SK= 0.63E-04 mag=      0.173
       N       E                     dE             d eps       ncg     rms          rms(c)
DAV:   1    -0.326268674124E+02   -0.34099E-01   -0.29419E-02  2816   0.119E+00    0.498E-02
RMM:   2    -0.326281220990E+02   -0.12547E-02   -0.51561E-03  1562   0.294E-01
   1024 T=   937. E= -.28653183E+02 F= -.32628122E+02 E0= -.32579955E+02  EK= 0.31500E+01 SP= 0.82E+00 SK= 0.49E-03 mag=      0.138
       N       E                     dE             d eps       ncg     rms          rms(c)
DAV:   1    -0.326570588736E+02   -0.30191E-01   -0.18346E-02  2688   0.114E+00    0.323E-02
RMM:   2    -0.326581631986E+02   -0.11043E-02   -0.52019E-03  1592   0.333E-01
   1025 T=   942. E= -.28649597E+02 F= -.32658163E+02 E0= -.32609855E+02  EK= 0.31675E+01 SP= 0.84E+00 SK= 0.29E-02 mag=     -0.011
       N       E                     dE             d eps       ncg     rms          rms(c)
DAV:   1    -0.326810525661E+02   -0.23994E-01   -0.25439E-02  2648   0.127E+00    0.462E-02
RMM:   2    -0.326823586226E+02   -0.13061E-02   -0.51064E-03  1570   0.302E-01
   1026 T=   943. E= -.28643604E+02 F= -.32682359E+02 E0= -.32634361E+02  EK= 0.31675E+01 SP= 0.86E+00 SK= 0.75E-02 mag=     -0.167
       N       E                     dE             d eps       ncg     rms          rms(c)
DAV:   1    -0.326997407901E+02   -0.18688E-01   -0.15035E-02  2736   0.118E+00    0.648E-02
RMM:   2    -0.327013865406E+02   -0.16458E-02   -0.55221E-03  1592   0.323E-01    0.505E-02
RMM:   3    -0.327021200753E+02   -0.73353E-03   -0.19616E-03  1418   0.128E-01
   1027 T=   936. E= -.28639709E+02 F= -.32702120E+02 E0= -.32654342E+02  EK= 0.31473E+01 SP= 0.90E+00 SK= 0.14E-01 mag=     -0.073
       N       E                     dE             d eps       ncg     rms          rms(c)
DAV:   1    -0.327154326506E+02   -0.14046E-01   -0.29445E-02  2648   0.116E+00    0.557E-02
RMM:   2    -0.327169221607E+02   -0.14895E-02   -0.40736E-03  1470   0.292E-01    0.436E-02
RMM:   3    -0.327172080848E+02   -0.28592E-03   -0.85765E-04  1222   0.101E-01
   1028 T=   926. E= -.28634840E+02 F= -.32717208E+02 E0= -.32669475E+02  EK= 0.31107E+01 SP= 0.95E+00 SK= 0.22E-01 mag=      0.075
       N       E                     dE             d eps       ncg     rms          rms(c)
DAV:   1    -0.327250777216E+02   -0.81556E-02   -0.36243E-02  2768   0.117E+00    0.609E-02
RMM:   2    -0.327264702264E+02   -0.13925E-02   -0.51236E-03  1563   0.289E-01    0.431E-02
RMM:   3    -0.327269333867E+02   -0.46316E-03   -0.13511E-03  1477   0.113E-01
   1029 T=   910. E= -.28629753E+02 F= -.32726933E+02 E0= -.32679499E+02  EK= 0.30577E+01 SP= 0.10E+01 SK= 0.31E-01 mag=      0.105
       N       E                     dE             d eps       ncg     rms          rms(c)
DAV:   1    -0.327318546288E+02   -0.53844E-02   -0.20185E-02  2656   0.117E+00    0.349E-02
RMM:   2    -0.327328075694E+02   -0.95294E-03   -0.40685E-03  1574   0.282E-01
   1030 T=   890. E= -.28624078E+02 F= -.32732808E+02 E0= -.32685411E+02  EK= 0.29926E+01 SP= 0.11E+01 SK= 0.39E-01 mag=      0.012
       N       E                     dE             d eps       ncg     rms          rms(c)
DAV:   1    -0.327327421447E+02   -0.88752E-03   -0.24771E-02  2952   0.116E+00    0.412E-02
RMM:   2    -0.327338418220E+02   -0.10997E-02   -0.46692E-03  1567   0.276E-01
   1031 T=   868. E= -.28618536E+02 F= -.32733842E+02 E0= -.32686837E+02  EK= 0.29161E+01 SP= 0.12E+01 SK= 0.46E-01 mag=     -0.122
       N       E                     dE             d eps       ncg     rms          rms(c)
DAV:   1    -0.327298227987E+02    0.29193E-02   -0.14062E-02  2160   0.114E+00    0.570E-02
RMM:   2    -0.327312406462E+02   -0.14178E-02   -0.50627E-03  1555   0.301E-01    0.433E-02
RMM:   3    -0.327319002905E+02   -0.65964E-03   -0.18508E-03  1459   0.123E-01
   1032 T=   842. E= -.28615525E+02 F= -.32731900E+02 E0= -.32685209E+02  EK= 0.28303E+01 SP= 0.12E+01 SK= 0.52E-01 mag=     -0.047
       N       E                     dE             d eps       ncg     rms          rms(c)
DAV:   1    -0.327254650319E+02    0.57756E-02   -0.24442E-02  2624   0.110E+00    0.526E-02
RMM:   2    -0.327267040318E+02   -0.12390E-02   -0.38213E-03  1495   0.282E-01
   1033 T=   817. E= -.28607956E+02 F= -.32726704E+02 E0= -.32680321E+02  EK= 0.27448E+01 SP= 0.13E+01 SK= 0.55E-01 mag=      0.139
       N       E                     dE             d eps       ncg     rms          rms(c)
DAV:   1    -0.327161251822E+02    0.93398E-02   -0.30319E-02  3040   0.118E+00    0.824E-02
RMM:   2    -0.327179645428E+02   -0.18394E-02   -0.46936E-03  1540   0.256E-01    0.634E-02
RMM:   3    -0.327192486253E+02   -0.12841E-02   -0.19670E-03  1400   0.109E-01
   1034 T=   791. E= -.28602034E+02 F= -.32719249E+02 E0= -.32673261E+02  EK= 0.26567E+01 SP= 0.14E+01 SK= 0.55E-01 mag=      0.060
       N       E                     dE             d eps       ncg     rms          rms(c)
DAV:   1    -0.327085651609E+02    0.93994E-02   -0.22405E-02  2560   0.100E+00    0.676E-02
RMM:   2    -0.327100053479E+02   -0.14402E-02   -0.35952E-03  1445   0.239E-01    0.520E-02
RMM:   3    -0.327103961516E+02   -0.39080E-03   -0.84239E-04  1183   0.917E-02
   1035 T=   764. E= -.28600252E+02 F= -.32710396E+02 E0= -.32664603E+02  EK= 0.25667E+01 SP= 0.15E+01 SK= 0.53E-01 mag=     -0.050
       N       E                     dE             d eps       ncg     rms          rms(c)
DAV:   1    -0.326985988230E+02    0.11407E-01   -0.37919E-02  2608   0.109E+00    0.576E-02
RMM:   2    -0.326997324056E+02   -0.11336E-02   -0.46181E-03  1551   0.282E-01
   1036 T=   739. E= -.28595549E+02 F= -.32699732E+02 E0= -.32654291E+02  EK= 0.24833E+01 SP= 0.16E+01 SK= 0.48E-01 mag=     -0.121
       N       E                     dE             d eps       ncg     rms          rms(c)
DAV:   1    -0.326875401388E+02    0.11059E-01   -0.23368E-02  2672   0.104E+00    0.511E-02
RMM:   2    -0.326885921492E+02   -0.10520E-02   -0.46901E-03  1587   0.264E-01
   1037 T=   716. E= -.28591563E+02 F= -.32688592E+02 E0= -.32643417E+02  EK= 0.24059E+01 SP= 0.17E+01 SK= 0.41E-01 mag=     -0.098
       N       E                     dE             d eps       ncg     rms          rms(c)
DAV:   1    -0.326762766108E+02    0.11264E-01   -0.14834E-02  2592   0.979E-01    0.307E-02
RMM:   2    -0.326771208081E+02   -0.84420E-03   -0.41326E-03  1553   0.269E-01
   1038 T=   695. E= -.28588022E+02 F= -.32677121E+02 E0= -.32632127E+02  EK= 0.23358E+01 SP= 0.17E+01 SK= 0.33E-01 mag=      0.005
       N       E                     dE             d eps       ncg     rms          rms(c)
DAV:   1    -0.326638323652E+02    0.12444E-01   -0.15940E-02  2304   0.102E+00    0.457E-02
RMM:   2    -0.326648458413E+02   -0.10135E-02   -0.42195E-03  1546   0.256E-01
   1039 T=   677. E= -.28583026E+02 F= -.32664846E+02 E0= -.32620248E+02  EK= 0.22757E+01 SP= 0.18E+01 SK= 0.24E-01 mag=      0.123
       N       E                     dE             d eps       ncg     rms          rms(c)
DAV:   1    -0.326513156990E+02    0.12517E-01   -0.10628E-02  2488   0.934E-01    0.597E-02
RMM:   2    -0.326525898057E+02   -0.12741E-02   -0.38793E-03  1531   0.258E-01
   1040 T=   662. E= -.28578050E+02 F= -.32652590E+02 E0= -.32608411E+02  EK= 0.22253E+01 SP= 0.18E+01 SK= 0.16E-01 mag=      0.109
       N       E                     dE             d eps       ncg     rms          rms(c)
DAV:   1    -0.326415620555E+02    0.97536E-02   -0.16926E-02  2736   0.102E+00    0.376E-02
RMM:   2    -0.326424154732E+02   -0.85342E-03   -0.48639E-03  1594   0.269E-01
   1041 T=   650. E= -.28574311E+02 F= -.32642415E+02 E0= -.32598229E+02  EK= 0.21860E+01 SP= 0.19E+01 SK= 0.86E-02 mag=     -0.017
       N       E                     dE             d eps       ncg     rms          rms(c)
DAV:   1    -0.326296889591E+02    0.11873E-01   -0.20024E-02  2496   0.920E-01    0.557E-02
RMM:   2    -0.326310369322E+02   -0.13480E-02   -0.52611E-03  1554   0.288E-01
   1042 T=   642. E= -.28568947E+02 F= -.32631037E+02 E0= -.32587252E+02  EK= 0.21576E+01 SP= 0.19E+01 SK= 0.33E-02 mag=     -0.125
       N       E                     dE             d eps       ncg     rms          rms(c)
DAV:   1    -0.326196720089E+02    0.10017E-01   -0.15449E-02  2640   0.972E-01    0.612E-02
RMM:   2    -0.326208160292E+02   -0.11440E-02   -0.38727E-03  1528   0.252E-01
   1043 T=   637. E= -.28564926E+02 F= -.32620816E+02 E0= -.32577249E+02  EK= 0.21398E+01 SP= 0.19E+01 SK= 0.45E-03 mag=     -0.134
       N       E                     dE             d eps       ncg     rms          rms(c)
DAV:   1    -0.326105544102E+02    0.91176E-02   -0.13354E-02  2336   0.922E-01    0.458E-02
RMM:   2    -0.326115533221E+02   -0.99891E-03   -0.43113E-03  1568   0.259E-01
   1044 T=   635. E= -.28561559E+02 F= -.32611553E+02 E0= -.32568061E+02  EK= 0.21332E+01 SP= 0.19E+01 SK= 0.26E-03 mag=     -0.031
       N       E                     dE             d eps       ncg     rms          rms(c)
DAV:   1    -0.326013115706E+02    0.92428E-02   -0.14806E-02  2600   0.953E-01    0.508E-02
RMM:   2    -0.326023850695E+02   -0.10735E-02   -0.47376E-03  1558   0.277E-01
   1045 T=   636. E= -.28557462E+02 F= -.32602385E+02 E0= -.32559062E+02  EK= 0.21383E+01 SP= 0.19E+01 SK= 0.29E-02 mag=      0.117
       N       E                     dE             d eps       ncg     rms          rms(c)
DAV:   1    -0.325908485556E+02    0.10463E-01   -0.12806E-02  2464   0.949E-01    0.763E-02
RMM:   2    -0.325925298061E+02   -0.16813E-02   -0.47676E-03  1539   0.273E-01    0.586E-02
RMM:   3    -0.325936731590E+02   -0.11434E-02   -0.24186E-03  1402   0.115E-01
   1046 T=   641. E= -.28554295E+02 F= -.32593673E+02 E0= -.32550518E+02  EK= 0.21538E+01 SP= 0.19E+01 SK= 0.82E-02 mag=      0.034
       N       E                     dE             d eps       ncg     rms          rms(c)
DAV:   1    -0.325830422574E+02    0.94875E-02   -0.24103E-02  2544   0.943E-01    0.718E-02
RMM:   2    -0.325845349952E+02   -0.14927E-02   -0.33883E-03  1435   0.232E-01    0.547E-02
RMM:   3    -0.325852894150E+02   -0.75442E-03   -0.12384E-03  1392   0.889E-02
   1047 T=   649. E= -.28551457E+02 F= -.32585289E+02 E0= -.32542189E+02  EK= 0.21802E+01 SP= 0.18E+01 SK= 0.16E-01 mag=     -0.032
       N       E                     dE             d eps       ncg     rms          rms(c)
DAV:   1    -0.325759873483E+02    0.85476E-02   -0.33440E-02  2544   0.953E-01    0.461E-02
RMM:   2    -0.325767521552E+02   -0.76481E-03   -0.39447E-03  1550   0.250E-01
   1048 T=   660. E= -.28547756E+02 F= -.32576752E+02 E0= -.32533710E+02  EK= 0.22181E+01 SP= 0.18E+01 SK= 0.25E-01 mag=     -0.048
       N       E                     dE             d eps       ncg     rms          rms(c)
DAV:   1    -0.325670585355E+02    0.89288E-02   -0.22345E-02  2688   0.993E-01    0.419E-02
RMM:   2    -0.325679359243E+02   -0.87739E-03   -0.39901E-03  1565   0.248E-01
   1049 T=   674. E= -.28545317E+02 F= -.32567936E+02 E0= -.32524975E+02  EK= 0.22649E+01 SP= 0.17E+01 SK= 0.36E-01 mag=     -0.005
       N       E                     dE             d eps       ncg     rms          rms(c)
DAV:   1    -0.325581345339E+02    0.89240E-02   -0.13027E-02  2528   0.982E-01    0.437E-02
RMM:   2    -0.325589845568E+02   -0.85002E-03   -0.35872E-03  1541   0.268E-01
   1050 T=   691. E= -.28542662E+02 F= -.32558985E+02 E0= -.32516059E+02  EK= 0.23220E+01 SP= 0.16E+01 SK= 0.47E-01 mag=      0.049
       N       E                     dE             d eps       ncg     rms          rms(c)
DAV:   1    -0.325482804244E+02    0.98541E-02   -0.14604E-02  2424   0.109E+00    0.394E-02
RMM:   2    -0.325491873252E+02   -0.90690E-03   -0.43062E-03  1562   0.271E-01
   1051 T=   711. E= -.28538635E+02 F= -.32549187E+02 E0= -.32506281E+02  EK= 0.23892E+01 SP= 0.16E+01 SK= 0.57E-01 mag=      0.072
       N       E                     dE             d eps       ncg     rms          rms(c)
DAV:   1    -0.325368760688E+02    0.11404E-01   -0.96820E-03  2360   0.985E-01    0.454E-02
RMM:   2    -0.325379718790E+02   -0.10958E-02   -0.45690E-03  1575   0.290E-01
   1052 T=   733. E= -.28534273E+02 F= -.32537972E+02 E0= -.32495122E+02  EK= 0.24642E+01 SP= 0.15E+01 SK= 0.66E-01 mag=      0.033
       N       E                     dE             d eps       ncg     rms          rms(c)
DAV:   1    -0.325250314578E+02    0.11845E-01   -0.16415E-02  2704   0.111E+00    0.479E-02
RMM:   2    -0.325260975695E+02   -0.10661E-02   -0.46343E-03  1583   0.283E-01
   1053 T=   758. E= -.28530194E+02 F= -.32526098E+02 E0= -.32483197E+02  EK= 0.25460E+01 SP= 0.14E+01 SK= 0.72E-01 mag=     -0.042
       N       E                     dE             d eps       ncg     rms          rms(c)
DAV:   1    -0.325115754068E+02    0.13456E-01   -0.15455E-02  2328   0.103E+00    0.406E-02
RMM:   2    -0.325127637467E+02   -0.11883E-02   -0.54872E-03  1611   0.311E-01
   1054 T=   783. E= -.28525954E+02 F= -.32512764E+02 E0= -.32469824E+02  EK= 0.26329E+01 SP= 0.13E+01 SK= 0.76E-01 mag=     -0.091
       N       E                     dE             d eps       ncg     rms          rms(c)
DAV:   1    -0.324960096800E+02    0.15566E-01   -0.17127E-02  2568   0.112E+00    0.522E-02
RMM:   2    -0.324974084346E+02   -0.13988E-02   -0.56671E-03  1604   0.309E-01    0.406E-02
RMM:   3    -0.324979178511E+02   -0.50942E-03   -0.17016E-03  1466   0.121E-01
   1055 T=   810. E= -.28522187E+02 F= -.32497918E+02 E0= -.32454902E+02  EK= 0.27225E+01 SP= 0.12E+01 SK= 0.76E-01 mag=     -0.008
       N       E                     dE             d eps       ncg     rms          rms(c)
DAV:   1    -0.324793684345E+02    0.18040E-01   -0.23355E-02  2552   0.108E+00    0.583E-02
RMM:   2    -0.324807609440E+02   -0.13925E-02   -0.46593E-03  1546   0.279E-01    0.429E-02
RMM:   3    -0.324811985732E+02   -0.43763E-03   -0.10907E-03  1323   0.104E-01
   1056 T=   837. E= -.28518232E+02 F= -.32481199E+02 E0= -.32438109E+02  EK= 0.28129E+01 SP= 0.11E+01 SK= 0.73E-01 mag=      0.038
       N       E                     dE             d eps       ncg     rms          rms(c)
DAV:   1    -0.324619298482E+02    0.18831E-01   -0.29721E-02  2632   0.110E+00    0.374E-02
RMM:   2    -0.324628350468E+02   -0.90520E-03   -0.42190E-03  1594   0.275E-01
   1057 T=   864. E= -.28512685E+02 F= -.32462835E+02 E0= -.32419628E+02  EK= 0.29033E+01 SP= 0.98E+00 SK= 0.67E-01 mag=      0.022
       N       E                     dE             d eps       ncg     rms          rms(c)
DAV:   1    -0.324414930454E+02    0.20437E-01   -0.23341E-02  2784   0.115E+00    0.397E-02
RMM:   2    -0.324426206652E+02   -0.11276E-02   -0.48928E-03  1598   0.289E-01
   1058 T=   889. E= -.28509436E+02 F= -.32442621E+02 E0= -.32399351E+02  EK= 0.29870E+01 SP= 0.89E+00 SK= 0.59E-01 mag=     -0.038
       N       E                     dE             d eps       ncg     rms          rms(c)
DAV:   1    -0.324201010302E+02    0.21392E-01   -0.15970E-02  2392   0.113E+00    0.433E-02
RMM:   2    -0.324212567740E+02   -0.11557E-02   -0.45679E-03  1609   0.314E-01
   1059 T=   912. E= -.28505910E+02 F= -.32421257E+02 E0= -.32377893E+02  EK= 0.30642E+01 SP= 0.80E+00 SK= 0.48E-01 mag=     -0.083
       N       E                     dE             d eps       ncg     rms          rms(c)
DAV:   1    -0.323975658614E+02    0.22535E-01   -0.23076E-02  2752   0.123E+00    0.381E-02
RMM:   2    -0.323987444532E+02   -0.11786E-02   -0.47271E-03  1606   0.301E-01
   1060 T=   933. E= -.28500122E+02 F= -.32398744E+02 E0= -.32355247E+02  EK= 0.31341E+01 SP= 0.73E+00 SK= 0.37E-01 mag=     -0.061
       N       E                     dE             d eps       ncg     rms          rms(c)
DAV:   1    -0.323740598154E+02    0.23506E-01   -0.12846E-02  2448   0.112E+00    0.385E-02
RMM:   2    -0.323753764979E+02   -0.13167E-02   -0.58978E-03  1649   0.320E-01
   1061 T=   950. E= -.28494600E+02 F= -.32375376E+02 E0= -.32331797E+02  EK= 0.31919E+01 SP= 0.66E+00 SK= 0.25E-01 mag=      0.025
       N       E                     dE             d eps       ncg     rms          rms(c)
DAV:   1    -0.323501573666E+02    0.23902E-01   -0.22870E-02  2608   0.120E+00    0.492E-02
RMM:   2    -0.323515687325E+02   -0.14114E-02   -0.50992E-03  1609   0.308E-01    0.370E-02
RMM:   3    -0.323520452475E+02   -0.47651E-03   -0.15414E-03  1450   0.117E-01
   1062 T=   963. E= -.28490208E+02 F= -.32352045E+02 E0= -.32308332E+02  EK= 0.32349E+01 SP= 0.61E+00 SK= 0.15E-01 mag=      0.047
       N       E                     dE             d eps       ncg     rms          rms(c)
DAV:   1    -0.323271654831E+02    0.24403E-01   -0.19530E-02  2496   0.113E+00    0.444E-02
RMM:   2    -0.323284842647E+02   -0.13188E-02   -0.51134E-03  1561   0.285E-01
   1063 T=   972. E= -.28482802E+02 F= -.32328484E+02 E0= -.32284640E+02  EK= 0.32651E+01 SP= 0.57E+00 SK= 0.74E-02 mag=     -0.004
       N       E                     dE             d eps       ncg     rms          rms(c)
DAV:   1    -0.323034792045E+02    0.23686E-01   -0.35078E-02  3072   0.126E+00    0.647E-02
RMM:   2    -0.323051735598E+02   -0.16944E-02   -0.52194E-03  1623   0.270E-01    0.496E-02
RMM:   3    -0.323060070680E+02   -0.83351E-03   -0.16595E-03  1406   0.110E-01
   1064 T=   975. E= -.28476637E+02 F= -.32306007E+02 E0= -.32262078E+02  EK= 0.32782E+01 SP= 0.55E+00 SK= 0.22E-02 mag=     -0.039
       N       E                     dE             d eps       ncg     rms          rms(c)
DAV:   1    -0.322833097421E+02    0.21864E-01   -0.19974E-02  2528   0.113E+00    0.657E-02
RMM:   2    -0.322849289060E+02   -0.16192E-02   -0.50627E-03  1548   0.280E-01    0.471E-02
RMM:   3    -0.322853426710E+02   -0.41377E-03   -0.12479E-03  1344   0.108E-01
   1065 T=   974. E= -.28473700E+02 F= -.32285343E+02 E0= -.32241206E+02  EK= 0.32722E+01 SP= 0.54E+00 SK= 0.45E-04 mag=     -0.005
       N       E                     dE             d eps       ncg     rms          rms(c)
DAV:   1    -0.322652629795E+02    0.19666E-01   -0.39997E-02  2760   0.119E+00    0.575E-02
RMM:   2    -0.322665406743E+02   -0.12777E-02   -0.52703E-03  1635   0.302E-01
   1066 T=   968. E= -.28467329E+02 F= -.32266541E+02 E0= -.32222314E+02  EK= 0.32541E+01 SP= 0.54E+00 SK= 0.10E-02 mag=      0.074
       N       E                     dE             d eps       ncg     rms          rms(c)
DAV:   1    -0.322496364348E+02    0.15627E-01   -0.26819E-02  2984   0.117E+00    0.510E-02
RMM:   2    -0.322509081075E+02   -0.12717E-02   -0.48297E-03  1630   0.278E-01
   1067 T=   958. E= -.28464600E+02 F= -.32250908E+02 E0= -.32206544E+02  EK= 0.32187E+01 SP= 0.56E+00 SK= 0.48E-02 mag=      0.125
       N       E                     dE             d eps       ncg     rms          rms(c)
DAV:   1    -0.322377574384E+02    0.11879E-01   -0.16146E-02  2456   0.113E+00    0.356E-02
RMM:   2    -0.322388314870E+02   -0.10740E-02   -0.45814E-03  1584   0.294E-01
   1068 T=   944. E= -.28462017E+02 F= -.32238831E+02 E0= -.32194164E+02  EK= 0.31715E+01 SP= 0.59E+00 SK= 0.11E-01 mag=      0.089
       N       E                     dE             d eps       ncg     rms          rms(c)
DAV:   1    -0.322283108587E+02    0.94466E-02   -0.24375E-02  2896   0.123E+00    0.458E-02
RMM:   2    -0.322296259427E+02   -0.13151E-02   -0.52705E-03  1599   0.290E-01
   1069 T=   927. E= -.28456278E+02 F= -.32229626E+02 E0= -.32184830E+02  EK= 0.31170E+01 SP= 0.64E+00 SK= 0.18E-01 mag=     -0.034
       N       E                     dE             d eps       ncg     rms          rms(c)
DAV:   1    -0.322231491780E+02    0.51617E-02   -0.15355E-02  2688   0.109E+00    0.571E-02
RMM:   2    -0.322245870841E+02   -0.14379E-02   -0.49832E-03  1600   0.301E-01    0.439E-02
RMM:   3    -0.322251644230E+02   -0.57734E-03   -0.15440E-03  1432   0.115E-01
   1070 T=   909. E= -.28452848E+02 F= -.32225164E+02 E0= -.32180217E+02  EK= 0.30538E+01 SP= 0.69E+00 SK= 0.26E-01 mag=     -0.076
       N       E                     dE             d eps       ncg     rms          rms(c)
DAV:   1    -0.322232065422E+02    0.13805E-02   -0.21102E-02  2400   0.111E+00    0.520E-02
RMM:   2    -0.322244953132E+02   -0.12888E-02   -0.40558E-03  1523   0.277E-01
   1071 T=   889. E= -.28445740E+02 F= -.32224495E+02 E0= -.32179208E+02  EK= 0.29892E+01 SP= 0.76E+00 SK= 0.34E-01 mag=     -0.016
       N       E                     dE             d eps       ncg     rms          rms(c)
DAV:   1    -0.322237650160E+02   -0.55847E-03   -0.31182E-02  2960   0.118E+00    0.860E-02
RMM:   2    -0.322258885686E+02   -0.21236E-02   -0.57088E-03  1584   0.268E-01    0.652E-02
RMM:   3    -0.322277331663E+02   -0.18446E-02   -0.34746E-03  1404   0.125E-01    0.384E-02
RMM:   4    -0.322282958283E+02   -0.56266E-03   -0.16803E-03  1400   0.874E-02
   1072 T=   869. E= -.28440742E+02 F= -.32228296E+02 E0= -.32182664E+02  EK= 0.29204E+01 SP= 0.83E+00 SK= 0.41E-01 mag=      0.048
       N       E                     dE             d eps       ncg     rms          rms(c)
DAV:   1    -0.322305153050E+02   -0.27821E-02   -0.15759E-02  2544   0.105E+00    0.954E-02
RMM:   2    -0.322328319742E+02   -0.23167E-02   -0.61717E-03  1484   0.258E-01    0.711E-02
RMM:   3    -0.322345705780E+02   -0.17386E-02   -0.32760E-03  1400   0.113E-01    0.452E-02
RMM:   4    -0.322352834213E+02   -0.71284E-03   -0.14624E-03  1394   0.777E-02
   1073 T=   847. E= -.28438672E+02 F= -.32235283E+02 E0= -.32189373E+02  EK= 0.28476E+01 SP= 0.90E+00 SK= 0.46E-01 mag=     -0.018
       N       E                     dE             d eps       ncg     rms          rms(c)
DAV:   1    -0.322450265180E+02   -0.10456E-01   -0.19284E-02  2736   0.109E+00    0.471E-02
RMM:   2    -0.322458495100E+02   -0.82299E-03   -0.35215E-03  1537   0.248E-01
   1074 T=   827. E= -.28434033E+02 F= -.32245850E+02 E0= -.32199699E+02  EK= 0.27788E+01 SP= 0.98E+00 SK= 0.50E-01 mag=     -0.124
       N       E                     dE             d eps       ncg     rms          rms(c)
DAV:   1    -0.322587393590E+02   -0.13713E-01   -0.17353E-02  2800   0.105E+00    0.481E-02
RMM:   2    -0.322597473233E+02   -0.10080E-02   -0.43014E-03  1566   0.265E-01
   1075 T=   807. E= -.28430934E+02 F= -.32259747E+02 E0= -.32213285E+02  EK= 0.27115E+01 SP= 0.11E+01 SK= 0.52E-01 mag=     -0.167
       N       E                     dE             d eps       ncg     rms          rms(c)
DAV:   1    -0.322757086613E+02   -0.16969E-01   -0.12061E-02  2136   0.107E+00    0.384E-02
RMM:   2    -0.322766326828E+02   -0.92402E-03   -0.40481E-03  1561   0.274E-01
   1076 T=   788. E= -.28427941E+02 F= -.32276633E+02 E0= -.32229712E+02  EK= 0.26486E+01 SP= 0.11E+01 SK= 0.51E-01 mag=     -0.087
       N       E                     dE             d eps       ncg     rms          rms(c)
DAV:   1    -0.322949960528E+02   -0.19287E-01   -0.16660E-02  2656   0.108E+00    0.272E-02
RMM:   2    -0.322958066418E+02   -0.81059E-03   -0.46657E-03  1597   0.279E-01
   1077 T=   771. E= -.28422991E+02 F= -.32295807E+02 E0= -.32248473E+02  EK= 0.25927E+01 SP= 0.12E+01 SK= 0.49E-01 mag=      0.081
       N       E                     dE             d eps       ncg     rms          rms(c)
DAV:   1    -0.323151996957E+02   -0.20204E-01   -0.13168E-02  2424   0.101E+00    0.447E-02
RMM:   2    -0.323161750115E+02   -0.97532E-03   -0.42279E-03  1565   0.282E-01
   1078 T=   756. E= -.28417954E+02 F= -.32316175E+02 E0= -.32268605E+02  EK= 0.25420E+01 SP= 0.13E+01 SK= 0.46E-01 mag=      0.208
       N       E                     dE             d eps       ncg     rms          rms(c)
DAV:   1    -0.323372518561E+02   -0.22052E-01   -0.15048E-02  2480   0.105E+00    0.463E-02
RMM:   2    -0.323381875102E+02   -0.93565E-03   -0.41491E-03  1565   0.273E-01
   1079 T=   743. E= -.28413122E+02 F= -.32338188E+02 E0= -.32290101E+02  EK= 0.24975E+01 SP= 0.14E+01 SK= 0.41E-01 mag=      0.201
       N       E                     dE             d eps       ncg     rms          rms(c)
DAV:   1    -0.323605242155E+02   -0.23272E-01   -0.11473E-02  2504   0.102E+00    0.267E-02
RMM:   2    -0.323612760133E+02   -0.75180E-03   -0.42045E-03  1557   0.276E-01
   1080 T=   732. E= -.28409187E+02 F= -.32361276E+02 E0= -.32312527E+02  EK= 0.24587E+01 SP= 0.15E+01 SK= 0.35E-01 mag=      0.041
       N       E                     dE             d eps       ncg     rms          rms(c)
DAV:   1    -0.323827433060E+02   -0.22219E-01   -0.12706E-02  2344   0.101E+00    0.378E-02
RMM:   2    -0.323836348909E+02   -0.89158E-03   -0.49796E-03  1587   0.273E-01
   1081 T=   722. E= -.28405044E+02 F= -.32383635E+02 E0= -.32334519E+02  EK= 0.24255E+01 SP= 0.15E+01 SK= 0.29E-01 mag=     -0.190
       N       E                     dE             d eps       ncg     rms          rms(c)
DAV:   1    -0.324035204237E+02   -0.20777E-01   -0.17241E-02  2608   0.102E+00    0.596E-02
RMM:   2    -0.324047504888E+02   -0.12301E-02   -0.46314E-03  1556   0.279E-01
   1082 T=   714. E= -.28400444E+02 F= -.32404750E+02 E0= -.32355517E+02  EK= 0.23980E+01 SP= 0.16E+01 SK= 0.23E-01 mag=     -0.272
       N       E                     dE             d eps       ncg     rms          rms(c)
DAV:   1    -0.324258405642E+02   -0.22320E-01   -0.16630E-02  2688   0.103E+00    0.422E-02
RMM:   2    -0.324266552828E+02   -0.81472E-03   -0.46873E-03  1580   0.288E-01
   1083 T=   707. E= -.28397300E+02 F= -.32426655E+02 E0= -.32376437E+02  EK= 0.23769E+01 SP= 0.16E+01 SK= 0.17E-01 mag=     -0.153
       N       E                     dE             d eps       ncg     rms          rms(c)
DAV:   1    -0.324456387455E+02   -0.19798E-01   -0.18342E-02  2536   0.987E-01    0.368E-02
RMM:   2    -0.324464617444E+02   -0.82300E-03   -0.45195E-03  1552   0.279E-01
   1084 T=   703. E= -.28393130E+02 F= -.32446462E+02 E0= -.32395589E+02  EK= 0.23617E+01 SP= 0.17E+01 SK= 0.12E-01 mag=      0.109
       N       E                     dE             d eps       ncg     rms          rms(c)
DAV:   1    -0.324623491941E+02   -0.16710E-01   -0.12446E-02  2192   0.100E+00    0.613E-02
RMM:   2    -0.324634775551E+02   -0.11284E-02   -0.42894E-03  1548   0.269E-01
   1085 T=   700. E= -.28387959E+02 F= -.32463478E+02 E0= -.32412642E+02  EK= 0.23521E+01 SP= 0.17E+01 SK= 0.78E-02 mag=      0.358
       N       E                     dE             d eps       ncg     rms          rms(c)
DAV:   1    -0.324773671315E+02   -0.15018E-01   -0.13837E-02  2704   0.101E+00    0.656E-02
RMM:   2    -0.324786638106E+02   -0.12967E-02   -0.43473E-03  1549   0.271E-01
   1086 T=   699. E= -.28383184E+02 F= -.32478664E+02 E0= -.32427702E+02  EK= 0.23476E+01 SP= 0.17E+01 SK= 0.43E-02 mag=      0.346
       N       E                     dE             d eps       ncg     rms          rms(c)
DAV:   1    -0.324926657718E+02   -0.15299E-01   -0.16593E-02  2656   0.100E+00    0.373E-02
RMM:   2    -0.324934000968E+02   -0.73433E-03   -0.41990E-03  1548   0.278E-01
   1087 T=   699. E= -.28380731E+02 F= -.32493400E+02 E0= -.32440864E+02  EK= 0.23477E+01 SP= 0.18E+01 SK= 0.18E-02 mag=      0.067
       N       E                     dE             d eps       ncg     rms          rms(c)
DAV:   1    -0.325017605623E+02   -0.90948E-02   -0.19382E-02  2608   0.987E-01    0.600E-02
RMM:   2    -0.325029342175E+02   -0.11737E-02   -0.47868E-03  1553   0.273E-01
   1088 T=   700. E= -.28375879E+02 F= -.32502934E+02 E0= -.32450353E+02  EK= 0.23523E+01 SP= 0.18E+01 SK= 0.37E-03 mag=     -0.322
       N       E                     dE             d eps       ncg     rms          rms(c)
DAV:   1    -0.325068417812E+02   -0.50812E-02   -0.15725E-02  2384   0.998E-01    0.902E-02
RMM:   2    -0.325086707967E+02   -0.18290E-02   -0.56892E-03  1617   0.290E-01    0.730E-02
RMM:   3    -0.325095891953E+02   -0.91840E-03   -0.16183E-03  1461   0.117E-01
   1089 T=   702. E= -.28371674E+02 F= -.32509589E+02 E0= -.32457482E+02  EK= 0.23607E+01 SP= 0.18E+01 SK= 0.11E-04 mag=     -0.251
       N       E                     dE             d eps       ncg     rms          rms(c)
DAV:   1    -0.325137983845E+02   -0.51276E-02   -0.31030E-02  2552   0.993E-01    0.641E-02
RMM:   2    -0.325150569624E+02   -0.12586E-02   -0.46010E-03  1535   0.256E-01
   1090 T=   706. E= -.28368212E+02 F= -.32515057E+02 E0= -.32461088E+02  EK= 0.23743E+01 SP= 0.18E+01 SK= 0.63E-03 mag=      0.199
       N       E                     dE             d eps       ncg     rms          rms(c)
DAV:   1    -0.325092765671E+02    0.45218E-02   -0.48296E-02  2768   0.107E+00    0.122E-01
RMM:   2    -0.325122431317E+02   -0.29666E-02   -0.66472E-03  1601   0.284E-01    0.955E-02
RMM:   3    -0.325148144029E+02   -0.25713E-02   -0.29089E-03  1443   0.127E-01    0.697E-02
RMM:   4    -0.325163677094E+02   -0.15533E-02   -0.19650E-03  1400   0.914E-02    0.379E-02
RMM:   5    -0.325169767908E+02   -0.60908E-03   -0.13131E-03  1373   0.709E-02
   1091 T=   711. E= -.28365584E+02 F= -.32516977E+02 E0= -.32462436E+02  EK= 0.23903E+01 SP= 0.18E+01 SK= 0.21E-02 mag=      0.102
       N       E                     dE             d eps       ncg     rms          rms(c)
DAV:   1    -0.325076936967E+02    0.86740E-02   -0.23726E-02  2600   0.986E-01    0.117E-01
RMM:   2    -0.325108751885E+02   -0.31815E-02   -0.80198E-03  1510   0.247E-01    0.903E-02
RMM:   3    -0.325132605407E+02   -0.23854E-02   -0.35847E-03  1400   0.112E-01    0.625E-02
RMM:   4    -0.325146039018E+02   -0.13434E-02   -0.20006E-03  1400   0.809E-02
   1092 T=   716. E= -.28364447E+02 F= -.32514604E+02 E0= -.32459705E+02  EK= 0.24073E+01 SP= 0.17E+01 SK= 0.43E-02 mag=     -0.098
       N       E                     dE             d eps       ncg     rms          rms(c)
DAV:   1    -0.325071843078E+02    0.60762E-02   -0.25668E-02  2704   0.104E+00    0.697E-02
RMM:   2    -0.325084524213E+02   -0.12681E-02   -0.41416E-03  1455   0.232E-01
   1093 T=   723. E= -.28360897E+02 F= -.32508452E+02 E0= -.32453869E+02  EK= 0.24293E+01 SP= 0.17E+01 SK= 0.70E-02 mag=     -0.281
       N       E                     dE             d eps       ncg     rms          rms(c)
DAV:   1    -0.324979743907E+02    0.92099E-02   -0.35729E-02  2720   0.102E+00    0.759E-02
RMM:   2    -0.324994750328E+02   -0.15006E-02   -0.48901E-03  1560   0.281E-01    0.572E-02
RMM:   3    -0.325002510894E+02   -0.77606E-03   -0.14748E-03  1475   0.111E-01
   1094 T=   730. E= -.28358825E+02 F= -.32500251E+02 E0= -.32445372E+02  EK= 0.24538E+01 SP= 0.17E+01 SK= 0.10E-01 mag=     -0.200
       N       E                     dE             d eps       ncg     rms          rms(c)
DAV:   1    -0.324890654984E+02    0.10410E-01   -0.22583E-02  2600   0.107E+00    0.586E-02
RMM:   2    -0.324900175939E+02   -0.95210E-03   -0.36914E-03  1487   0.239E-01
   1095 T=   738. E= -.28356883E+02 F= -.32490018E+02 E0= -.32434103E+02  EK= 0.24818E+01 SP= 0.16E+01 SK= 0.13E-01 mag=      0.123
       N       E                     dE             d eps       ncg     rms          rms(c)
DAV:   1    -0.324706831166E+02    0.18382E-01   -0.39324E-02  2832   0.108E+00    0.982E-02
RMM:   2    -0.324730417938E+02   -0.23587E-02   -0.60783E-03  1558   0.264E-01    0.759E-02
RMM:   3    -0.324751400512E+02   -0.20983E-02   -0.34489E-03  1417   0.120E-01    0.556E-02
RMM:   4    -0.324764395199E+02   -0.12995E-02   -0.28127E-03  1405   0.972E-02
   1096 T=   748. E= -.28354045E+02 F= -.32476440E+02 E0= -.32420483E+02  EK= 0.25125E+01 SP= 0.16E+01 SK= 0.16E-01 mag=      0.179
       N       E                     dE             d eps       ncg     rms          rms(c)
DAV:   1    -0.324561081274E+02    0.19032E-01   -0.18900E-02  2560   0.100E+00    0.947E-02
RMM:   2    -0.324585215747E+02   -0.24134E-02   -0.70478E-03  1504   0.269E-01    0.673E-02
RMM:   3    -0.324600894126E+02   -0.15678E-02   -0.34914E-03  1400   0.117E-01    0.435E-02
RMM:   4    -0.324607384337E+02   -0.64902E-03   -0.18226E-03  1400   0.766E-02
   1097 T=   757. E= -.28352889E+02 F= -.32460738E+02 E0= -.32404251E+02  EK= 0.25440E+01 SP= 0.15E+01 SK= 0.19E-01 mag=     -0.044
       N       E                     dE             d eps       ncg     rms          rms(c)
DAV:   1    -0.324397649396E+02    0.20324E-01   -0.25331E-02  2736   0.105E+00    0.781E-02
RMM:   2    -0.324412467091E+02   -0.14818E-02   -0.45273E-03  1512   0.242E-01    0.578E-02
RMM:   3    -0.324421653279E+02   -0.91862E-03   -0.18083E-03  1400   0.111E-01
   1098 T=   767. E= -.28349839E+02 F= -.32442165E+02 E0= -.32386226E+02  EK= 0.25785E+01 SP= 0.15E+01 SK= 0.22E-01 mag=     -0.273
       N       E                     dE             d eps       ncg     rms          rms(c)
DAV:   1    -0.324218080562E+02    0.19439E-01   -0.20464E-02  2712   0.101E+00    0.561E-02
RMM:   2    -0.324227358643E+02   -0.92781E-03   -0.37665E-03  1496   0.248E-01
   1099 T=   778. E= -.28346299E+02 F= -.32422736E+02 E0= -.32366946E+02  EK= 0.26160E+01 SP= 0.14E+01 SK= 0.24E-01 mag=     -0.381
       N       E                     dE             d eps       ncg     rms          rms(c)
DAV:   1    -0.324016428816E+02    0.20165E-01   -0.21284E-02  2816   0.108E+00    0.448E-02
RMM:   2    -0.324025758227E+02   -0.93294E-03   -0.40098E-03  1574   0.242E-01
   1100 T=   790. E= -.28343921E+02 F= -.32402576E+02 E0= -.32346272E+02  EK= 0.26541E+01 SP= 0.14E+01 SK= 0.25E-01 mag=     -0.268
       N       E                     dE             d eps       ncg     rms          rms(c)
DAV:   1    -0.323807891660E+02    0.20854E-01   -0.14819E-02  2200   0.102E+00    0.377E-02
RMM:   2    -0.323815915934E+02   -0.80243E-03   -0.36050E-03  1558   0.261E-01
   1101 T=   801. E= -.28341180E+02 F= -.32381592E+02 E0= -.32324904E+02  EK= 0.26935E+01 SP= 0.13E+01 SK= 0.25E-01 mag=      0.054
       N       E                     dE             d eps       ncg     rms          rms(c)
DAV:   1    -0.323578102505E+02    0.22979E-01   -0.23497E-02  2728   0.110E+00    0.593E-02
RMM:   2    -0.323590363774E+02   -0.12261E-02   -0.43523E-03  1552   0.257E-01
   1102 T=   814. E= -.28336066E+02 F= -.32359036E+02 E0= -.32303645E+02  EK= 0.27343E+01 SP= 0.13E+01 SK= 0.25E-01 mag=      0.441
       N       E                     dE             d eps       ncg     rms          rms(c)
DAV:   1    -0.323341142436E+02    0.23696E-01   -0.18156E-02  2536   0.101E+00    0.864E-02
RMM:   2    -0.323359977030E+02   -0.18835E-02   -0.48109E-03  1558   0.278E-01    0.716E-02
RMM:   3    -0.323376419277E+02   -0.16442E-02   -0.24480E-03  1413   0.121E-01    0.503E-02
RMM:   4    -0.323388275289E+02   -0.11856E-02   -0.22219E-03  1405   0.989E-02
   1103 T=   825. E= -.28335209E+02 F= -.32338828E+02 E0= -.32282477E+02  EK= 0.27730E+01 SP= 0.12E+01 SK= 0.23E-01 mag=      0.073
       N       E                     dE             d eps       ncg     rms          rms(c)
DAV:   1    -0.323106865788E+02    0.26955E-01   -0.26270E-02  2752   0.108E+00    0.114E-01
RMM:   2    -0.323134470323E+02   -0.27605E-02   -0.46877E-03  1474   0.227E-01    0.925E-02
RMM:   3    -0.323154749357E+02   -0.20279E-02   -0.20646E-03  1400   0.950E-02    0.663E-02
RMM:   4    -0.323168572728E+02   -0.13823E-02   -0.12917E-03  1394   0.739E-02    0.465E-02
RMM:   5    -0.323179166135E+02   -0.10593E-02   -0.24345E-03  1417   0.779E-02
   1104 T=   836. E= -.28334289E+02 F= -.32317917E+02 E0= -.32261498E+02  EK= 0.28096E+01 SP= 0.12E+01 SK= 0.21E-01 mag=     -0.059
       N       E                     dE             d eps       ncg     rms          rms(c)
DAV:   1    -0.322962014875E+02    0.20656E-01   -0.32055E-02  2616   0.104E+00    0.494E-02
RMM:   2    -0.322972493894E+02   -0.10479E-02   -0.42705E-03  1542   0.261E-01
   1105 T=   847. E= -.28331336E+02 F= -.32297249E+02 E0= -.32240922E+02  EK= 0.28461E+01 SP= 0.11E+01 SK= 0.19E-01 mag=      0.036
       N       E                     dE             d eps       ncg     rms          rms(c)
DAV:   1    -0.322762359554E+02    0.19966E-01   -0.34609E-02  2760   0.111E+00    0.536E-02
RMM:   2    -0.322774269932E+02   -0.11910E-02   -0.51740E-03  1565   0.282E-01
   1106 T=   857. E= -.28329014E+02 F= -.32277427E+02 E0= -.32221801E+02  EK= 0.28794E+01 SP= 0.11E+01 SK= 0.16E-01 mag=      0.287
       N       E                     dE             d eps       ncg     rms          rms(c)
DAV:   1    -0.322565236000E+02    0.19712E-01   -0.21818E-02  2464   0.104E+00    0.772E-02
RMM:   2    -0.322580211168E+02   -0.14975E-02   -0.43896E-03  1561   0.283E-01    0.602E-02
RMM:   3    -0.322586313359E+02   -0.61022E-03   -0.13227E-03  1469   0.114E-01
   1107 T=   865. E= -.28327491E+02 F= -.32258631E+02 E0= -.32203913E+02  EK= 0.29084E+01 SP= 0.10E+01 SK= 0.12E-01 mag=      0.230
       N       E                     dE             d eps       ncg     rms          rms(c)
DAV:   1    -0.322412927487E+02    0.16728E-01   -0.35521E-02  2728   0.112E+00    0.514E-02
RMM:   2    -0.322423355951E+02   -0.10428E-02   -0.38590E-03  1526   0.257E-01
   1108 T=   874. E= -.28324150E+02 F= -.32242336E+02 E0= -.32186758E+02  EK= 0.29363E+01 SP= 0.97E+00 SK= 0.90E-02 mag=     -0.084
       N       E                     dE             d eps       ncg     rms          rms(c)
DAV:   1    -0.322224726438E+02    0.18820E-01   -0.38767E-02  2824   0.116E+00    0.719E-02
RMM:   2    -0.322243210451E+02   -0.18484E-02   -0.54627E-03  1549   0.269E-01    0.619E-02
RMM:   3    -0.322251886596E+02   -0.86761E-03   -0.15541E-03  1471   0.107E-01
   1109 T=   880. E= -.28319993E+02 F= -.32225189E+02 E0= -.32170849E+02  EK= 0.29577E+01 SP= 0.94E+00 SK= 0.60E-02 mag=     -0.284
       N       E                     dE             d eps       ncg     rms          rms(c)
DAV:   1    -0.322090743180E+02    0.15247E-01   -0.24422E-02  2640   0.107E+00    0.656E-02
RMM:   2    -0.322102397219E+02   -0.11654E-02   -0.40477E-03  1524   0.257E-01
   1110 T=   885. E= -.28316969E+02 F= -.32210240E+02 E0= -.32155721E+02  EK= 0.29732E+01 SP= 0.92E+00 SK= 0.34E-02 mag=     -0.274
       N       E                     dE             d eps       ncg     rms          rms(c)
DAV:   1    -0.321942501545E+02    0.14824E-01   -0.38191E-02  2896   0.119E+00    0.576E-02
RMM:   2    -0.321956407196E+02   -0.13906E-02   -0.50112E-03  1570   0.270E-01    0.412E-02
RMM:   3    -0.321961872469E+02   -0.54653E-03   -0.15770E-03  1454   0.108E-01
   1111 T=   887. E= -.28314162E+02 F= -.32196187E+02 E0= -.32141528E+02  EK= 0.29816E+01 SP= 0.90E+00 SK= 0.15E-02 mag=     -0.031
       N       E                     dE             d eps       ncg     rms          rms(c)
DAV:   1    -0.321796392824E+02    0.16001E-01   -0.21665E-02  2336   0.108E+00    0.803E-02
RMM:   2    -0.321811172434E+02   -0.14780E-02   -0.37593E-03  1527   0.272E-01    0.542E-02
RMM:   3    -0.321816846830E+02   -0.56744E-03   -0.11174E-03  1337   0.110E-01
   1112 T=   887. E= -.28311122E+02 F= -.32181685E+02 E0= -.32127795E+02  EK= 0.29819E+01 SP= 0.89E+00 SK= 0.37E-03 mag=      0.219
       N       E                     dE             d eps       ncg     rms          rms(c)
DAV:   1    -0.321664902149E+02    0.14627E-01   -0.38947E-02  2752   0.113E+00    0.591E-02
RMM:   2    -0.321676372759E+02   -0.11471E-02   -0.39479E-03  1565   0.269E-01
   1113 T=   886. E= -.28305963E+02 F= -.32167637E+02 E0= -.32114328E+02  EK= 0.29767E+01 SP= 0.88E+00 SK= 0.35E-06 mag=      0.340
       N       E                     dE             d eps       ncg     rms          rms(c)
DAV:   1    -0.321527416265E+02    0.13749E-01   -0.26932E-02  2944   0.117E+00    0.501E-02
RMM:   2    -0.321538985158E+02   -0.11569E-02   -0.45315E-03  1579   0.269E-01
   1114 T=   881. E= -.28303758E+02 F= -.32153899E+02 E0= -.32100642E+02  EK= 0.29610E+01 SP= 0.89E+00 SK= 0.38E-03 mag=      0.244
       N       E                     dE             d eps       ncg     rms          rms(c)
DAV:   1    -0.321389696335E+02    0.13772E-01   -0.18664E-02  2408   0.110E+00    0.343E-02
RMM:   2    -0.321399101832E+02   -0.94055E-03   -0.41651E-03  1573   0.294E-01
   1115 T=   874. E= -.28301766E+02 F= -.32139910E+02 E0= -.32086645E+02  EK= 0.29375E+01 SP= 0.90E+00 SK= 0.14E-02 mag=     -0.044
       N       E                     dE             d eps       ncg     rms          rms(c)
DAV:   1    -0.321226892453E+02    0.16280E-01   -0.24335E-02  3024   0.121E+00    0.596E-02
RMM:   2    -0.321240101181E+02   -0.13209E-02   -0.47175E-03  1584   0.284E-01
   1116 T=   865. E= -.28296681E+02 F= -.32124010E+02 E0= -.32071801E+02  EK= 0.29087E+01 SP= 0.92E+00 SK= 0.28E-02 mag=     -0.353
       N       E                     dE             d eps       ncg     rms          rms(c)
DAV:   1    -0.321052714697E+02    0.17418E-01   -0.18931E-02  2664   0.110E+00    0.784E-02
RMM:   2    -0.321070392234E+02   -0.17678E-02   -0.54098E-03  1572   0.309E-01    0.645E-02
RMM:   3    -0.321080131480E+02   -0.97392E-03   -0.18628E-03  1424   0.123E-01
   1117 T=   855. E= -.28293028E+02 F= -.32108013E+02 E0= -.32056304E+02  EK= 0.28726E+01 SP= 0.94E+00 SK= 0.45E-02 mag=     -0.175
       N       E                     dE             d eps       ncg     rms          rms(c)
DAV:   1    -0.320897828018E+02    0.17256E-01   -0.31252E-02  2632   0.115E+00    0.663E-02
RMM:   2    -0.320913254850E+02   -0.15427E-02   -0.43286E-03  1532   0.291E-01    0.549E-02
RMM:   3    -0.320916734784E+02   -0.34799E-03   -0.94127E-04  1276   0.101E-01
   1118 T=   843. E= -.28289189E+02 F= -.32091673E+02 E0= -.32039823E+02  EK= 0.28319E+01 SP= 0.96E+00 SK= 0.61E-02 mag=      0.216
       N       E                     dE             d eps       ncg     rms          rms(c)
DAV:   1    -0.320691876836E+02    0.22138E-01   -0.47554E-02  2680   0.111E+00    0.100E-01
RMM:   2    -0.320711455610E+02   -0.19579E-02   -0.61213E-03  1602   0.292E-01    0.739E-02
RMM:   3    -0.320724546947E+02   -0.13091E-02   -0.17904E-03  1491   0.124E-01
   1119 T=   829. E= -.28284063E+02 F= -.32072455E+02 E0= -.32021575E+02  EK= 0.27864E+01 SP= 0.99E+00 SK= 0.74E-02 mag=      0.242
       N       E                     dE             d eps       ncg     rms          rms(c)
DAV:   1    -0.320536538026E+02    0.17492E-01   -0.22810E-02  2704   0.120E+00    0.467E-02
RMM:   2    -0.320544281507E+02   -0.77435E-03   -0.41021E-03  1546   0.283E-01
   1120 T=   815. E= -.28280464E+02 F= -.32054428E+02 E0= -.32002668E+02  EK= 0.27385E+01 SP= 0.10E+01 SK= 0.83E-02 mag=     -0.069
       N       E                     dE             d eps       ncg     rms          rms(c)
DAV:   1    -0.320291945942E+02    0.24459E-01   -0.34792E-02  2848   0.111E+00    0.854E-02
RMM:   2    -0.320308624194E+02   -0.16678E-02   -0.56587E-03  1565   0.288E-01    0.643E-02
RMM:   3    -0.320322711263E+02   -0.14087E-02   -0.21409E-03  1465   0.121E-01    0.481E-02
RMM:   4    -0.320330716038E+02   -0.80048E-03   -0.13113E-03  1390   0.820E-02
   1121 T=   800. E= -.28276247E+02 F= -.32033072E+02 E0= -.31981683E+02  EK= 0.26873E+01 SP= 0.11E+01 SK= 0.86E-02 mag=     -0.058
       N       E                     dE             d eps       ncg     rms          rms(c)
DAV:   1    -0.320089971001E+02    0.23274E-01   -0.15424E-02  2480   0.107E+00    0.604E-02
RMM:   2    -0.320099331784E+02   -0.93608E-03   -0.34563E-03  1486   0.235E-01
   1122 T=   784. E= -.28272143E+02 F= -.32009933E+02 E0= -.31958780E+02  EK= 0.26349E+01 SP= 0.11E+01 SK= 0.82E-02 mag=      0.168
       N       E                     dE             d eps       ncg     rms          rms(c)
DAV:   1    -0.319829634112E+02    0.26034E-01   -0.28174E-02  2896   0.111E+00    0.795E-02
RMM:   2    -0.319844198374E+02   -0.14564E-02   -0.41057E-03  1533   0.249E-01    0.609E-02
RMM:   3    -0.319852004127E+02   -0.78058E-03   -0.11313E-03  1394   0.971E-02
   1123 T=   769. E= -.28267451E+02 F= -.31985200E+02 E0= -.31934699E+02  EK= 0.25834E+01 SP= 0.11E+01 SK= 0.73E-02 mag=      0.208
       N       E                     dE             d eps       ncg     rms          rms(c)
DAV:   1    -0.319593234701E+02    0.25096E-01   -0.14129E-02  2456   0.103E+00    0.624E-02
RMM:   2    -0.319602383723E+02   -0.91490E-03   -0.41451E-03  1499   0.279E-01
   1124 T=   754. E= -.28264176E+02 F= -.31960238E+02 E0= -.31909329E+02  EK= 0.25333E+01 SP= 0.12E+01 SK= 0.59E-02 mag=      0.054
       N       E                     dE             d eps       ncg     rms          rms(c)
DAV:   1    -0.319309807952E+02    0.28343E-01   -0.27108E-02  3032   0.112E+00    0.687E-02
RMM:   2    -0.319323962683E+02   -0.14155E-02   -0.47180E-03  1537   0.249E-01    0.501E-02
RMM:   3    -0.319334412074E+02   -0.10449E-02   -0.22840E-03  1412   0.108E-01
   1125 T=   739. E= -.28261207E+02 F= -.31933441E+02 E0= -.31882688E+02  EK= 0.24852E+01 SP= 0.12E+01 SK= 0.41E-02 mag=     -0.077
       N       E                     dE             d eps       ncg     rms          rms(c)
DAV:   1    -0.319028464778E+02    0.29550E-01   -0.12922E-02  2488   0.993E-01    0.834E-02
RMM:   2    -0.319043861076E+02   -0.15396E-02   -0.41399E-03  1486   0.265E-01    0.576E-02
RMM:   3    -0.319051896322E+02   -0.80352E-03   -0.16085E-03  1394   0.111E-01
   1126 T=   726. E= -.28259132E+02 F= -.31905190E+02 E0= -.31854542E+02  EK= 0.24398E+01 SP= 0.12E+01 SK= 0.24E-02 mag=     -0.091
       N       E                     dE             d eps       ncg     rms          rms(c)
DAV:   1    -0.318755194336E+02    0.28867E-01   -0.25683E-02  2536   0.101E+00    0.433E-02
RMM:   2    -0.318761533204E+02   -0.63389E-03   -0.32738E-03  1531   0.248E-01
   1127 T=   715. E= -.28254539E+02 F= -.31876153E+02 E0= -.31825555E+02  EK= 0.24020E+01 SP= 0.12E+01 SK= 0.96E-03 mag=      0.012
       N       E                     dE             d eps       ncg     rms          rms(c)
DAV:   1    -0.318449199384E+02    0.30599E-01   -0.18566E-02  2760   0.103E+00    0.457E-02
RMM:   2    -0.318457295209E+02   -0.80958E-03   -0.37598E-03  1537   0.246E-01
   1128 T=   705. E= -.28251012E+02 F= -.31845730E+02 E0= -.31795387E+02  EK= 0.23682E+01 SP= 0.12E+01 SK= 0.11E-03 mag=      0.159
       N       E                     dE             d eps       ncg     rms          rms(c)
DAV:   1    -0.318135393659E+02    0.31381E-01   -0.10749E-02  2224   0.998E-01    0.514E-02
RMM:   2    -0.318143974324E+02   -0.85807E-03   -0.38387E-03  1537   0.261E-01
   1129 T=   696. E= -.28248269E+02 F= -.31814397E+02 E0= -.31764261E+02  EK= 0.23397E+01 SP= 0.12E+01 SK= 0.15E-03 mag=      0.218
       N       E                     dE             d eps       ncg     rms          rms(c)
DAV:   1    -0.317818921861E+02    0.31647E-01   -0.15887E-02  2648   0.109E+00    0.389E-02
RMM:   2    -0.317826057616E+02   -0.71358E-03   -0.40529E-03  1535   0.272E-01
   1130 T=   690. E= -.28243858E+02 F= -.31782606E+02 E0= -.31732304E+02  EK= 0.23199E+01 SP= 0.12E+01 SK= 0.13E-02 mag=      0.125
       N       E                     dE             d eps       ncg     rms          rms(c)
DAV:   1    -0.317490857474E+02    0.32806E-01   -0.10930E-02  2472   0.965E-01    0.384E-02
RMM:   2    -0.317498680554E+02   -0.78231E-03   -0.41460E-03  1540   0.281E-01
   1131 T=   687. E= -.28238747E+02 F= -.31749868E+02 E0= -.31699614E+02  EK= 0.23077E+01 SP= 0.12E+01 SK= 0.38E-02 mag=     -0.080
       N       E                     dE             d eps       ncg     rms          rms(c)
DAV:   1    -0.317152305660E+02    0.33855E-01   -0.11559E-02  2424   0.101E+00    0.548E-02
RMM:   2    -0.317161559776E+02   -0.92541E-03   -0.39617E-03  1532   0.263E-01
   1132 T=   685. E= -.28233786E+02 F= -.31716156E+02 E0= -.31666277E+02  EK= 0.23023E+01 SP= 0.12E+01 SK= 0.77E-02 mag=     -0.260
       N       E                     dE             d eps       ncg     rms          rms(c)
DAV:   1    -0.316812238894E+02    0.34007E-01   -0.12862E-02  2464   0.985E-01    0.536E-02
RMM:   2    -0.316821886118E+02   -0.96472E-03   -0.44172E-03  1559   0.280E-01
   1133 T=   686. E= -.28229417E+02 F= -.31682189E+02 E0= -.31632436E+02  EK= 0.23043E+01 SP= 0.11E+01 SK= 0.13E-01 mag=     -0.292
       N       E                     dE             d eps       ncg     rms          rms(c)
DAV:   1    -0.316469736424E+02    0.34250E-01   -0.14771E-02  2544   0.102E+00    0.492E-02
RMM:   2    -0.316480924303E+02   -0.11188E-02   -0.60608E-03  1611   0.286E-01
   1134 T=   689. E= -.28225186E+02 F= -.31648092E+02 E0= -.31598108E+02  EK= 0.23142E+01 SP= 0.11E+01 SK= 0.20E-01 mag=     -0.117
       N       E                     dE             d eps       ncg     rms          rms(c)
DAV:   1    -0.316127775513E+02    0.34196E-01   -0.14167E-02  2504   0.101E+00    0.558E-02
RMM:   2    -0.316137404280E+02   -0.96288E-03   -0.46767E-03  1574   0.289E-01
   1135 T=   694. E= -.28221277E+02 F= -.31613740E+02 E0= -.31563804E+02  EK= 0.23318E+01 SP= 0.10E+01 SK= 0.27E-01 mag=      0.193
       N       E                     dE             d eps       ncg     rms          rms(c)
DAV:   1    -0.315763723747E+02    0.36405E-01   -0.16502E-02  2536   0.101E+00    0.789E-02
RMM:   2    -0.315778540108E+02   -0.14816E-02   -0.50409E-03  1569   0.287E-01    0.621E-02
RMM:   3    -0.315787783597E+02   -0.92435E-03   -0.16843E-03  1463   0.114E-01
   1136 T=   701. E= -.28217783E+02 F= -.31578778E+02 E0= -.31529278E+02  EK= 0.23564E+01 SP= 0.97E+00 SK= 0.35E-01 mag=      0.191
       N       E                     dE             d eps       ncg     rms          rms(c)
DAV:   1    -0.315433303527E+02    0.34524E-01   -0.19191E-02  2568   0.986E-01    0.692E-02
RMM:   2    -0.315443272757E+02   -0.99692E-03   -0.34236E-03  1472   0.247E-01
   1137 T=   711. E= -.28213655E+02 F= -.31544327E+02 E0= -.31494464E+02  EK= 0.23902E+01 SP= 0.90E+00 SK= 0.44E-01 mag=     -0.061
       N       E                     dE             d eps       ncg     rms          rms(c)
DAV:   1    -0.315064871272E+02    0.36843E-01   -0.24666E-02  2840   0.108E+00    0.862E-02
RMM:   2    -0.315082969091E+02   -0.18098E-02   -0.46717E-03  1544   0.259E-01    0.695E-02
RMM:   3    -0.315092903594E+02   -0.99345E-03   -0.14530E-03  1440   0.103E-01
   1138 T=   723. E= -.28209693E+02 F= -.31509290E+02 E0= -.31459887E+02  EK= 0.24308E+01 SP= 0.82E+00 SK= 0.52E-01 mag=     -0.175
       N       E                     dE             d eps       ncg     rms          rms(c)
DAV:   1    -0.314742408296E+02    0.34056E-01   -0.27087E-02  2528   0.101E+00    0.745E-02
RMM:   2    -0.314753272365E+02   -0.10864E-02   -0.41625E-03  1435   0.250E-01
   1139 T=   737. E= -.28207461E+02 F= -.31475327E+02 E0= -.31425690E+02  EK= 0.24778E+01 SP= 0.73E+00 SK= 0.60E-01 mag=     -0.114
       N       E                     dE             d eps       ncg     rms          rms(c)
DAV:   1    -0.314365369326E+02    0.37704E-01   -0.33949E-02  2832   0.110E+00    0.104E-01
RMM:   2    -0.314390894673E+02   -0.25525E-02   -0.62575E-03  1541   0.271E-01    0.791E-02
RMM:   3    -0.314417480790E+02   -0.26586E-02   -0.51662E-03  1400   0.135E-01    0.427E-02
RMM:   4    -0.314424763451E+02   -0.72827E-03   -0.20304E-03  1400   0.932E-02
   1140 T=   753. E= -.28205961E+02 F= -.31442476E+02 E0= -.31392639E+02  EK= 0.25317E+01 SP= 0.64E+00 SK= 0.66E-01 mag=     -0.021
       N       E                     dE             d eps       ncg     rms          rms(c)
DAV:   1    -0.314035255687E+02    0.38223E-01   -0.35493E-02  2576   0.102E+00    0.112E-01
RMM:   2    -0.314061145173E+02   -0.25889E-02   -0.77789E-03  1462   0.287E-01    0.818E-02
RMM:   3    -0.314080255493E+02   -0.19110E-02   -0.36698E-03  1400   0.122E-01    0.565E-02
RMM:   4    -0.314091462303E+02   -0.11207E-02   -0.22434E-03  1400   0.872E-02
   1141 T=   771. E= -.28204462E+02 F= -.31409146E+02 E0= -.31359482E+02  EK= 0.25907E+01 SP= 0.54E+00 SK= 0.70E-01 mag=      0.064
       N       E                     dE             d eps       ncg     rms          rms(c)
DAV:   1    -0.313758823574E+02    0.32143E-01   -0.18481E-02  2664   0.108E+00    0.711E-02
RMM:   2    -0.313767543765E+02   -0.87202E-03   -0.38113E-03  1506   0.251E-01
   1142 T=   791. E= -.28200806E+02 F= -.31376754E+02 E0= -.31327226E+02  EK= 0.26574E+01 SP= 0.45E+00 SK= 0.73E-01 mag=      0.082
       N       E                     dE             d eps       ncg     rms          rms(c)
DAV:   1    -0.313452393093E+02    0.30643E-01   -0.18839E-02  2848   0.107E+00    0.367E-02
RMM:   2    -0.313460152499E+02   -0.77594E-03   -0.42757E-03  1540   0.274E-01
   1143 T=   811. E= -.28199048E+02 F= -.31346015E+02 E0= -.31296482E+02  EK= 0.27271E+01 SP= 0.35E+00 SK= 0.73E-01 mag=      0.018
       N       E                     dE             d eps       ncg     rms          rms(c)
DAV:   1    -0.313151544041E+02    0.30085E-01   -0.16552E-02  2504   0.111E+00    0.499E-02
RMM:   2    -0.313161422704E+02   -0.98787E-03   -0.46872E-03  1545   0.289E-01
   1144 T=   833. E= -.28196537E+02 F= -.31316142E+02 E0= -.31266832E+02  EK= 0.28000E+01 SP= 0.25E+00 SK= 0.70E-01 mag=     -0.093
       N       E                     dE             d eps       ncg     rms          rms(c)
DAV:   1    -0.312862598127E+02    0.28895E-01   -0.18203E-02  2592   0.115E+00    0.628E-02
RMM:   2    -0.312876593335E+02   -0.13995E-02   -0.52413E-03  1548   0.310E-01    0.493E-02
RMM:   3    -0.312882604459E+02   -0.60111E-03   -0.16373E-03  1451   0.120E-01
   1145 T=   856. E= -.28192734E+02 F= -.31288260E+02 E0= -.31239208E+02  EK= 0.28760E+01 SP= 0.15E+00 SK= 0.65E-01 mag=     -0.079
       N       E                     dE             d eps       ncg     rms          rms(c)
DAV:   1    -0.312617540676E+02    0.25905E-01   -0.24001E-02  2544   0.110E+00    0.608E-02
RMM:   2    -0.312628894484E+02   -0.11354E-02   -0.40966E-03  1461   0.277E-01
   1146 T=   879. E= -.28187699E+02 F= -.31262889E+02 E0= -.31213769E+02  EK= 0.29534E+01 SP= 0.65E-01 SK= 0.57E-01 mag=      0.040
       N       E                     dE             d eps       ncg     rms          rms(c)
DAV:   1    -0.312355742497E+02    0.26180E-01   -0.35946E-02  2976   0.123E+00    0.826E-02
RMM:   2    -0.312374647738E+02   -0.18905E-02   -0.56049E-03  1546   0.274E-01    0.628E-02
RMM:   3    -0.312388596037E+02   -0.13948E-02   -0.23898E-03  1403   0.119E-01    0.438E-02
RMM:   4    -0.312396009799E+02   -0.74138E-03   -0.14162E-03  1400   0.816E-02
   1147 T=   901. E= -.28183473E+02 F= -.31239601E+02 E0= -.31190564E+02  EK= 0.30274E+01 SP= -.19E-01 SK= 0.48E-01 mag=      0.045
       N       E                     dE             d eps       ncg     rms          rms(c)
DAV:   1    -0.312153159031E+02    0.23544E-01   -0.20642E-02  2560   0.111E+00    0.858E-02
RMM:   2    -0.312170224767E+02   -0.17066E-02   -0.56331E-03  1459   0.280E-01    0.614E-02
RMM:   3    -0.312179541451E+02   -0.93167E-03   -0.20488E-03  1400   0.116E-01
   1148 T=   921. E= -.28181313E+02 F= -.31217954E+02 E0= -.31169073E+02  EK= 0.30936E+01 SP= -.94E-01 SK= 0.37E-01 mag=     -0.021
       N       E                     dE             d eps       ncg     rms          rms(c)
DAV:   1    -0.311979663650E+02    0.19056E-01   -0.31185E-02  2704   0.120E+00    0.686E-02
RMM:   2    -0.311991322478E+02   -0.11659E-02   -0.49967E-03  1594   0.309E-01
   1149 T=   939. E= -.28177086E+02 F= -.31199132E+02 E0= -.31150430E+02  EK= 0.31549E+01 SP= -.16E+00 SK= 0.27E-01 mag=     -0.109
       N       E                     dE             d eps       ncg     rms          rms(c)
DAV:   1    -0.311822702437E+02    0.15696E-01   -0.25601E-02  2920   0.125E+00    0.469E-02
RMM:   2    -0.311833788400E+02   -0.11086E-02   -0.48792E-03  1554   0.294E-01
   1150 T=   954. E= -.28175125E+02 F= -.31183379E+02 E0= -.31134709E+02  EK= 0.32048E+01 SP= -.21E+00 SK= 0.17E-01 mag=     -0.153
       N       E                     dE             d eps       ncg     rms          rms(c)
DAV:   1    -0.311693337225E+02    0.12937E-01   -0.15017E-02  2616   0.117E+00    0.468E-02
RMM:   2    -0.311703920732E+02   -0.10584E-02   -0.47927E-03  1540   0.303E-01
   1151 T=   965. E= -.28172366E+02 F= -.31170392E+02 E0= -.31121679E+02  EK= 0.32438E+01 SP= -.25E+00 SK= 0.89E-02 mag=     -0.097
       N       E                     dE             d eps       ncg     rms          rms(c)
DAV:   1    -0.311585205195E+02    0.10813E-01   -0.23229E-02  2520   0.131E+00    0.519E-02
RMM:   2    -0.311598450497E+02   -0.13245E-02   -0.57736E-03  1567   0.325E-01
   1152 T=   974. E= -.28166684E+02 F= -.31159845E+02 E0= -.31111235E+02  EK= 0.32722E+01 SP= -.28E+00 SK= 0.31E-02 mag=      0.048
       N       E                     dE             d eps       ncg     rms          rms(c)
DAV:   1    -0.311503440582E+02    0.81765E-02   -0.14190E-02  2728   0.118E+00    0.595E-02
RMM:   2    -0.311519028902E+02   -0.15588E-02   -0.56815E-03  1576   0.333E-01    0.468E-02
RMM:   3    -0.311526286200E+02   -0.72573E-03   -0.18962E-03  1446   0.129E-01
   1153 T=   977. E= -.28163152E+02 F= -.31152629E+02 E0= -.31104091E+02  EK= 0.32844E+01 SP= -.30E+00 SK= 0.25E-03 mag=      0.085
       N       E                     dE             d eps       ncg     rms          rms(c)
DAV:   1    -0.311462348547E+02    0.56680E-02   -0.22320E-02  2688   0.122E+00    0.614E-02
RMM:   2    -0.311476855384E+02   -0.14507E-02   -0.45862E-03  1495   0.293E-01    0.456E-02
RMM:   3    -0.311481545596E+02   -0.46902E-03   -0.11072E-03  1330   0.107E-01
   1154 T=   977. E= -.28159100E+02 F= -.31148155E+02 E0= -.31099543E+02  EK= 0.32819E+01 SP= -.29E+00 SK= 0.61E-03 mag=     -0.005
       N       E                     dE             d eps       ncg     rms          rms(c)
DAV:   1    -0.311449369696E+02    0.27486E-02   -0.31876E-02  2768   0.119E+00    0.536E-02
RMM:   2    -0.311460344720E+02   -0.10975E-02   -0.45252E-03  1556   0.284E-01
   1155 T=   972. E= -.28153082E+02 F= -.31146034E+02 E0= -.31097547E+02  EK= 0.32660E+01 SP= -.28E+00 SK= 0.41E-02 mag=     -0.145
       N       E                     dE             d eps       ncg     rms          rms(c)
DAV:   1    -0.311460577201E+02   -0.11208E-02   -0.21183E-02  2968   0.123E+00    0.538E-02
RMM:   2    -0.311472499514E+02   -0.11922E-02   -0.46411E-03  1574   0.283E-01
   1156 T=   962. E= -.28149802E+02 F= -.31147250E+02 E0= -.31098876E+02  EK= 0.32337E+01 SP= -.25E+00 SK= 0.10E-01 mag=     -0.214
       N       E                     dE             d eps       ncg     rms          rms(c)
DAV:   1    -0.311507259386E+02   -0.46682E-02   -0.15910E-02  2440   0.122E+00    0.417E-02
RMM:   2    -0.311518051324E+02   -0.10792E-02   -0.47980E-03  1580   0.325E-01
   1157 T=   949. E= -.28146513E+02 F= -.31151805E+02 E0= -.31103350E+02  EK= 0.31890E+01 SP= -.20E+00 SK= 0.19E-01 mag=     -0.138
       N       E                     dE             d eps       ncg     rms          rms(c)
DAV:   1    -0.311574087927E+02   -0.66829E-02   -0.22184E-02  2976   0.127E+00    0.462E-02
RMM:   2    -0.311586303046E+02   -0.12215E-02   -0.52954E-03  1588   0.305E-01
   1158 T=   933. E= -.28141170E+02 F= -.31158630E+02 E0= -.31110236E+02  EK= 0.31351E+01 SP= -.15E+00 SK= 0.29E-01 mag=      0.055
       N       E                     dE             d eps       ncg     rms          rms(c)
DAV:   1    -0.311665614085E+02   -0.91526E-02   -0.14064E-02  2720   0.116E+00    0.620E-02
RMM:   2    -0.311679960567E+02   -0.14346E-02   -0.48826E-03  1562   0.310E-01    0.480E-02
RMM:   3    -0.311686394257E+02   -0.64337E-03   -0.14818E-03  1440   0.118E-01
   1159 T=   914. E= -.28137649E+02 F= -.31168639E+02 E0= -.31120440E+02  EK= 0.30710E+01 SP= -.79E-01 SK= 0.39E-01 mag=      0.102
       N       E                     dE             d eps       ncg     rms          rms(c)
DAV:   1    -0.311804499491E+02   -0.12454E-01   -0.19159E-02  2632   0.115E+00    0.511E-02
RMM:   2    -0.311816105402E+02   -0.11606E-02   -0.39287E-03  1479   0.282E-01
   1160 T=   894. E= -.28131236E+02 F= -.31181611E+02 E0= -.31133418E+02  EK= 0.30037E+01 SP= -.24E-02 SK= 0.49E-01 mag=      0.007
       N       E                     dE             d eps       ncg     rms          rms(c)
DAV:   1    -0.311935471600E+02   -0.13097E-01   -0.27345E-02  3080   0.122E+00    0.861E-02
RMM:   2    -0.311956549376E+02   -0.21078E-02   -0.55894E-03  1541   0.266E-01    0.659E-02
RMM:   3    -0.311975846034E+02   -0.19297E-02   -0.34905E-03  1400   0.122E-01    0.387E-02
RMM:   4    -0.311981732766E+02   -0.58867E-03   -0.16762E-03  1400   0.846E-02
   1161 T=   872. E= -.28127093E+02 F= -.31198173E+02 E0= -.31150043E+02  EK= 0.29312E+01 SP= 0.82E-01 SK= 0.58E-01 mag=     -0.023
       N       E                     dE             d eps       ncg     rms          rms(c)
DAV:   1    -0.312120681629E+02   -0.14484E-01   -0.16313E-02  2552   0.107E+00    0.918E-02
RMM:   2    -0.312143483856E+02   -0.22802E-02   -0.60556E-03  1444   0.261E-01    0.698E-02
RMM:   3    -0.312162513309E+02   -0.19029E-02   -0.35698E-03  1400   0.114E-01    0.435E-02
RMM:   4    -0.312169981205E+02   -0.74679E-03   -0.18013E-03  1400   0.818E-02
   1162 T=   849. E= -.28125411E+02 F= -.31216998E+02 E0= -.31169042E+02  EK= 0.28544E+01 SP= 0.17E+00 SK= 0.65E-01 mag=      0.001
       N       E                     dE             d eps       ncg     rms          rms(c)
DAV:   1    -0.312375362282E+02   -0.21285E-01   -0.18685E-02  2832   0.113E+00    0.427E-02
RMM:   2    -0.312383058762E+02   -0.76965E-03   -0.35369E-03  1523   0.250E-01
   1163 T=   827. E= -.28121121E+02 F= -.31238306E+02 E0= -.31190574E+02  EK= 0.27809E+01 SP= 0.27E+00 SK= 0.69E-01 mag=      0.056
       N       E                     dE             d eps       ncg     rms          rms(c)
DAV:   1    -0.312613589054E+02   -0.23823E-01   -0.16707E-02  3040   0.107E+00    0.456E-02
RMM:   2    -0.312623569793E+02   -0.99807E-03   -0.41313E-03  1528   0.250E-01
   1164 T=   806. E= -.28118631E+02 F= -.31262357E+02 E0= -.31214959E+02  EK= 0.27086E+01 SP= 0.36E+00 SK= 0.71E-01 mag=      0.090
       N       E                     dE             d eps       ncg     rms          rms(c)
DAV:   1    -0.312886347050E+02   -0.27276E-01   -0.10453E-02  2192   0.109E+00    0.396E-02
RMM:   2    -0.312895054764E+02   -0.87077E-03   -0.40719E-03  1559   0.273E-01
   1165 T=   786. E= -.28116420E+02 F= -.31289505E+02 E0= -.31242353E+02  EK= 0.26411E+01 SP= 0.46E+00 SK= 0.71E-01 mag=      0.062
       N       E                     dE             d eps       ncg     rms          rms(c)
DAV:   1    -0.313182226084E+02   -0.29588E-01   -0.16698E-02  2952   0.109E+00    0.316E-02
RMM:   2    -0.313189681805E+02   -0.74557E-03   -0.40442E-03  1555   0.273E-01
   1166 T=   768. E= -.28112284E+02 F= -.31318968E+02 E0= -.31272076E+02  EK= 0.25813E+01 SP= 0.56E+00 SK= 0.68E-01 mag=     -0.022
       N       E                     dE             d eps       ncg     rms          rms(c)
DAV:   1    -0.313490965154E+02   -0.30874E-01   -0.98412E-03  2504   0.104E+00    0.348E-02
RMM:   2    -0.313499828552E+02   -0.88634E-03   -0.46856E-03  1569   0.275E-01
   1167 T=   752. E= -.28108232E+02 F= -.31349983E+02 E0= -.31303495E+02  EK= 0.25275E+01 SP= 0.65E+00 SK= 0.63E-01 mag=     -0.105
       N       E                     dE             d eps       ncg     rms          rms(c)
DAV:   1    -0.313820078650E+02   -0.32911E-01   -0.14410E-02  2696   0.104E+00    0.454E-02
RMM:   2    -0.313829757150E+02   -0.96785E-03   -0.43739E-03  1563   0.263E-01
   1168 T=   738. E= -.28104253E+02 F= -.31382976E+02 E0= -.31336924E+02  EK= 0.24810E+01 SP= 0.74E+00 SK= 0.57E-01 mag=     -0.112
       N       E                     dE             d eps       ncg     rms          rms(c)
DAV:   1    -0.314172512122E+02   -0.35243E-01   -0.12283E-02  2616   0.103E+00    0.353E-02
RMM:   2    -0.314180302273E+02   -0.77902E-03   -0.41818E-03  1582   0.278E-01
   1169 T=   727. E= -.28100649E+02 F= -.31418030E+02 E0= -.31372264E+02  EK= 0.24424E+01 SP= 0.83E+00 SK= 0.50E-01 mag=     -0.026
       N       E                     dE             d eps       ncg     rms          rms(c)
DAV:   1    -0.314529125426E+02   -0.35661E-01   -0.13117E-02  2744   0.102E+00    0.328E-02
RMM:   2    -0.314536944435E+02   -0.78190E-03   -0.40952E-03  1546   0.261E-01
   1170 T=   718. E= -.28096443E+02 F= -.31453694E+02 E0= -.31408377E+02  EK= 0.24115E+01 SP= 0.90E+00 SK= 0.42E-01 mag=      0.097
       N       E                     dE             d eps       ncg     rms          rms(c)
DAV:   1    -0.314887841379E+02   -0.35872E-01   -0.11402E-02  2432   0.103E+00    0.520E-02
RMM:   2    -0.314898299881E+02   -0.10459E-02   -0.43426E-03  1533   0.272E-01
   1171 T=   711. E= -.28091744E+02 F= -.31489830E+02 E0= -.31445106E+02  EK= 0.23885E+01 SP= 0.97E+00 SK= 0.35E-01 mag=      0.159
       N       E                     dE             d eps       ncg     rms          rms(c)
DAV:   1    -0.315263706943E+02   -0.37587E-01   -0.12213E-02  2664   0.102E+00    0.485E-02
RMM:   2    -0.315273571030E+02   -0.98641E-03   -0.41658E-03  1533   0.272E-01
   1172 T=   706. E= -.28087614E+02 F= -.31527357E+02 E0= -.31483084E+02  EK= 0.23734E+01 SP= 0.10E+01 SK= 0.27E-01 mag=      0.098
       N       E                     dE             d eps       ncg     rms          rms(c)
DAV:   1    -0.315646257944E+02   -0.38255E-01   -0.11417E-02  2568   0.104E+00    0.307E-02
RMM:   2    -0.315654322708E+02   -0.80648E-03   -0.47184E-03  1579   0.287E-01
   1173 T=   704. E= -.28083687E+02 F= -.31565432E+02 E0= -.31521528E+02  EK= 0.23657E+01 SP= 0.11E+01 SK= 0.21E-01 mag=     -0.053
       N       E                     dE             d eps       ncg     rms          rms(c)
DAV:   1    -0.316012320241E+02   -0.36606E-01   -0.15861E-02  2576   0.102E+00    0.542E-02
RMM:   2    -0.316023871652E+02   -0.11551E-02   -0.49700E-03  1548   0.287E-01
   1174 T=   704. E= -.28078507E+02 F= -.31602387E+02 E0= -.31559173E+02  EK= 0.23653E+01 SP= 0.11E+01 SK= 0.15E-01 mag=     -0.174
       N       E                     dE             d eps       ncg     rms          rms(c)
DAV:   1    -0.316383324202E+02   -0.37100E-01   -0.14285E-02  2480   0.104E+00    0.638E-02
RMM:   2    -0.316397037320E+02   -0.13713E-02   -0.51840E-03  1564   0.290E-01    0.495E-02
RMM:   3    -0.316403042376E+02   -0.60051E-03   -0.15667E-03  1477   0.115E-01
   1175 T=   705. E= -.28075202E+02 F= -.31640304E+02 E0= -.31597615E+02  EK= 0.23710E+01 SP= 0.12E+01 SK= 0.10E-01 mag=     -0.051
       N       E                     dE             d eps       ncg     rms          rms(c)
DAV:   1    -0.316758072854E+02   -0.36104E-01   -0.23263E-02  2568   0.103E+00    0.664E-02
RMM:   2    -0.316772265932E+02   -0.14193E-02   -0.39078E-03  1421   0.254E-01    0.524E-02
RMM:   3    -0.316776448512E+02   -0.41826E-03   -0.92686E-04  1285   0.905E-02
   1176 T=   709. E= -.28071494E+02 F= -.31677645E+02 E0= -.31635495E+02  EK= 0.23833E+01 SP= 0.12E+01 SK= 0.62E-02 mag=      0.083
       N       E                     dE             d eps       ncg     rms          rms(c)
DAV:   1    -0.317132204329E+02   -0.35994E-01   -0.37638E-02  2536   0.102E+00    0.572E-02
RMM:   2    -0.317141910757E+02   -0.97064E-03   -0.46402E-03  1553   0.278E-01
   1177 T=   715. E= -.28066577E+02 F= -.31714191E+02 E0= -.31672639E+02  EK= 0.24025E+01 SP= 0.12E+01 SK= 0.35E-02 mag=      0.143
       N       E                     dE             d eps       ncg     rms          rms(c)
DAV:   1    -0.317495663575E+02   -0.36346E-01   -0.24821E-02  2616   0.103E+00    0.394E-02
RMM:   2    -0.317504739946E+02   -0.90764E-03   -0.44258E-03  1537   0.272E-01
   1178 T=   722. E= -.28063435E+02 F= -.31750474E+02 E0= -.31709442E+02  EK= 0.24258E+01 SP= 0.13E+01 SK= 0.16E-02 mag=      0.078
       N       E                     dE             d eps       ncg     rms          rms(c)
DAV:   1    -0.317851015368E+02   -0.35535E-01   -0.13884E-02  2568   0.104E+00    0.308E-02
RMM:   2    -0.317858624574E+02   -0.76092E-03   -0.44540E-03  1563   0.290E-01
   1179 T=   730. E= -.28059753E+02 F= -.31785862E+02 E0= -.31745383E+02  EK= 0.24545E+01 SP= 0.13E+01 SK= 0.55E-03 mag=     -0.068
       N       E                     dE             d eps       ncg     rms          rms(c)
DAV:   1    -0.318178344366E+02   -0.32733E-01   -0.17422E-02  2440   0.110E+00    0.552E-02
RMM:   2    -0.318190437574E+02   -0.12093E-02   -0.48334E-03  1548   0.283E-01
   1180 T=   740. E= -.28053769E+02 F= -.31819044E+02 E0= -.31779332E+02  EK= 0.24885E+01 SP= 0.13E+01 SK= 0.77E-04 mag=     -0.153
       N       E                     dE             d eps       ncg     rms          rms(c)
DAV:   1    -0.318512215037E+02   -0.33387E-01   -0.12566E-02  2520   0.103E+00    0.504E-02
RMM:   2    -0.318522420810E+02   -0.10206E-02   -0.44013E-03  1547   0.295E-01
   1181 T=   752. E= -.28048863E+02 F= -.31852242E+02 E0= -.31813137E+02  EK= 0.25259E+01 SP= 0.13E+01 SK= 0.12E-04 mag=     -0.113
       N       E                     dE             d eps       ncg     rms          rms(c)
DAV:   1    -0.318833797745E+02   -0.32158E-01   -0.13912E-02  2664   0.107E+00    0.290E-02
RMM:   2    -0.318841743514E+02   -0.79458E-03   -0.42667E-03  1548   0.278E-01
   1182 T=   764. E= -.28043812E+02 F= -.31884174E+02 E0= -.31845580E+02  EK= 0.25660E+01 SP= 0.13E+01 SK= 0.17E-03 mag=      0.030
       N       E                     dE             d eps       ncg     rms          rms(c)
DAV:   1    -0.319119551258E+02   -0.28575E-01   -0.12827E-02  2352   0.104E+00    0.508E-02
RMM:   2    -0.319131428599E+02   -0.11877E-02   -0.52235E-03  1559   0.293E-01
   1183 T=   776. E= -.28038204E+02 F= -.31913143E+02 E0= -.31875274E+02  EK= 0.26067E+01 SP= 0.13E+01 SK= 0.40E-03 mag=      0.169
       N       E                     dE             d eps       ncg     rms          rms(c)
DAV:   1    -0.319385837462E+02   -0.26629E-01   -0.16440E-02  2744   0.109E+00    0.673E-02
RMM:   2    -0.319401875347E+02   -0.16038E-02   -0.54051E-03  1548   0.301E-01    0.526E-02
RMM:   3    -0.319411411087E+02   -0.95357E-03   -0.24344E-03  1402   0.121E-01
   1184 T=   787. E= -.28034449E+02 F= -.31941141E+02 E0= -.31903904E+02  EK= 0.26466E+01 SP= 0.13E+01 SK= 0.59E-03 mag=      0.024
       N       E                     dE             d eps       ncg     rms          rms(c)
DAV:   1    -0.319634353887E+02   -0.23248E-01   -0.23339E-02  2560   0.105E+00    0.850E-02
RMM:   2    -0.319654842440E+02   -0.20489E-02   -0.41215E-03  1455   0.270E-01    0.652E-02
RMM:   3    -0.319662605797E+02   -0.77634E-03   -0.11524E-03  1360   0.960E-02
   1185 T=   799. E= -.28030149E+02 F= -.31966261E+02 E0= -.31929672E+02  EK= 0.26853E+01 SP= 0.13E+01 SK= 0.67E-03 mag=     -0.079
       N       E                     dE             d eps       ncg     rms          rms(c)
DAV:   1    -0.319885059646E+02   -0.23022E-01   -0.49607E-02  2552   0.107E+00    0.509E-02
RMM:   2    -0.319894452022E+02   -0.93924E-03   -0.48558E-03  1540   0.288E-01
   1186 T=   810. E= -.28025229E+02 F= -.31989445E+02 E0= -.31953427E+02  EK= 0.27229E+01 SP= 0.12E+01 SK= 0.61E-03 mag=     -0.086
       N       E                     dE             d eps       ncg     rms          rms(c)
DAV:   1    -0.320084693937E+02   -0.19963E-01   -0.30058E-02  2712   0.108E+00    0.298E-02
RMM:   2    -0.320093777197E+02   -0.90833E-03   -0.52558E-03  1569   0.279E-01
   1187 T=   820. E= -.28022242E+02 F= -.32009378E+02 E0= -.31973915E+02  EK= 0.27546E+01 SP= 0.12E+01 SK= 0.46E-03 mag=      0.002
       N       E                     dE             d eps       ncg     rms          rms(c)
DAV:   1    -0.320246738642E+02   -0.16204E-01   -0.14688E-02  2624   0.108E+00    0.439E-02
RMM:   2    -0.320256264518E+02   -0.95259E-03   -0.46232E-03  1565   0.305E-01
   1188 T=   828. E= -.28018250E+02 F= -.32025626E+02 E0= -.31990768E+02  EK= 0.27820E+01 SP= 0.12E+01 SK= 0.26E-03 mag=      0.101
       N       E                     dE             d eps       ncg     rms          rms(c)
DAV:   1    -0.320368220991E+02   -0.12148E-01   -0.18013E-02  2528   0.114E+00    0.489E-02
RMM:   2    -0.320379356692E+02   -0.11136E-02   -0.45072E-03  1533   0.282E-01
   1189 T=   835. E= -.28012621E+02 F= -.32037936E+02 E0= -.32003712E+02  EK= 0.28048E+01 SP= 0.12E+01 SK= 0.79E-04 mag=      0.116
       N       E                     dE             d eps       ncg     rms          rms(c)
DAV:   1    -0.320458939722E+02   -0.90719E-02   -0.91250E-03  2408   0.106E+00    0.356E-02
RMM:   2    -0.320468235922E+02   -0.92962E-03   -0.46547E-03  1550   0.295E-01
   1190 T=   839. E= -.28007727E+02 F= -.32046824E+02 E0= -.32013149E+02  EK= 0.28205E+01 SP= 0.12E+01 SK= 0.25E-06 mag=      0.032
       N       E                     dE             d eps       ncg     rms          rms(c)
DAV:   1    -0.320500937071E+02   -0.41997E-02   -0.14032E-02  2600   0.111E+00    0.371E-02
RMM:   2    -0.320510052920E+02   -0.91158E-03   -0.46833E-03  1561   0.284E-01
   1191 T=   842. E= -.28002328E+02 F= -.32051005E+02 E0= -.32017811E+02  EK= 0.28285E+01 SP= 0.12E+01 SK= 0.76E-04 mag=     -0.078
       N       E                     dE             d eps       ncg     rms          rms(c)
DAV:   1    -0.320488217335E+02    0.12720E-02   -0.15576E-02  2456   0.109E+00    0.489E-02
RMM:   2    -0.320499953920E+02   -0.11737E-02   -0.50951E-03  1529   0.304E-01
   1192 T=   841. E= -.27996933E+02 F= -.32049995E+02 E0= -.32017365E+02  EK= 0.28278E+01 SP= 0.12E+01 SK= 0.33E-03 mag=     -0.131
       N       E                     dE             d eps       ncg     rms          rms(c)
DAV:   1    -0.320433927455E+02    0.54290E-02   -0.16756E-02  2840   0.111E+00    0.506E-02
RMM:   2    -0.320447253318E+02   -0.13326E-02   -0.58787E-03  1609   0.297E-01
   1193 T=   839. E= -.27991783E+02 F= -.32044725E+02 E0= -.32012612E+02  EK= 0.28189E+01 SP= 0.12E+01 SK= 0.74E-03 mag=     -0.068
       N       E                     dE             d eps       ncg     rms          rms(c)
DAV:   1    -0.320343149907E+02    0.90778E-02   -0.16614E-02  2600   0.109E+00    0.380E-02
RMM:   2    -0.320352787380E+02   -0.96375E-03   -0.53831E-03  1572   0.322E-01
   1194 T=   834. E= -.27987331E+02 F= -.32035279E+02 E0= -.32003564E+02  EK= 0.28019E+01 SP= 0.12E+01 SK= 0.13E-02 mag=      0.068
       N       E                     dE             d eps       ncg     rms          rms(c)
DAV:   1    -0.320185141956E+02    0.15801E-01   -0.18426E-02  2680   0.109E+00    0.610E-02
RMM:   2    -0.320200127761E+02   -0.14986E-02   -0.62233E-03  1580   0.307E-01    0.464E-02
RMM:   3    -0.320206490430E+02   -0.63627E-03   -0.19278E-03  1486   0.121E-01
   1195 T=   826. E= -.27982772E+02 F= -.32020649E+02 E0= -.31989379E+02  EK= 0.27769E+01 SP= 0.13E+01 SK= 0.18E-02 mag=      0.052
       N       E                     dE             d eps       ncg     rms          rms(c)
DAV:   1    -0.320009360896E+02    0.19077E-01   -0.14923E-02  2560   0.107E+00    0.463E-02
RMM:   2    -0.320017799771E+02   -0.84389E-03   -0.32918E-03  1525   0.256E-01
   1196 T=   818. E= -.27976252E+02 F= -.32001780E+02 E0= -.31970915E+02  EK= 0.27476E+01 SP= 0.13E+01 SK= 0.22E-02 mag=     -0.055
       N       E                     dE             d eps       ncg     rms          rms(c)
DAV:   1    -0.319768899863E+02    0.24046E-01   -0.21894E-02  2848   0.113E+00    0.540E-02
RMM:   2    -0.319780595391E+02   -0.11696E-02   -0.48023E-03  1575   0.263E-01
   1197 T=   807. E= -.27969728E+02 F= -.31978060E+02 E0= -.31947540E+02  EK= 0.27122E+01 SP= 0.13E+01 SK= 0.25E-02 mag=     -0.128
       N       E                     dE             d eps       ncg     rms          rms(c)
DAV:   1    -0.319501847014E+02    0.26705E-01   -0.87234E-03  1936   0.101E+00    0.463E-02
RMM:   2    -0.319512364142E+02   -0.10517E-02   -0.56751E-03  1547   0.305E-01
   1198 T=   795. E= -.27965785E+02 F= -.31951236E+02 E0= -.31921072E+02  EK= 0.26707E+01 SP= 0.13E+01 SK= 0.25E-02 mag=     -0.095
       N       E                     dE             d eps       ncg     rms          rms(c)
DAV:   1    -0.319202770895E+02    0.29908E-01   -0.18883E-02  2872   0.116E+00    0.366E-02
RMM:   2    -0.319212237658E+02   -0.94668E-03   -0.51749E-03  1575   0.284E-01
   1199 T=   782. E= -.27961076E+02 F= -.31921224E+02 E0= -.31891364E+02  EK= 0.26276E+01 SP= 0.13E+01 SK= 0.23E-02 mag=      0.014
       N       E                     dE             d eps       ncg     rms          rms(c)
DAV:   1    -0.318869046788E+02    0.33372E-01   -0.15127E-02  2520   0.991E-01    0.485E-02
RMM:   2    -0.318881125648E+02   -0.12079E-02   -0.59030E-03  1538   0.326E-01
   1200 T=   769. E= -.27955487E+02 F= -.31888113E+02 E0= -.31858530E+02  EK= 0.25839E+01 SP= 0.13E+01 SK= 0.18E-02 mag=      0.114
       N       E                     dE             d eps       ncg     rms          rms(c)
DAV:   1    -0.318521516779E+02    0.34753E-01   -0.15495E-02  2504   0.108E+00    0.509E-02
RMM:   2    -0.318532853828E+02   -0.11337E-02   -0.50140E-03  1535   0.286E-01
   1201 T=   756. E= -.27949711E+02 F= -.31853285E+02 E0= -.31823990E+02  EK= 0.25415E+01 SP= 0.14E+01 SK= 0.11E-02 mag=      0.110
       N       E                     dE             d eps       ncg     rms          rms(c)
DAV:   1    -0.318161803755E+02    0.35971E-01   -0.12817E-02  2440   0.102E+00    0.378E-02
RMM:   2    -0.318171390724E+02   -0.95870E-03   -0.55531E-03  1602   0.306E-01
   1202 T=   744. E= -.27944200E+02 F= -.31817139E+02 E0= -.31788035E+02  EK= 0.25011E+01 SP= 0.14E+01 SK= 0.49E-03 mag=      0.006
       N       E                     dE             d eps       ncg     rms          rms(c)
DAV:   1    -0.317780098404E+02    0.38171E-01   -0.15895E-02  2640   0.105E+00    0.545E-02
RMM:   2    -0.317792800065E+02   -0.12702E-02   -0.55044E-03  1542   0.297E-01
   1203 T=   733. E= -.27938141E+02 F= -.31779280E+02 E0= -.31750403E+02  EK= 0.24640E+01 SP= 0.14E+01 SK= 0.67E-04 mag=     -0.101
       N       E                     dE             d eps       ncg     rms          rms(c)
DAV:   1    -0.317406651875E+02    0.37345E-01   -0.14208E-02  2464   0.101E+00    0.586E-02
RMM:   2    -0.317417967566E+02   -0.11316E-02   -0.50483E-03  1548   0.295E-01
   1204 T=   723. E= -.27933011E+02 F= -.31741797E+02 E0= -.31713107E+02  EK= 0.24314E+01 SP= 0.14E+01 SK= 0.66E-04 mag=     -0.133
       N       E                     dE             d eps       ncg     rms          rms(c)
DAV:   1    -0.317034982075E+02    0.37167E-01   -0.16999E-02  2600   0.102E+00    0.502E-02
RMM:   2    -0.317047535015E+02   -0.12553E-02   -0.66982E-03  1635   0.294E-01
   1205 T=   716. E= -.27928064E+02 F= -.31704754E+02 E0= -.31676206E+02  EK= 0.24048E+01 SP= 0.14E+01 SK= 0.70E-03 mag=     -0.058
       N       E                     dE             d eps       ncg     rms          rms(c)
DAV:   1    -0.316672862641E+02    0.36212E-01   -0.16057E-02  2544   0.977E-01    0.582E-02
RMM:   2    -0.316685130775E+02   -0.12268E-02   -0.53256E-03  1539   0.298E-01
   1206 T=   710. E= -.27923696E+02 F= -.31668513E+02 E0= -.31640066E+02  EK= 0.23846E+01 SP= 0.14E+01 SK= 0.21E-02 mag=      0.077
       N       E                     dE             d eps       ncg     rms          rms(c)
DAV:   1    -0.316319690896E+02    0.35317E-01   -0.15687E-02  2648   0.100E+00    0.681E-02
RMM:   2    -0.316334614593E+02   -0.14924E-02   -0.52943E-03  1536   0.279E-01    0.503E-02
RMM:   3    -0.316343671824E+02   -0.90572E-03   -0.25149E-03  1413   0.115E-01
   1207 T=   706. E= -.27920813E+02 F= -.31634367E+02 E0= -.31606000E+02  EK= 0.23716E+01 SP= 0.13E+01 SK= 0.45E-02 mag=      0.036
       N       E                     dE             d eps       ncg     rms          rms(c)
DAV:   1    -0.315988407458E+02    0.34621E-01   -0.20984E-02  2576   0.973E-01    0.782E-02
RMM:   2    -0.316004896566E+02   -0.16489E-02   -0.39837E-03  1435   0.241E-01    0.578E-02
RMM:   3    -0.316016246767E+02   -0.11350E-02   -0.23536E-03  1400   0.101E-01
   1208 T=   704. E= -.27917535E+02 F= -.31601625E+02 E0= -.31573296E+02  EK= 0.23672E+01 SP= 0.13E+01 SK= 0.79E-02 mag=     -0.017
       N       E                     dE             d eps       ncg     rms          rms(c)
DAV:   1    -0.315705049321E+02    0.29985E-01   -0.26956E-02  2640   0.956E-01    0.432E-02
RMM:   2    -0.315710780789E+02   -0.57315E-03   -0.33447E-03  1531   0.232E-01
   1209 T=   706. E= -.27913414E+02 F= -.31571078E+02 E0= -.31542764E+02  EK= 0.23729E+01 SP= 0.13E+01 SK= 0.12E-01 mag=     -0.043
       N       E                     dE             d eps       ncg     rms          rms(c)
DAV:   1    -0.315421596315E+02    0.28345E-01   -0.18742E-02  2656   0.994E-01    0.358E-02
RMM:   2    -0.315429035242E+02   -0.74389E-03   -0.37423E-03  1534   0.245E-01
   1210 T=   710. E= -.27910556E+02 F= -.31542904E+02 E0= -.31514590E+02  EK= 0.23867E+01 SP= 0.12E+01 SK= 0.17E-01 mag=     -0.026
       N       E                     dE             d eps       ncg     rms          rms(c)
DAV:   1    -0.315165753622E+02    0.25584E-01   -0.10691E-02  2216   0.984E-01    0.471E-02
RMM:   2    -0.315174256339E+02   -0.85027E-03   -0.38324E-03  1535   0.268E-01
   1211 T=   717. E= -.27907117E+02 F= -.31517426E+02 E0= -.31489089E+02  EK= 0.24108E+01 SP= 0.12E+01 SK= 0.23E-01 mag=      0.012
       N       E                     dE             d eps       ncg     rms          rms(c)
DAV:   1    -0.314945753237E+02    0.22000E-01   -0.15619E-02  2776   0.105E+00    0.351E-02
RMM:   2    -0.314952361346E+02   -0.66081E-03   -0.37715E-03  1522   0.260E-01
   1212 T=   728. E= -.27903170E+02 F= -.31495236E+02 E0= -.31466820E+02  EK= 0.24454E+01 SP= 0.11E+01 SK= 0.28E-01 mag=      0.048
       N       E                     dE             d eps       ncg     rms          rms(c)
DAV:   1    -0.314747093268E+02    0.19866E-01   -0.10800E-02  2392   0.971E-01    0.410E-02
RMM:   2    -0.314755551491E+02   -0.84582E-03   -0.43737E-03  1536   0.285E-01
   1213 T=   741. E= -.27898767E+02 F= -.31475555E+02 E0= -.31447050E+02  EK= 0.24893E+01 SP= 0.11E+01 SK= 0.34E-01 mag=      0.053
       N       E                     dE             d eps       ncg     rms          rms(c)
DAV:   1    -0.314576625558E+02    0.17047E-01   -0.14860E-02  2576   0.104E+00    0.461E-02
RMM:   2    -0.314586595274E+02   -0.99697E-03   -0.44058E-03  1539   0.268E-01
   1214 T=   756. E= -.27894138E+02 F= -.31458660E+02 E0= -.31430037E+02  EK= 0.25420E+01 SP= 0.98E+00 SK= 0.38E-01 mag=      0.018
       N       E                     dE             d eps       ncg     rms          rms(c)
DAV:   1    -0.314440390576E+02    0.13623E-01   -0.13032E-02  2552   0.102E+00    0.337E-02
RMM:   2    -0.314448735026E+02   -0.83445E-03   -0.44861E-03  1537   0.294E-01
   1215 T=   774. E= -.27890142E+02 F= -.31444874E+02 E0= -.31416080E+02  EK= 0.26021E+01 SP= 0.91E+00 SK= 0.41E-01 mag=     -0.030
       N       E                     dE             d eps       ncg     rms          rms(c)
DAV:   1    -0.314324251291E+02    0.11614E-01   -0.16526E-02  2752   0.108E+00    0.381E-02
RMM:   2    -0.314333451484E+02   -0.92002E-03   -0.48222E-03  1531   0.290E-01
   1216 T=   794. E= -.27885867E+02 F= -.31433345E+02 E0= -.31404381E+02  EK= 0.26685E+01 SP= 0.84E+00 SK= 0.43E-01 mag=     -0.055
       N       E                     dE             d eps       ncg     rms          rms(c)
DAV:   1    -0.314224754994E+02    0.99496E-02   -0.15857E-02  2568   0.107E+00    0.548E-02
RMM:   2    -0.314237546698E+02   -0.12792E-02   -0.52761E-03  1539   0.306E-01
   1217 T=   815. E= -.27880994E+02 F= -.31423755E+02 E0= -.31394622E+02  EK= 0.27399E+01 SP= 0.76E+00 SK= 0.42E-01 mag=     -0.033
       N       E                     dE             d eps       ncg     rms          rms(c)
DAV:   1    -0.314164175831E+02    0.60579E-02   -0.16049E-02  2440   0.114E+00    0.402E-02
RMM:   2    -0.314174591727E+02   -0.10416E-02   -0.53418E-03  1565   0.315E-01
   1218 T=   838. E= -.27876309E+02 F= -.31417459E+02 E0= -.31388092E+02  EK= 0.28152E+01 SP= 0.69E+00 SK= 0.40E-01 mag=      0.021
       N       E                     dE             d eps       ncg     rms          rms(c)
DAV:   1    -0.314115867611E+02    0.48308E-02   -0.18157E-02  2584   0.111E+00    0.400E-02
RMM:   2    -0.314126996034E+02   -0.11128E-02   -0.59475E-03  1585   0.330E-01
   1219 T=   860. E= -.27871029E+02 F= -.31412700E+02 E0= -.31383121E+02  EK= 0.28913E+01 SP= 0.61E+00 SK= 0.36E-01 mag=      0.063
       N       E                     dE             d eps       ncg     rms          rms(c)
DAV:   1    -0.314072723997E+02    0.43144E-02   -0.20228E-02  2712   0.115E+00    0.591E-02
RMM:   2    -0.314087864093E+02   -0.15140E-02   -0.63458E-03  1592   0.327E-01    0.447E-02
RMM:   3    -0.314093316525E+02   -0.54524E-03   -0.18551E-03  1471   0.125E-01
   1220 T=   882. E= -.27866564E+02 F= -.31409332E+02 E0= -.31379553E+02  EK= 0.29645E+01 SP= 0.55E+00 SK= 0.30E-01 mag=      0.018
       N       E                     dE             d eps       ncg     rms          rms(c)
DAV:   1    -0.314062972507E+02    0.24892E-02   -0.23586E-02  2600   0.114E+00    0.538E-02
RMM:   2    -0.314076197683E+02   -0.13225E-02   -0.44965E-03  1495   0.279E-01
   1221 T=   903. E= -.27860234E+02 F= -.31407620E+02 E0= -.31377612E+02  EK= 0.30355E+01 SP= 0.49E+00 SK= 0.23E-01 mag=     -0.072
       N       E                     dE             d eps       ncg     rms          rms(c)
DAV:   1    -0.314044620333E+02    0.18352E-02   -0.37999E-02  2960   0.124E+00    0.776E-02
RMM:   2    -0.314062497979E+02   -0.17878E-02   -0.54873E-03  1568   0.283E-01    0.552E-02
RMM:   3    -0.314073484927E+02   -0.10987E-02   -0.22693E-03  1405   0.118E-01
   1222 T=   922. E= -.27855227E+02 F= -.31407348E+02 E0= -.31377162E+02  EK= 0.30982E+01 SP= 0.44E+00 SK= 0.16E-01 mag=     -0.025
       N       E                     dE             d eps       ncg     rms          rms(c)
DAV:   1    -0.314054502727E+02    0.79953E-03   -0.17930E-02  2408   0.113E+00    0.766E-02
RMM:   2    -0.314073227904E+02   -0.18725E-02   -0.53953E-03  1518   0.287E-01    0.555E-02
RMM:   3    -0.314079573938E+02   -0.63460E-03   -0.13633E-03  1404   0.111E-01
   1223 T=   937. E= -.27852480E+02 F= -.31407957E+02 E0= -.31377578E+02  EK= 0.31490E+01 SP= 0.40E+00 SK= 0.93E-02 mag=      0.026
       N       E                     dE             d eps       ncg     rms          rms(c)
DAV:   1    -0.314087082305E+02   -0.13854E-02   -0.43088E-02  2816   0.120E+00    0.480E-02
RMM:   2    -0.314098665387E+02   -0.11583E-02   -0.51038E-03  1578   0.298E-01
   1224 T=   949. E= -.27847484E+02 F= -.31409867E+02 E0= -.31379331E+02  EK= 0.31906E+01 SP= 0.37E+00 SK= 0.41E-02 mag=      0.049
       N       E                     dE             d eps       ncg     rms          rms(c)
DAV:   1    -0.314116407287E+02   -0.29325E-02   -0.35957E-02  2912   0.122E+00    0.347E-02
RMM:   2    -0.314127086619E+02   -0.10679E-02   -0.51334E-03  1573   0.290E-01
   1225 T=   957. E= -.27844974E+02 F= -.31412709E+02 E0= -.31382030E+02  EK= 0.32163E+01 SP= 0.35E+00 SK= 0.85E-03 mag=      0.023
       N       E                     dE             d eps       ncg     rms          rms(c)
DAV:   1    -0.314156689081E+02   -0.40282E-02   -0.18701E-02  2688   0.114E+00    0.331E-02
RMM:   2    -0.314167338317E+02   -0.10649E-02   -0.50748E-03  1566   0.307E-01
   1226 T=   961. E= -.27841886E+02 F= -.31416734E+02 E0= -.31385940E+02  EK= 0.32283E+01 SP= 0.35E+00 SK= 0.50E-04 mag=     -0.027
       N       E                     dE             d eps       ncg     rms          rms(c)
DAV:   1    -0.314206170106E+02   -0.49481E-02   -0.24784E-02  2704   0.128E+00    0.342E-02
RMM:   2    -0.314217902511E+02   -0.11732E-02   -0.54253E-03  1590   0.306E-01
   1227 T=   960. E= -.27836688E+02 F= -.31421790E+02 E0= -.31390957E+02  EK= 0.32274E+01 SP= 0.36E+00 SK= 0.19E-02 mag=     -0.062
       N       E                     dE             d eps       ncg     rms          rms(c)
DAV:   1    -0.314267924819E+02   -0.61755E-02   -0.15235E-02  2632   0.114E+00    0.353E-02
RMM:   2    -0.314280602108E+02   -0.12677E-02   -0.58742E-03  1638   0.317E-01
   1228 T=   955. E= -.27832421E+02 F= -.31428060E+02 E0= -.31397177E+02  EK= 0.32110E+01 SP= 0.38E+00 SK= 0.63E-02 mag=     -0.042
       N       E                     dE             d eps       ncg     rms          rms(c)
DAV:   1    -0.314353733561E+02   -0.85809E-02   -0.20654E-02  2624   0.121E+00    0.280E-02
RMM:   2    -0.314364058539E+02   -0.10325E-02   -0.48591E-03  1597   0.299E-01
   1229 T=   947. E= -.27828289E+02 F= -.31436406E+02 E0= -.31405446E+02  EK= 0.31815E+01 SP= 0.41E+00 SK= 0.13E-01 mag=      0.018
       N       E                     dE             d eps       ncg     rms          rms(c)
DAV:   1    -0.314449838237E+02   -0.96105E-02   -0.18761E-02  2680   0.115E+00    0.335E-02
RMM:   2    -0.314462688137E+02   -0.12850E-02   -0.62163E-03  1667   0.305E-01
   1230 T=   934. E= -.27823613E+02 F= -.31446269E+02 E0= -.31415345E+02  EK= 0.31401E+01 SP= 0.46E+00 SK= 0.21E-01 mag=      0.064
       N       E                     dE             d eps       ncg     rms          rms(c)
DAV:   1    -0.314570816472E+02   -0.12098E-01   -0.24067E-02  2752   0.116E+00    0.390E-02
RMM:   2    -0.314583009560E+02   -0.12193E-02   -0.50461E-03  1596   0.301E-01
   1231 T=   919. E= -.27819006E+02 F= -.31458301E+02 E0= -.31427382E+02  EK= 0.30888E+01 SP= 0.52E+00 SK= 0.31E-01 mag=      0.054
       N       E                     dE             d eps       ncg     rms          rms(c)
DAV:   1    -0.314718019300E+02   -0.14720E-01   -0.17461E-02  2552   0.113E+00    0.266E-02
RMM:   2    -0.314728467127E+02   -0.10448E-02   -0.48542E-03  1586   0.289E-01
   1232 T=   901. E= -.27814957E+02 F= -.31472847E+02 E0= -.31441902E+02  EK= 0.30295E+01 SP= 0.59E+00 SK= 0.40E-01 mag=     -0.008
       N       E                     dE             d eps       ncg     rms          rms(c)
DAV:   1    -0.314887317372E+02   -0.16930E-01   -0.16891E-02  2680   0.110E+00    0.322E-02
RMM:   2    -0.314898559565E+02   -0.11242E-02   -0.52181E-03  1591   0.296E-01
   1233 T=   882. E= -.27810821E+02 F= -.31489856E+02 E0= -.31458957E+02  EK= 0.29649E+01 SP= 0.67E+00 SK= 0.49E-01 mag=     -0.069
       N       E                     dE             d eps       ncg     rms          rms(c)
DAV:   1    -0.315084444035E+02   -0.19713E-01   -0.17360E-02  2752   0.110E+00    0.443E-02
RMM:   2    -0.315096997023E+02   -0.12553E-02   -0.48758E-03  1570   0.287E-01
   1234 T=   862. E= -.27806635E+02 F= -.31509700E+02 E0= -.31478840E+02  EK= 0.28976E+01 SP= 0.75E+00 SK= 0.56E-01 mag=     -0.069
       N       E                     dE             d eps       ncg     rms          rms(c)
DAV:   1    -0.315317734642E+02   -0.23329E-01   -0.15074E-02  2672   0.108E+00    0.298E-02
RMM:   2    -0.315327619040E+02   -0.98844E-03   -0.46470E-03  1581   0.284E-01
   1235 T=   842. E= -.27802489E+02 F= -.31532762E+02 E0= -.31501864E+02  EK= 0.28301E+01 SP= 0.84E+00 SK= 0.62E-01 mag=     -0.005
       N       E                     dE             d eps       ncg     rms          rms(c)
DAV:   1    -0.315575179081E+02   -0.25744E-01   -0.15880E-02  2640   0.105E+00    0.318E-02
RMM:   2    -0.315585392241E+02   -0.10213E-02   -0.48128E-03  1576   0.289E-01
   1236 T=   822. E= -.27798094E+02 F= -.31558539E+02 E0= -.31527652E+02  EK= 0.27642E+01 SP= 0.93E+00 SK= 0.66E-01 mag=      0.068
       N       E                     dE             d eps       ncg     rms          rms(c)
DAV:   1    -0.315859263054E+02   -0.28408E-01   -0.15330E-02  2728   0.104E+00    0.475E-02
RMM:   2    -0.315871678401E+02   -0.12415E-02   -0.49985E-03  1574   0.278E-01
   1237 T=   804. E= -.27793870E+02 F= -.31587168E+02 E0= -.31556267E+02  EK= 0.27012E+01 SP= 0.10E+01 SK= 0.67E-01 mag=      0.081
       N       E                     dE             d eps       ncg     rms          rms(c)
DAV:   1    -0.316182931797E+02   -0.32367E-01   -0.13934E-02  2520   0.103E+00    0.339E-02
RMM:   2    -0.316192650332E+02   -0.97185E-03   -0.45062E-03  1568   0.281E-01
   1238 T=   786. E= -.27790036E+02 F= -.31619265E+02 E0= -.31588280E+02  EK= 0.26431E+01 SP= 0.11E+01 SK= 0.67E-01 mag=      0.018
       N       E                     dE             d eps       ncg     rms          rms(c)
DAV:   1    -0.316531605969E+02   -0.34867E-01   -0.14302E-02  2576   0.102E+00    0.309E-02
RMM:   2    -0.316541073066E+02   -0.94671E-03   -0.47856E-03  1579   0.286E-01
   1239 T=   771. E= -.27785765E+02 F= -.31654107E+02 E0= -.31623037E+02  EK= 0.25913E+01 SP= 0.12E+01 SK= 0.64E-01 mag=     -0.068
       N       E                     dE             d eps       ncg     rms          rms(c)
DAV:   1    -0.316900876800E+02   -0.36927E-01   -0.15000E-02  2624   0.102E+00    0.507E-02
RMM:   2    -0.316912923782E+02   -0.12047E-02   -0.47997E-03  1556   0.283E-01
   1240 T=   758. E= -.27780871E+02 F= -.31691292E+02 E0= -.31660119E+02  EK= 0.25463E+01 SP= 0.13E+01 SK= 0.60E-01 mag=     -0.092
       N       E                     dE             d eps       ncg     rms          rms(c)
DAV:   1    -0.317306439435E+02   -0.40556E-01   -0.13572E-02  2400   0.102E+00    0.377E-02
RMM:   2    -0.317315992292E+02   -0.95529E-03   -0.45654E-03  1581   0.280E-01
   1241 T=   747. E= -.27776245E+02 F= -.31731599E+02 E0= -.31700233E+02  EK= 0.25089E+01 SP= 0.14E+01 SK= 0.55E-01 mag=     -0.030
       N       E                     dE             d eps       ncg     rms          rms(c)
DAV:   1    -0.317729782443E+02   -0.42334E-01   -0.13408E-02  2656   0.100E+00    0.347E-02
RMM:   2    -0.317739874533E+02   -0.10092E-02   -0.56246E-03  1618   0.295E-01
   1242 T=   738. E= -.27771765E+02 F= -.31773987E+02 E0= -.31742407E+02  EK= 0.24787E+01 SP= 0.15E+01 SK= 0.49E-01 mag=      0.066
       N       E                     dE             d eps       ncg     rms          rms(c)
DAV:   1    -0.318169076210E+02   -0.43929E-01   -0.15596E-02  2640   0.992E-01    0.506E-02
RMM:   2    -0.318180420684E+02   -0.11344E-02   -0.47440E-03  1553   0.281E-01
   1243 T=   731. E= -.27767408E+02 F= -.31818042E+02 E0= -.31786198E+02  EK= 0.24556E+01 SP= 0.16E+01 SK= 0.42E-01 mag=      0.110
       N       E                     dE             d eps       ncg     rms          rms(c)
DAV:   1    -0.318632103822E+02   -0.46303E-01   -0.13362E-02  2336   0.102E+00    0.436E-02
RMM:   2    -0.318642586326E+02   -0.10483E-02   -0.48238E-03  1574   0.280E-01
   1244 T=   726. E= -.27763074E+02 F= -.31864259E+02 E0= -.31832087E+02  EK= 0.24404E+01 SP= 0.16E+01 SK= 0.36E-01 mag=      0.049
       N       E                     dE             d eps       ncg     rms          rms(c)
DAV:   1    -0.319111024741E+02   -0.47892E-01   -0.14219E-02  2680   0.993E-01    0.351E-02
RMM:   2    -0.319120028899E+02   -0.90042E-03   -0.48717E-03  1561   0.294E-01
   1245 T=   724. E= -.27758732E+02 F= -.31912003E+02 E0= -.31879429E+02  EK= 0.24326E+01 SP= 0.17E+01 SK= 0.30E-01 mag=     -0.067
       N       E                     dE             d eps       ncg     rms          rms(c)
DAV:   1    -0.319588209529E+02   -0.47718E-01   -0.15868E-02  2744   0.101E+00    0.565E-02
RMM:   2    -0.319600776505E+02   -0.12567E-02   -0.49079E-03  1545   0.280E-01
   1246 T=   723. E= -.27754277E+02 F= -.31960078E+02 E0= -.31927101E+02  EK= 0.24311E+01 SP= 0.18E+01 SK= 0.24E-01 mag=     -0.120
       N       E                     dE             d eps       ncg     rms          rms(c)
DAV:   1    -0.320085765214E+02   -0.49756E-01   -0.13741E-02  2480   0.100E+00    0.459E-02
RMM:   2    -0.320095656019E+02   -0.98908E-03   -0.49870E-03  1586   0.285E-01
   1247 T=   725. E= -.27750561E+02 F= -.32009566E+02 E0= -.31976051E+02  EK= 0.24359E+01 SP= 0.18E+01 SK= 0.19E-01 mag=     -0.071
       N       E                     dE             d eps       ncg     rms          rms(c)
DAV:   1    -0.320579447560E+02   -0.49368E-01   -0.16114E-02  2576   0.998E-01    0.439E-02
RMM:   2    -0.320589366884E+02   -0.99193E-03   -0.49934E-03  1559   0.290E-01
   1248 T=   728. E= -.27746351E+02 F= -.32058937E+02 E0= -.32024858E+02  EK= 0.24467E+01 SP= 0.19E+01 SK= 0.15E-01 mag=      0.049
       N       E                     dE             d eps       ncg     rms          rms(c)
DAV:   1    -0.321067127040E+02   -0.48768E-01   -0.12017E-02  2592   0.101E+00    0.543E-02
RMM:   2    -0.321079866120E+02   -0.12739E-02   -0.55988E-03  1594   0.288E-01
   1249 T=   733. E= -.27741748E+02 F= -.32107987E+02 E0= -.32073323E+02  EK= 0.24628E+01 SP= 0.19E+01 SK= 0.11E-01 mag=      0.133
       N       E                     dE             d eps       ncg     rms          rms(c)
DAV:   1    -0.321562172329E+02   -0.49505E-01   -0.16232E-02  2488   0.103E+00    0.469E-02
RMM:   2    -0.321572958638E+02   -0.10786E-02   -0.51393E-03  1566   0.307E-01
   1250 T=   739. E= -.27737459E+02 F= -.32157296E+02 E0= -.32121915E+02  EK= 0.24836E+01 SP= 0.19E+01 SK= 0.82E-02 mag=      0.110
       N       E                     dE             d eps       ncg     rms          rms(c)
DAV:   1    -0.322046938873E+02   -0.48477E-01   -0.15166E-02  2536   0.102E+00    0.401E-02
RMM:   2    -0.322056941703E+02   -0.10003E-02   -0.49785E-03  1547   0.288E-01
   1251 T=   746. E= -.27733078E+02 F= -.32205694E+02 E0= -.32169527E+02  EK= 0.25081E+01 SP= 0.20E+01 SK= 0.60E-02 mag=     -0.012
       N       E                     dE             d eps       ncg     rms          rms(c)
DAV:   1    -0.322511959132E+02   -0.46502E-01   -0.13909E-02  2592   0.102E+00    0.560E-02
RMM:   2    -0.322524566977E+02   -0.12608E-02   -0.57121E-03  1606   0.294E-01
   1252 T=   754. E= -.27727966E+02 F= -.32252457E+02 E0= -.32215587E+02  EK= 0.25355E+01 SP= 0.20E+01 SK= 0.44E-02 mag=     -0.147
       N       E                     dE             d eps       ncg     rms          rms(c)
DAV:   1    -0.322965506059E+02   -0.45355E-01   -0.17916E-02  2632   0.101E+00    0.582E-02
RMM:   2    -0.322979921581E+02   -0.14416E-02   -0.59654E-03  1603   0.299E-01    0.450E-02
RMM:   3    -0.322987248441E+02   -0.73269E-03   -0.20995E-03  1453   0.120E-01
   1253 T=   763. E= -.27724790E+02 F= -.32298725E+02 E0= -.32260928E+02  EK= 0.25638E+01 SP= 0.20E+01 SK= 0.33E-02 mag=     -0.054
       N       E                     dE             d eps       ncg     rms          rms(c)
DAV:   1    -0.323405710274E+02   -0.42579E-01   -0.19918E-02  2552   0.103E+00    0.711E-02
RMM:   2    -0.323420406618E+02   -0.14696E-02   -0.35183E-03  1426   0.245E-01    0.533E-02
RMM:   3    -0.323425904513E+02   -0.54979E-03   -0.97266E-04  1311   0.897E-02
   1254 T=   771. E= -.27721176E+02 F= -.32342590E+02 E0= -.32303935E+02  EK= 0.25928E+01 SP= 0.20E+01 SK= 0.25E-02 mag=      0.069
       N       E                     dE             d eps       ncg     rms          rms(c)
DAV:   1    -0.323841654979E+02   -0.42125E-01   -0.36341E-02  2560   0.101E+00    0.476E-02
RMM:   2    -0.323850180961E+02   -0.85260E-03   -0.42020E-03  1532   0.266E-01
   1255 T=   781. E= -.27716717E+02 F= -.32385018E+02 E0= -.32345400E+02  EK= 0.26233E+01 SP= 0.20E+01 SK= 0.19E-02 mag=      0.134
       N       E                     dE             d eps       ncg     rms          rms(c)
DAV:   1    -0.324243575447E+02   -0.40192E-01   -0.27681E-02  2808   0.103E+00    0.353E-02
RMM:   2    -0.324251478612E+02   -0.79032E-03   -0.42687E-03  1522   0.264E-01
   1256 T=   789. E= -.27714104E+02 F= -.32425148E+02 E0= -.32384511E+02  EK= 0.26511E+01 SP= 0.21E+01 SK= 0.16E-02 mag=      0.085
       N       E                     dE             d eps       ncg     rms          rms(c)
DAV:   1    -0.324621483265E+02   -0.37791E-01   -0.12462E-02  2600   0.103E+00    0.337E-02
RMM:   2    -0.324628938218E+02   -0.74550E-03   -0.40139E-03  1549   0.278E-01
   1257 T=   797. E= -.27710636E+02 F= -.32462894E+02 E0= -.32421266E+02  EK= 0.26781E+01 SP= 0.21E+01 SK= 0.15E-02 mag=     -0.048
       N       E                     dE             d eps       ncg     rms          rms(c)
DAV:   1    -0.324967854608E+02   -0.34637E-01   -0.14986E-02  2608   0.108E+00    0.437E-02
RMM:   2    -0.324977885667E+02   -0.10031E-02   -0.48301E-03  1580   0.269E-01
   1258 T=   805. E= -.27705362E+02 F= -.32497789E+02 E0= -.32455339E+02  EK= 0.27042E+01 SP= 0.21E+01 SK= 0.15E-02 mag=     -0.156
       N       E                     dE             d eps       ncg     rms          rms(c)
DAV:   1    -0.325297773646E+02   -0.32992E-01   -0.10106E-02  2448   0.101E+00    0.424E-02
RMM:   2    -0.325306601567E+02   -0.88279E-03   -0.42886E-03  1543   0.284E-01
   1259 T=   811. E= -.27700936E+02 F= -.32530660E+02 E0= -.32487223E+02  EK= 0.27269E+01 SP= 0.21E+01 SK= 0.17E-02 mag=     -0.162
       N       E                     dE             d eps       ncg     rms          rms(c)
DAV:   1    -0.325604935514E+02   -0.30716E-01   -0.12553E-02  2536   0.107E+00    0.297E-02
RMM:   2    -0.325612282802E+02   -0.73473E-03   -0.38951E-03  1535   0.262E-01
   1260 T=   817. E= -.27696306E+02 F= -.32561228E+02 E0= -.32516680E+02  EK= 0.27464E+01 SP= 0.21E+01 SK= 0.20E-02 mag=     -0.047
       N       E                     dE             d eps       ncg     rms          rms(c)
DAV:   1    -0.325876858413E+02   -0.27192E-01   -0.11642E-02  2496   0.104E+00    0.372E-02
RMM:   2    -0.325886438296E+02   -0.95799E-03   -0.51287E-03  1602   0.289E-01
   1261 T=   822. E= -.27690953E+02 F= -.32588644E+02 E0= -.32543281E+02  EK= 0.27620E+01 SP= 0.21E+01 SK= 0.24E-02 mag=      0.138
       N       E                     dE             d eps       ncg     rms          rms(c)
DAV:   1    -0.326118250487E+02   -0.24139E-01   -0.16806E-02  2760   0.105E+00    0.594E-02
RMM:   2    -0.326131683277E+02   -0.13433E-02   -0.50166E-03  1549   0.285E-01
   1262 T=   825. E= -.27685005E+02 F= -.32613168E+02 E0= -.32567268E+02  EK= 0.27732E+01 SP= 0.22E+01 SK= 0.29E-02 mag=      0.229
       N       E                     dE             d eps       ncg     rms          rms(c)
DAV:   1    -0.326359268250E+02   -0.24102E-01   -0.15519E-02  2632   0.108E+00    0.467E-02
RMM:   2    -0.326368971727E+02   -0.97035E-03   -0.55367E-03  1597   0.309E-01
   1263 T=   827. E= -.27680068E+02 F= -.32636897E+02 E0= -.32589783E+02  EK= 0.27805E+01 SP= 0.22E+01 SK= 0.36E-02 mag=      0.165
       N       E                     dE             d eps       ncg     rms          rms(c)
DAV:   1    -0.326562747712E+02   -0.20348E-01   -0.22072E-02  2776   0.105E+00    0.446E-02
RMM:   2    -0.326573108849E+02   -0.10361E-02   -0.57027E-03  1568   0.302E-01
   1264 T=   828. E= -.27673870E+02 F= -.32657311E+02 E0= -.32609339E+02  EK= 0.27833E+01 SP= 0.22E+01 SK= 0.44E-02 mag=     -0.042
       N       E                     dE             d eps       ncg     rms          rms(c)
DAV:   1    -0.326730048480E+02   -0.16730E-01   -0.13762E-02  2256   0.105E+00    0.626E-02
RMM:   2    -0.326744972056E+02   -0.14924E-02   -0.52815E-03  1551   0.294E-01    0.514E-02
RMM:   3    -0.326751686972E+02   -0.67149E-03   -0.17537E-03  1468   0.118E-01
   1265 T=   827. E= -.27669208E+02 F= -.32675169E+02 E0= -.32626769E+02  EK= 0.27796E+01 SP= 0.22E+01 SK= 0.53E-02 mag=     -0.123
       N       E                     dE             d eps       ncg     rms          rms(c)
DAV:   1    -0.326908258157E+02   -0.16329E-01   -0.28011E-02  2552   0.104E+00    0.528E-02
RMM:   2    -0.326919267607E+02   -0.11009E-02   -0.39444E-03  1442   0.268E-01
   1266 T=   825. E= -.27663071E+02 F= -.32691927E+02 E0= -.32642559E+02  EK= 0.27741E+01 SP= 0.22E+01 SK= 0.62E-02 mag=     -0.052
       N       E                     dE             d eps       ncg     rms          rms(c)
DAV:   1    -0.327033396780E+02   -0.12514E-01   -0.37964E-02  3032   0.111E+00    0.749E-02
RMM:   2    -0.327051161847E+02   -0.17765E-02   -0.55503E-03  1564   0.254E-01    0.571E-02
RMM:   3    -0.327065809578E+02   -0.14648E-02   -0.30059E-03  1401   0.115E-01    0.367E-02
RMM:   4    -0.327071193199E+02   -0.53836E-03   -0.14744E-03  1398   0.783E-02
   1267 T=   822. E= -.27658374E+02 F= -.32707119E+02 E0= -.32657044E+02  EK= 0.27634E+01 SP= 0.23E+01 SK= 0.71E-02 mag=      0.029
       N       E                     dE             d eps       ncg     rms          rms(c)
DAV:   1    -0.327164501744E+02   -0.98692E-02   -0.28913E-02  2568   0.986E-01    0.784E-02
RMM:   2    -0.327183594423E+02   -0.19093E-02   -0.59336E-03  1430   0.239E-01    0.601E-02
RMM:   3    -0.327197535789E+02   -0.13941E-02   -0.33140E-03  1400   0.107E-01    0.370E-02
RMM:   4    -0.327202951935E+02   -0.54161E-03   -0.14738E-03  1396   0.734E-02
   1268 T=   817. E= -.27656984E+02 F= -.32720295E+02 E0= -.32669701E+02  EK= 0.27457E+01 SP= 0.23E+01 SK= 0.78E-02 mag=      0.023
       N       E                     dE             d eps       ncg     rms          rms(c)
DAV:   1    -0.327310351866E+02   -0.11282E-01   -0.15021E-02  2752   0.106E+00    0.473E-02
RMM:   2    -0.327318862309E+02   -0.85104E-03   -0.36681E-03  1448   0.235E-01
   1269 T=   812. E= -.27652645E+02 F= -.32731886E+02 E0= -.32680837E+02  EK= 0.27281E+01 SP= 0.23E+01 SK= 0.84E-02 mag=     -0.042
       N       E                     dE             d eps       ncg     rms          rms(c)
DAV:   1    -0.327416939085E+02   -0.10659E-01   -0.14630E-02  2760   0.103E+00    0.344E-02
RMM:   2    -0.327425054548E+02   -0.81155E-03   -0.40039E-03  1524   0.259E-01
   1270 T=   806. E= -.27648481E+02 F= -.32742505E+02 E0= -.32691121E+02  EK= 0.27086E+01 SP= 0.24E+01 SK= 0.88E-02 mag=     -0.121
       N       E                     dE             d eps       ncg     rms          rms(c)
DAV:   1    -0.327511680609E+02   -0.94742E-02   -0.11291E-02  2368   0.104E+00    0.381E-02
RMM:   2    -0.327520198621E+02   -0.85180E-03   -0.38435E-03  1521   0.267E-01
   1271 T=   800. E= -.27644147E+02 F= -.32752020E+02 E0= -.32700453E+02  EK= 0.26879E+01 SP= 0.24E+01 SK= 0.89E-02 mag=     -0.153
       N       E                     dE             d eps       ncg     rms          rms(c)
DAV:   1    -0.327599366894E+02   -0.87686E-02   -0.13724E-02  2608   0.108E+00    0.443E-02
RMM:   2    -0.327609157209E+02   -0.97903E-03   -0.45529E-03  1538   0.287E-01
   1272 T=   794. E= -.27637999E+02 F= -.32760916E+02 E0= -.32709084E+02  EK= 0.26687E+01 SP= 0.24E+01 SK= 0.88E-02 mag=     -0.107
       N       E                     dE             d eps       ncg     rms          rms(c)
DAV:   1    -0.327684944219E+02   -0.85577E-02   -0.10133E-02  2528   0.101E+00    0.316E-02
RMM:   2    -0.327693613404E+02   -0.86692E-03   -0.45045E-03  1530   0.300E-01
   1273 T=   788. E= -.27632359E+02 F= -.32769361E+02 E0= -.32717211E+02  EK= 0.26493E+01 SP= 0.25E+01 SK= 0.84E-02 mag=      0.009
       N       E                     dE             d eps       ncg     rms          rms(c)
DAV:   1    -0.327759824366E+02   -0.74880E-02   -0.12275E-02  2312   0.105E+00    0.327E-02
RMM:   2    -0.327767755469E+02   -0.79311E-03   -0.42158E-03  1533   0.284E-01
   1274 T=   783. E= -.27626141E+02 F= -.32776776E+02 E0= -.32724621E+02  EK= 0.26306E+01 SP= 0.25E+01 SK= 0.78E-02 mag=      0.151
       N       E                     dE             d eps       ncg     rms          rms(c)
DAV:   1    -0.327814023486E+02   -0.54199E-02   -0.13699E-02  2512   0.103E+00    0.533E-02
RMM:   2    -0.327826011167E+02   -0.11988E-02   -0.47872E-03  1526   0.292E-01
   1275 T=   778. E= -.27618481E+02 F= -.32782601E+02 E0= -.32730789E+02  EK= 0.26134E+01 SP= 0.25E+01 SK= 0.70E-02 mag=      0.212
       N       E                     dE             d eps       ncg     rms          rms(c)
DAV:   1    -0.327880946002E+02   -0.66923E-02   -0.14634E-02  2648   0.107E+00    0.484E-02
RMM:   2    -0.327890601402E+02   -0.96554E-03   -0.46702E-03  1535   0.302E-01
   1276 T=   773. E= -.27612059E+02 F= -.32789060E+02 E0= -.32736934E+02  EK= 0.25975E+01 SP= 0.26E+01 SK= 0.61E-02 mag=      0.147
       N       E                     dE             d eps       ncg     rms          rms(c)
DAV:   1    -0.327937571680E+02   -0.56626E-02   -0.16206E-02  2368   0.101E+00    0.309E-02
RMM:   2    -0.327945875476E+02   -0.83038E-03   -0.48498E-03  1556   0.306E-01
   1277 T=   769. E= -.27605909E+02 F= -.32794588E+02 E0= -.32742267E+02  EK= 0.25828E+01 SP= 0.26E+01 SK= 0.51E-02 mag=     -0.034
       N       E                     dE             d eps       ncg     rms          rms(c)
DAV:   1    -0.327966582070E+02   -0.29010E-02   -0.14708E-02  2504   0.104E+00    0.501E-02
RMM:   2    -0.327978429648E+02   -0.11848E-02   -0.54425E-03  1569   0.296E-01
   1278 T=   765. E= -.27598644E+02 F= -.32797843E+02 E0= -.32746094E+02  EK= 0.25696E+01 SP= 0.26E+01 SK= 0.41E-02 mag=     -0.240
       N       E                     dE             d eps       ncg     rms          rms(c)
DAV:   1    -0.327982649941E+02   -0.16068E-02   -0.15662E-02  2608   0.105E+00    0.709E-02
RMM:   2    -0.327999030546E+02   -0.16381E-02   -0.58436E-03  1603   0.314E-01    0.563E-02
RMM:   3    -0.328010018434E+02   -0.10988E-02   -0.24499E-03  1411   0.127E-01
   1279 T=   761. E= -.27593481E+02 F= -.32801002E+02 E0= -.32749402E+02  EK= 0.25571E+01 SP= 0.26E+01 SK= 0.31E-02 mag=     -0.152
       N       E                     dE             d eps       ncg     rms          rms(c)
DAV:   1    -0.328017146488E+02   -0.18116E-02   -0.29459E-02  2584   0.102E+00    0.590E-02
RMM:   2    -0.328029772389E+02   -0.12626E-02   -0.38336E-03  1451   0.255E-01
   1280 T=   758. E= -.27587194E+02 F= -.32802977E+02 E0= -.32751275E+02  EK= 0.25477E+01 SP= 0.27E+01 SK= 0.21E-02 mag=      0.172
       N       E                     dE             d eps       ncg     rms          rms(c)
DAV:   1    -0.327966560931E+02    0.50586E-02   -0.37162E-02  2736   0.109E+00    0.119E-01
RMM:   2    -0.327996430784E+02   -0.29870E-02   -0.60150E-03  1534   0.270E-01    0.923E-02
RMM:   3    -0.328030253429E+02   -0.33823E-02   -0.51934E-03  1400   0.138E-01    0.544E-02
RMM:   4    -0.328042349333E+02   -0.12096E-02   -0.26188E-03  1400   0.105E-01
   1281 T=   755. E= -.27582823E+02 F= -.32804235E+02 E0= -.32752508E+02  EK= 0.25391E+01 SP= 0.27E+01 SK= 0.13E-02 mag=      0.088
       N       E                     dE             d eps       ncg     rms          rms(c)
DAV:   1    -0.327971550296E+02    0.58703E-02   -0.34886E-02  2560   0.985E-01    0.113E-01
RMM:   2    -0.328000293556E+02   -0.28743E-02   -0.72363E-03  1428   0.252E-01    0.862E-02
RMM:   3    -0.328025402031E+02   -0.25108E-02   -0.48069E-03  1400   0.116E-01    0.508E-02
RMM:   4    -0.328035272719E+02   -0.98707E-03   -0.22076E-03  1400   0.852E-02
   1282 T=   753. E= -.27581232E+02 F= -.32803527E+02 E0= -.32751882E+02  EK= 0.25292E+01 SP= 0.27E+01 SK= 0.67E-03 mag=     -0.098
       N       E                     dE             d eps       ncg     rms          rms(c)
DAV:   1    -0.327993478132E+02    0.31924E-02   -0.22626E-02  2560   0.108E+00    0.762E-02
RMM:   2    -0.328005887438E+02   -0.12409E-02   -0.43953E-03  1488   0.258E-01
   1283 T=   751. E= -.27576084E+02 F= -.32800589E+02 E0= -.32749455E+02  EK= 0.25243E+01 SP= 0.27E+01 SK= 0.22E-03 mag=     -0.250
       N       E                     dE             d eps       ncg     rms          rms(c)
DAV:   1    -0.327957945199E+02    0.35533E-02   -0.21530E-02  2736   0.102E+00    0.621E-02
RMM:   2    -0.327969553198E+02   -0.11608E-02   -0.42580E-03  1544   0.266E-01
   1284 T=   750. E= -.27572137E+02 F= -.32796955E+02 E0= -.32745944E+02  EK= 0.25214E+01 SP= 0.27E+01 SK= 0.14E-04 mag=     -0.267
       N       E                     dE             d eps       ncg     rms          rms(c)
DAV:   1    -0.327908833482E+02    0.49112E-02   -0.14014E-02  2528   0.103E+00    0.497E-02
RMM:   2    -0.327919456162E+02   -0.10623E-02   -0.43157E-03  1542   0.279E-01
   1285 T=   750. E= -.27569281E+02 F= -.32791946E+02 E0= -.32740751E+02  EK= 0.25199E+01 SP= 0.27E+01 SK= 0.58E-04 mag=     -0.099
       N       E                     dE             d eps       ncg     rms          rms(c)
DAV:   1    -0.327838867905E+02    0.69966E-02   -0.16294E-02  2576   0.107E+00    0.584E-02
RMM:   2    -0.327849826515E+02   -0.10959E-02   -0.45375E-03  1548   0.277E-01
   1286 T=   750. E= -.27564629E+02 F= -.32784983E+02 E0= -.32733973E+02  EK= 0.25222E+01 SP= 0.27E+01 SK= 0.36E-03 mag=      0.186
       N       E                     dE             d eps       ncg     rms          rms(c)
DAV:   1    -0.327737264193E+02    0.10160E-01   -0.12987E-02  2488   0.102E+00    0.756E-02
RMM:   2    -0.327753681631E+02   -0.16417E-02   -0.52018E-03  1546   0.299E-01    0.596E-02
RMM:   3    -0.327763615896E+02   -0.99343E-03   -0.20072E-03  1438   0.117E-01
   1287 T=   752. E= -.27560739E+02 F= -.32776362E+02 E0= -.32725792E+02  EK= 0.25259E+01 SP= 0.27E+01 SK= 0.91E-03 mag=      0.190
       N       E                     dE             d eps       ncg     rms          rms(c)
DAV:   1    -0.327654022292E+02    0.99659E-02   -0.20088E-02  2584   0.105E+00    0.629E-02
RMM:   2    -0.327667348141E+02   -0.13326E-02   -0.41594E-03  1471   0.264E-01
   1288 T=   754. E= -.27554893E+02 F= -.32766735E+02 E0= -.32715701E+02  EK= 0.25343E+01 SP= 0.27E+01 SK= 0.17E-02 mag=     -0.053
       N       E                     dE             d eps       ncg     rms          rms(c)
DAV:   1    -0.327522398668E+02    0.13162E-01   -0.33649E-02  2864   0.111E+00    0.818E-02
RMM:   2    -0.327540975994E+02   -0.18577E-02   -0.49747E-03  1573   0.265E-01    0.654E-02
RMM:   3    -0.327550349957E+02   -0.93740E-03   -0.15051E-03  1447   0.104E-01
   1289 T=   757. E= -.27549306E+02 F= -.32755035E+02 E0= -.32704560E+02  EK= 0.25441E+01 SP= 0.27E+01 SK= 0.26E-02 mag=     -0.188
       N       E                     dE             d eps       ncg     rms          rms(c)
DAV:   1    -0.327414887860E+02    0.12609E-01   -0.23685E-02  2576   0.101E+00    0.781E-02
RMM:   2    -0.327429017073E+02   -0.14129E-02   -0.45896E-03  1447   0.249E-01    0.531E-02
RMM:   3    -0.327433995994E+02   -0.49789E-03   -0.12354E-03  1396   0.999E-02
   1290 T=   760. E= -.27548068E+02 F= -.32743400E+02 E0= -.32692475E+02  EK= 0.25530E+01 SP= 0.26E+01 SK= 0.37E-02 mag=     -0.096
       N       E                     dE             d eps       ncg     rms          rms(c)
DAV:   1    -0.327284140135E+02    0.14488E-01   -0.35875E-02  2680   0.109E+00    0.584E-02
RMM:   2    -0.327295265337E+02   -0.11125E-02   -0.44859E-03  1551   0.284E-01
   1291 T=   764. E= -.27543744E+02 F= -.32729527E+02 E0= -.32678638E+02  EK= 0.25660E+01 SP= 0.26E+01 SK= 0.48E-02 mag=      0.161
       N       E                     dE             d eps       ncg     rms          rms(c)
DAV:   1    -0.327117835743E+02    0.16630E-01   -0.31984E-02  2880   0.106E+00    0.856E-02
RMM:   2    -0.327134516011E+02   -0.16680E-02   -0.46477E-03  1559   0.260E-01    0.629E-02
RMM:   3    -0.327143689085E+02   -0.91731E-03   -0.14749E-03  1470   0.108E-01
   1292 T=   768. E= -.27540417E+02 F= -.32714369E+02 E0= -.32663905E+02  EK= 0.25797E+01 SP= 0.26E+01 SK= 0.59E-02 mag=      0.192
       N       E                     dE             d eps       ncg     rms          rms(c)
DAV:   1    -0.326984056646E+02    0.15046E-01   -0.26837E-02  2576   0.104E+00    0.706E-02
RMM:   2    -0.326995095097E+02   -0.11038E-02   -0.36386E-03  1472   0.240E-01
   1293 T=   772. E= -.27537476E+02 F= -.32699510E+02 E0= -.32648454E+02  EK= 0.25962E+01 SP= 0.26E+01 SK= 0.70E-02 mag=      0.007
       N       E                     dE             d eps       ncg     rms          rms(c)
DAV:   1    -0.326795789705E+02    0.18827E-01   -0.34879E-02  2976   0.112E+00    0.898E-02
RMM:   2    -0.326817229089E+02   -0.21439E-02   -0.52544E-03  1560   0.254E-01    0.678E-02
RMM:   3    -0.326831641777E+02   -0.14413E-02   -0.23546E-03  1406   0.114E-01    0.490E-02
RMM:   4    -0.326840939419E+02   -0.92976E-03   -0.17572E-03  1400   0.855E-02
   1294 T=   778. E= -.27534278E+02 F= -.32684094E+02 E0= -.32632973E+02  EK= 0.26147E+01 SP= 0.25E+01 SK= 0.80E-02 mag=     -0.059
       N       E                     dE             d eps       ncg     rms          rms(c)
DAV:   1    -0.326637406878E+02    0.19423E-01   -0.28209E-02  2336   0.102E+00    0.976E-02
RMM:   2    -0.326658368276E+02   -0.20961E-02   -0.53810E-03  1522   0.267E-01    0.699E-02
RMM:   3    -0.326671058453E+02   -0.12690E-02   -0.24242E-03  1400   0.117E-01
   1295 T=   784. E= -.27531019E+02 F= -.32667106E+02 E0= -.32616061E+02  EK= 0.26337E+01 SP= 0.25E+01 SK= 0.88E-02 mag=     -0.035
       N       E                     dE             d eps       ncg     rms          rms(c)
DAV:   1    -0.326496925153E+02    0.16144E-01   -0.35918E-02  2800   0.109E+00    0.715E-02
RMM:   2    -0.326508519120E+02   -0.11594E-02   -0.40969E-03  1521   0.263E-01
   1296 T=   790. E= -.27527381E+02 F= -.32650852E+02 E0= -.32599782E+02  EK= 0.26553E+01 SP= 0.25E+01 SK= 0.94E-02 mag=      0.055
       N       E                     dE             d eps       ncg     rms          rms(c)
DAV:   1    -0.326332491244E+02    0.16443E-01   -0.28428E-02  2808   0.110E+00    0.482E-02
RMM:   2    -0.326343501327E+02   -0.11010E-02   -0.42974E-03  1571   0.258E-01
   1297 T=   796. E= -.27526128E+02 F= -.32634350E+02 E0= -.32583388E+02  EK= 0.26755E+01 SP= 0.24E+01 SK= 0.97E-02 mag=      0.170
       N       E                     dE             d eps       ncg     rms          rms(c)
DAV:   1    -0.326159310394E+02    0.17318E-01   -0.20913E-02  2672   0.102E+00    0.681E-02
RMM:   2    -0.326173349839E+02   -0.14039E-02   -0.45905E-03  1567   0.275E-01    0.485E-02
RMM:   3    -0.326177562627E+02   -0.42128E-03   -0.13866E-03  1487   0.108E-01
   1298 T=   802. E= -.27524943E+02 F= -.32617756E+02 E0= -.32566980E+02  EK= 0.26961E+01 SP= 0.24E+01 SK= 0.97E-02 mag=      0.156
       N       E                     dE             d eps       ncg     rms          rms(c)
DAV:   1    -0.326009013750E+02    0.16434E-01   -0.20285E-02  2784   0.108E+00    0.470E-02
RMM:   2    -0.326019212004E+02   -0.10198E-02   -0.32006E-03  1501   0.244E-01
   1299 T=   809. E= -.27520766E+02 F= -.32601921E+02 E0= -.32550892E+02  EK= 0.27205E+01 SP= 0.24E+01 SK= 0.95E-02 mag=      0.007
       N       E                     dE             d eps       ncg     rms          rms(c)
DAV:   1    -0.325842193287E+02    0.16682E-01   -0.23065E-02  2864   0.110E+00    0.522E-02
RMM:   2    -0.325854546545E+02   -0.12353E-02   -0.40399E-03  1552   0.238E-01
   1300 T=   816. E= -.27516864E+02 F= -.32585455E+02 E0= -.32534899E+02  EK= 0.27436E+01 SP= 0.23E+01 SK= 0.89E-02 mag=     -0.209
       N       E                     dE             d eps       ncg     rms          rms(c)
DAV:   1    -0.325675258704E+02    0.16693E-01   -0.14906E-02  2096   0.100E+00    0.671E-02
RMM:   2    -0.325690852768E+02   -0.15594E-02   -0.43503E-03  1574   0.268E-01    0.518E-02
RMM:   3    -0.325700299733E+02   -0.94470E-03   -0.19799E-03  1400   0.117E-01
   1301 T=   822. E= -.27515540E+02 F= -.32570030E+02 E0= -.32519736E+02  EK= 0.27640E+01 SP= 0.23E+01 SK= 0.81E-02 mag=     -0.156
       N       E                     dE             d eps       ncg     rms          rms(c)
DAV:   1    -0.325533841245E+02    0.15701E-01   -0.26241E-02  2808   0.108E+00    0.607E-02
RMM:   2    -0.325549332154E+02   -0.15491E-02   -0.51451E-03  1591   0.264E-01    0.448E-02
RMM:   3    -0.325552732229E+02   -0.34001E-03   -0.98852E-04  1189   0.968E-02
   1302 T=   829. E= -.27512866E+02 F= -.32555273E+02 E0= -.32504736E+02  EK= 0.27848E+01 SP= 0.23E+01 SK= 0.71E-02 mag=      0.084
       N       E                     dE             d eps       ncg     rms          rms(c)
DAV:   1    -0.325378036021E+02    0.17130E-01   -0.32677E-02  2696   0.107E+00    0.686E-02
RMM:   2    -0.325393547498E+02   -0.15511E-02   -0.47356E-03  1582   0.261E-01    0.536E-02
RMM:   3    -0.325399001029E+02   -0.54535E-03   -0.12009E-03  1423   0.107E-01
   1303 T=   834. E= -.27508991E+02 F= -.32539900E+02 E0= -.32490203E+02  EK= 0.28039E+01 SP= 0.22E+01 SK= 0.59E-02 mag=      0.240
       N       E                     dE             d eps       ncg     rms          rms(c)
DAV:   1    -0.325251180292E+02    0.14237E-01   -0.21556E-02  2832   0.111E+00    0.531E-02
RMM:   2    -0.325261684648E+02   -0.10504E-02   -0.35546E-03  1575   0.253E-01
   1304 T=   840. E= -.27505537E+02 F= -.32526168E+02 E0= -.32476176E+02  EK= 0.28215E+01 SP= 0.22E+01 SK= 0.47E-02 mag=      0.211
       N       E                     dE             d eps       ncg     rms          rms(c)
DAV:   1    -0.325112801973E+02    0.13838E-01   -0.23607E-02  2944   0.107E+00    0.396E-02
RMM:   2    -0.325124676193E+02   -0.11874E-02   -0.43499E-03  1577   0.249E-01
   1305 T=   843. E= -.27503054E+02 F= -.32512468E+02 E0= -.32462402E+02  EK= 0.28348E+01 SP= 0.22E+01 SK= 0.35E-02 mag=     -0.010
       N       E                     dE             d eps       ncg     rms          rms(c)
DAV:   1    -0.324964409097E+02    0.14839E-01   -0.15492E-02  2312   0.104E+00    0.621E-02
RMM:   2    -0.324980124773E+02   -0.15716E-02   -0.43106E-03  1567   0.268E-01    0.475E-02
RMM:   3    -0.324987253528E+02   -0.71288E-03   -0.16364E-03  1467   0.112E-01
   1306 T=   846. E= -.27501412E+02 F= -.32498725E+02 E0= -.32449275E+02  EK= 0.28435E+01 SP= 0.22E+01 SK= 0.24E-02 mag=     -0.173
       N       E                     dE             d eps       ncg     rms          rms(c)
DAV:   1    -0.324840327784E+02    0.13980E-01   -0.24696E-02  2704   0.109E+00    0.490E-02
RMM:   2    -0.324853756923E+02   -0.13429E-02   -0.37062E-03  1481   0.251E-01
   1307 T=   849. E= -.27496247E+02 F= -.32485376E+02 E0= -.32436024E+02  EK= 0.28522E+01 SP= 0.21E+01 SK= 0.15E-02 mag=     -0.178
       N       E                     dE             d eps       ncg     rms          rms(c)
DAV:   1    -0.324709768327E+02    0.13056E-01   -0.28687E-02  3032   0.114E+00    0.481E-02
RMM:   2    -0.324723711281E+02   -0.13943E-02   -0.42377E-03  1565   0.240E-01    0.364E-02
RMM:   3    -0.324727978766E+02   -0.42675E-03   -0.11639E-03  1390   0.941E-02
   1308 T=   850. E= -.27492908E+02 F= -.32472798E+02 E0= -.32423398E+02  EK= 0.28556E+01 SP= 0.21E+01 SK= 0.73E-03 mag=      0.004
       N       E                     dE             d eps       ncg     rms          rms(c)
DAV:   1    -0.324580269437E+02    0.14344E-01   -0.17611E-02  2200   0.102E+00    0.518E-02
RMM:   2    -0.324592874016E+02   -0.12605E-02   -0.38720E-03  1540   0.243E-01
   1309 T=   849. E= -.27488289E+02 F= -.32459287E+02 E0= -.32410551E+02  EK= 0.28550E+01 SP= 0.21E+01 SK= 0.25E-03 mag=      0.271
       N       E                     dE             d eps       ncg     rms          rms(c)
DAV:   1    -0.324426033392E+02    0.15424E-01   -0.34240E-02  3080   0.117E+00    0.819E-02
RMM:   2    -0.324446986018E+02   -0.20953E-02   -0.49304E-03  1568   0.246E-01    0.651E-02
RMM:   3    -0.324461197439E+02   -0.14211E-02   -0.24125E-03  1402   0.111E-01    0.470E-02
RMM:   4    -0.324470533848E+02   -0.93364E-03   -0.21503E-03  1404   0.856E-02
   1310 T=   848. E= -.27484833E+02 F= -.32447053E+02 E0= -.32398118E+02  EK= 0.28501E+01 SP= 0.21E+01 SK= 0.21E-04 mag=      0.070
       N       E                     dE             d eps       ncg     rms          rms(c)
DAV:   1    -0.324295491951E+02    0.16571E-01   -0.20395E-02  2432   0.101E+00    0.885E-02
RMM:   2    -0.324317359456E+02   -0.21868E-02   -0.47693E-03  1543   0.259E-01    0.664E-02
RMM:   3    -0.324329512944E+02   -0.12153E-02   -0.21396E-03  1400   0.106E-01
   1311 T=   845. E= -.27480895E+02 F= -.32432951E+02 E0= -.32384799E+02  EK= 0.28396E+01 SP= 0.21E+01 SK= 0.36E-04 mag=     -0.250
       N       E                     dE             d eps       ncg     rms          rms(c)
DAV:   1    -0.324167623037E+02    0.14974E-01   -0.37969E-02  2848   0.111E+00    0.856E-02
RMM:   2    -0.324186417823E+02   -0.18795E-02   -0.44730E-03  1502   0.255E-01    0.682E-02
RMM:   3    -0.324194438046E+02   -0.80202E-03   -0.11163E-03  1349   0.991E-02
   1312 T=   841. E= -.27476804E+02 F= -.32419444E+02 E0= -.32371896E+02  EK= 0.28259E+01 SP= 0.21E+01 SK= 0.25E-03 mag=     -0.194
       N       E                     dE             d eps       ncg     rms          rms(c)
DAV:   1    -0.324056757192E+02    0.12966E-01   -0.25223E-02  2664   0.107E+00    0.623E-02
RMM:   2    -0.324069904272E+02   -0.13147E-02   -0.44719E-03  1573   0.271E-01
   1313 T=   836. E= -.27473862E+02 F= -.32406990E+02 E0= -.32358566E+02  EK= 0.28086E+01 SP= 0.21E+01 SK= 0.60E-03 mag=      0.153
       N       E                     dE             d eps       ncg     rms          rms(c)
DAV:   1    -0.323874589021E+02    0.18217E-01   -0.42814E-02  2920   0.112E+00    0.101E-01
RMM:   2    -0.323901335318E+02   -0.26746E-02   -0.62643E-03  1583   0.277E-01    0.809E-02
RMM:   3    -0.323915626052E+02   -0.14291E-02   -0.20603E-03  1481   0.114E-01    0.641E-02
RMM:   4    -0.323932535612E+02   -0.16910E-02   -0.27044E-03  1438   0.933E-02    0.297E-02
RMM:   5    -0.323935922784E+02   -0.33872E-03   -0.84305E-04  1357   0.617E-02
   1314 T=   829. E= -.27471304E+02 F= -.32393592E+02 E0= -.32345218E+02  EK= 0.27870E+01 SP= 0.21E+01 SK= 0.10E-02 mag=      0.055
       N       E                     dE             d eps       ncg     rms          rms(c)
DAV:   1    -0.323747907892E+02    0.18463E-01   -0.27655E-02  2528   0.103E+00    0.917E-02
RMM:   2    -0.323771002935E+02   -0.23095E-02   -0.53107E-03  1497   0.250E-01    0.713E-02
RMM:   3    -0.323782166101E+02   -0.11163E-02   -0.19220E-03  1400   0.977E-02
   1315 T=   822. E= -.27467514E+02 F= -.32378217E+02 E0= -.32330421E+02  EK= 0.27621E+01 SP= 0.21E+01 SK= 0.14E-02 mag=     -0.168
       N       E                     dE             d eps       ncg     rms          rms(c)
DAV:   1    -0.323622564237E+02    0.14844E-01   -0.30307E-02  2768   0.105E+00    0.752E-02
RMM:   2    -0.323636241992E+02   -0.13678E-02   -0.43032E-03  1578   0.268E-01    0.521E-02
RMM:   3    -0.323642800034E+02   -0.65580E-03   -0.13122E-03  1448   0.106E-01
   1316 T=   814. E= -.27464495E+02 F= -.32364280E+02 E0= -.32316710E+02  EK= 0.27363E+01 SP= 0.22E+01 SK= 0.17E-02 mag=     -0.196
       N       E                     dE             d eps       ncg     rms          rms(c)
DAV:   1    -0.323488512595E+02    0.14773E-01   -0.24169E-02  2760   0.104E+00    0.529E-02
RMM:   2    -0.323499011167E+02   -0.10499E-02   -0.40384E-03  1554   0.253E-01
   1317 T=   806. E= -.27461760E+02 F= -.32349901E+02 E0= -.32301872E+02  EK= 0.27086E+01 SP= 0.22E+01 SK= 0.19E-02 mag=     -0.026
       N       E                     dE             d eps       ncg     rms          rms(c)
DAV:   1    -0.323320829406E+02    0.16768E-01   -0.24997E-02  3032   0.108E+00    0.743E-02
RMM:   2    -0.323337944668E+02   -0.17115E-02   -0.47887E-03  1546   0.252E-01    0.557E-02
RMM:   3    -0.323349374034E+02   -0.11429E-02   -0.21923E-03  1419   0.111E-01
   1318 T=   797. E= -.27459448E+02 F= -.32334937E+02 E0= -.32287088E+02  EK= 0.26796E+01 SP= 0.22E+01 SK= 0.20E-02 mag=      0.082
       N       E                     dE             d eps       ncg     rms          rms(c)
DAV:   1    -0.323184451601E+02    0.15349E-01   -0.21282E-02  2632   0.103E+00    0.724E-02
RMM:   2    -0.323197837382E+02   -0.13386E-02   -0.36205E-03  1594   0.260E-01
   1319 T=   790. E= -.27454146E+02 F= -.32319784E+02 E0= -.32272015E+02  EK= 0.26538E+01 SP= 0.22E+01 SK= 0.18E-02 mag=      0.101
       N       E                     dE             d eps       ncg     rms          rms(c)
DAV:   1    -0.323007635687E+02    0.17682E-01   -0.36120E-02  3064   0.113E+00    0.947E-02
RMM:   2    -0.323030445277E+02   -0.22810E-02   -0.51198E-03  1541   0.248E-01    0.715E-02
RMM:   3    -0.323048527616E+02   -0.18082E-02   -0.28054E-03  1401   0.111E-01    0.478E-02
RMM:   4    -0.323057986649E+02   -0.94590E-03   -0.20652E-03  1407   0.876E-02
   1320 T=   782. E= -.27450064E+02 F= -.32305799E+02 E0= -.32257817E+02  EK= 0.26290E+01 SP= 0.22E+01 SK= 0.16E-02 mag=      0.040
       N       E                     dE             d eps       ncg     rms          rms(c)
DAV:   1    -0.322859660177E+02    0.18887E-01   -0.17518E-02  2368   0.101E+00    0.110E-01
RMM:   2    -0.322882603357E+02   -0.22943E-02   -0.47076E-03  1493   0.244E-01    0.796E-02
RMM:   3    -0.322898394310E+02   -0.15791E-02   -0.23372E-03  1400   0.107E-01    0.566E-02
RMM:   4    -0.322909000316E+02   -0.10606E-02   -0.15392E-03  1399   0.796E-02
   1321 T=   774. E= -.27448263E+02 F= -.32290900E+02 E0= -.32243004E+02  EK= 0.26025E+01 SP= 0.22E+01 SK= 0.12E-02 mag=     -0.054
       N       E                     dE             d eps       ncg     rms          rms(c)
DAV:   1    -0.322759321725E+02    0.13907E-01   -0.22034E-02  2952   0.107E+00    0.661E-02
RMM:   2    -0.322766654016E+02   -0.73323E-03   -0.30635E-03  1499   0.222E-01
   1322 T=   768. E= -.27445181E+02 F= -.32276665E+02 E0= -.32228798E+02  EK= 0.25802E+01 SP= 0.23E+01 SK= 0.80E-03 mag=     -0.122
       N       E                     dE             d eps       ncg     rms          rms(c)
DAV:   1    -0.322622465796E+02    0.13686E-01   -0.14764E-02  2928   0.104E+00    0.423E-02
RMM:   2    -0.322630511498E+02   -0.80457E-03   -0.40842E-03  1559   0.251E-01
   1323 T=   762. E= -.27443360E+02 F= -.32263051E+02 E0= -.32215105E+02  EK= 0.25598E+01 SP= 0.23E+01 SK= 0.41E-03 mag=     -0.117
       N       E                     dE             d eps       ncg     rms          rms(c)
DAV:   1    -0.322489372229E+02    0.13309E-01   -0.12708E-02  2456   0.104E+00    0.545E-02
RMM:   2    -0.322498969788E+02   -0.95976E-03   -0.40181E-03  1534   0.265E-01
   1324 T=   757. E= -.27440523E+02 F= -.32249897E+02 E0= -.32201972E+02  EK= 0.25440E+01 SP= 0.23E+01 SK= 0.12E-03 mag=     -0.020
       N       E                     dE             d eps       ncg     rms          rms(c)
DAV:   1    -0.322365954083E+02    0.12342E-01   -0.16042E-02  2720   0.107E+00    0.512E-02
RMM:   2    -0.322376986225E+02   -0.11032E-02   -0.42962E-03  1536   0.275E-01
   1325 T=   754. E= -.27435694E+02 F= -.32237699E+02 E0= -.32189927E+02  EK= 0.25346E+01 SP= 0.23E+01 SK= 0.66E-06 mag=      0.126
       N       E                     dE             d eps       ncg     rms          rms(c)
DAV:   1    -0.322261882514E+02    0.10407E-01   -0.94645E-03  2560   0.103E+00    0.497E-02
RMM:   2    -0.322271675731E+02   -0.97932E-03   -0.45038E-03  1565   0.288E-01
   1326 T=   753. E= -.27431613E+02 F= -.32227168E+02 E0= -.32179433E+02  EK= 0.25296E+01 SP= 0.23E+01 SK= 0.96E-04 mag=      0.201
       N       E                     dE             d eps       ncg     rms          rms(c)
DAV:   1    -0.322170706369E+02    0.91176E-02   -0.13971E-02  2712   0.108E+00    0.440E-02
RMM:   2    -0.322179849951E+02   -0.91436E-03   -0.45474E-03  1543   0.294E-01
   1327 T=   753. E= -.27427328E+02 F= -.32217985E+02 E0= -.32170073E+02  EK= 0.25299E+01 SP= 0.23E+01 SK= 0.42E-03 mag=      0.142
       N       E                     dE             d eps       ncg     rms          rms(c)
DAV:   1    -0.322080180993E+02    0.90525E-02   -0.15534E-02  2704   0.105E+00    0.634E-02
RMM:   2    -0.322093606834E+02   -0.13426E-02   -0.49442E-03  1529   0.282E-01
   1328 T=   755. E= -.27421668E+02 F= -.32209361E+02 E0= -.32161619E+02  EK= 0.25359E+01 SP= 0.23E+01 SK= 0.97E-03 mag=     -0.037
       N       E                     dE             d eps       ncg     rms          rms(c)
DAV:   1    -0.322025689806E+02    0.54491E-02   -0.16396E-02  2840   0.111E+00    0.575E-02
RMM:   2    -0.322036413376E+02   -0.10724E-02   -0.54389E-03  1587   0.307E-01
   1329 T=   758. E= -.27417172E+02 F= -.32203641E+02 E0= -.32155961E+02  EK= 0.25471E+01 SP= 0.22E+01 SK= 0.17E-02 mag=     -0.237
       N       E                     dE             d eps       ncg     rms          rms(c)
DAV:   1    -0.321971652260E+02    0.54038E-02   -0.21244E-02  2760   0.103E+00    0.634E-02
RMM:   2    -0.321985273685E+02   -0.13621E-02   -0.57178E-03  1546   0.318E-01    0.505E-02
RMM:   3    -0.321991683806E+02   -0.64101E-03   -0.16371E-03  1511   0.116E-01
   1330 T=   762. E= -.27413968E+02 F= -.32199168E+02 E0= -.32151499E+02  EK= 0.25617E+01 SP= 0.22E+01 SK= 0.25E-02 mag=     -0.158
       N       E                     dE             d eps       ncg     rms          rms(c)
DAV:   1    -0.321955066147E+02    0.30208E-02   -0.13466E-02  2576   0.106E+00    0.674E-02
RMM:   2    -0.321963610766E+02   -0.85446E-03   -0.31587E-03  1527   0.251E-01
   1331 T=   769. E= -.27409068E+02 F= -.32196361E+02 E0= -.32148650E+02  EK= 0.25828E+01 SP= 0.22E+01 SK= 0.34E-02 mag=      0.140
       N       E                     dE             d eps       ncg     rms          rms(c)
DAV:   1    -0.321915299855E+02    0.39766E-02   -0.20661E-02  3032   0.113E+00    0.922E-02
RMM:   2    -0.321933590603E+02   -0.18291E-02   -0.45724E-03  1547   0.249E-01    0.726E-02
RMM:   3    -0.321945606179E+02   -0.12016E-02   -0.16876E-03  1407   0.106E-01
   1332 T=   776. E= -.27403851E+02 F= -.32194561E+02 E0= -.32147475E+02  EK= 0.26079E+01 SP= 0.22E+01 SK= 0.41E-02 mag=      0.196
       N       E                     dE             d eps       ncg     rms          rms(c)
DAV:   1    -0.321950697870E+02   -0.17107E-02   -0.20083E-02  2528   0.101E+00    0.838E-02
RMM:   2    -0.321960837346E+02   -0.10139E-02   -0.37685E-03  1467   0.258E-01
   1333 T=   784. E= -.27401422E+02 F= -.32196084E+02 E0= -.32148502E+02  EK= 0.26357E+01 SP= 0.22E+01 SK= 0.47E-02 mag=      0.007
       N       E                     dE             d eps       ncg     rms          rms(c)
DAV:   1    -0.321934663362E+02    0.16035E-02   -0.35425E-02  2920   0.116E+00    0.103E-01
RMM:   2    -0.321958494853E+02   -0.23831E-02   -0.65443E-03  1558   0.282E-01    0.776E-02
RMM:   3    -0.321977587294E+02   -0.19092E-02   -0.30849E-03  1418   0.126E-01    0.545E-02
RMM:   4    -0.321988784137E+02   -0.11197E-02   -0.21586E-03  1404   0.928E-02
   1334 T=   793. E= -.27398997E+02 F= -.32198878E+02 E0= -.32151425E+02  EK= 0.26663E+01 SP= 0.21E+01 SK= 0.51E-02 mag=     -0.063
       N       E                     dE             d eps       ncg     rms          rms(c)
DAV:   1    -0.321991058029E+02   -0.13471E-02   -0.24171E-02  2536   0.108E+00    0.116E-01
RMM:   2    -0.322008676428E+02   -0.17618E-02   -0.58720E-03  1459   0.282E-01    0.771E-02
RMM:   3    -0.322019185834E+02   -0.10509E-02   -0.24126E-03  1400   0.120E-01
   1335 T=   803. E= -.27395870E+02 F= -.32201919E+02 E0= -.32154796E+02  EK= 0.26987E+01 SP= 0.21E+01 SK= 0.52E-02 mag=     -0.021
       N       E                     dE             d eps       ncg     rms          rms(c)
DAV:   1    -0.322048071142E+02   -0.39395E-02   -0.29040E-02  2680   0.110E+00    0.928E-02
RMM:   2    -0.322061004459E+02   -0.12933E-02   -0.46695E-03  1507   0.289E-01
   1336 T=   814. E= -.27390484E+02 F= -.32206100E+02 E0= -.32159409E+02  EK= 0.27346E+01 SP= 0.21E+01 SK= 0.49E-02 mag=      0.084
       N       E                     dE             d eps       ncg     rms          rms(c)
DAV:   1    -0.322112251134E+02   -0.64180E-02   -0.23482E-02  2832   0.122E+00    0.678E-02
RMM:   2    -0.322123490239E+02   -0.11239E-02   -0.48600E-03  1559   0.294E-01
   1337 T=   824. E= -.27388628E+02 F= -.32212349E+02 E0= -.32165847E+02  EK= 0.27682E+01 SP= 0.21E+01 SK= 0.43E-02 mag=      0.186
       N       E                     dE             d eps       ncg     rms          rms(c)
DAV:   1    -0.322175044487E+02   -0.62793E-02   -0.18963E-02  2648   0.108E+00    0.734E-02
RMM:   2    -0.322186004638E+02   -0.10960E-02   -0.48850E-03  1539   0.307E-01
   1338 T=   834. E= -.27385462E+02 F= -.32218600E+02 E0= -.32172461E+02  EK= 0.28014E+01 SP= 0.20E+01 SK= 0.35E-02 mag=      0.200
       N       E                     dE             d eps       ncg     rms          rms(c)
DAV:   1    -0.322224153155E+02   -0.49109E-02   -0.23279E-02  2504   0.124E+00    0.690E-02
RMM:   2    -0.322241075913E+02   -0.16923E-02   -0.60159E-03  1543   0.307E-01    0.537E-02
RMM:   3    -0.322249147136E+02   -0.80712E-03   -0.21002E-03  1437   0.122E-01
   1339 T=   843. E= -.27380879E+02 F= -.32224915E+02 E0= -.32179203E+02  EK= 0.28334E+01 SP= 0.20E+01 SK= 0.25E-02 mag=      0.048
       N       E                     dE             d eps       ncg     rms          rms(c)
DAV:   1    -0.322309138032E+02   -0.68062E-02   -0.21361E-02  2576   0.110E+00    0.769E-02
RMM:   2    -0.322319025502E+02   -0.98875E-03   -0.37117E-03  1442   0.302E-01
   1340 T=   852. E= -.27375234E+02 F= -.32231903E+02 E0= -.32186583E+02  EK= 0.28636E+01 SP= 0.20E+01 SK= 0.16E-02 mag=     -0.188
       N       E                     dE             d eps       ncg     rms          rms(c)
DAV:   1    -0.322343713756E+02   -0.34576E-02   -0.33019E-02  3128   0.124E+00    0.909E-02
RMM:   2    -0.322363493693E+02   -0.19780E-02   -0.54500E-03  1554   0.273E-01    0.680E-02
RMM:   3    -0.322377427226E+02   -0.13934E-02   -0.22242E-03  1401   0.119E-01    0.472E-02
RMM:   4    -0.322385429430E+02   -0.80022E-03   -0.14517E-03  1395   0.810E-02
   1341 T=   859. E= -.27370487E+02 F= -.32238543E+02 E0= -.32193632E+02  EK= 0.28881E+01 SP= 0.20E+01 SK= 0.73E-03 mag=     -0.064
       N       E                     dE             d eps       ncg     rms          rms(c)
DAV:   1    -0.322409767272E+02   -0.32340E-02   -0.14122E-02  2376   0.106E+00    0.964E-02
RMM:   2    -0.322426423117E+02   -0.16656E-02   -0.45601E-03  1444   0.266E-01    0.673E-02
RMM:   3    -0.322435875751E+02   -0.94526E-03   -0.18028E-03  1400   0.116E-01
   1342 T=   864. E= -.27368571E+02 F= -.32243588E+02 E0= -.32199361E+02  EK= 0.29030E+01 SP= 0.20E+01 SK= 0.17E-03 mag=      0.136
       N       E                     dE             d eps       ncg     rms          rms(c)
DAV:   1    -0.322460148939E+02   -0.33726E-02   -0.26798E-02  2768   0.116E+00    0.798E-02
RMM:   2    -0.322473316000E+02   -0.13167E-02   -0.49948E-03  1524   0.306E-01
   1343 T=   867. E= -.27364137E+02 F= -.32247332E+02 E0= -.32203939E+02  EK= 0.29134E+01 SP= 0.20E+01 SK= 0.37E-05 mag=      0.248
       N       E                     dE             d eps       ncg     rms          rms(c)
DAV:   1    -0.322492195694E+02   -0.32047E-02   -0.20860E-02  2984   0.127E+00    0.612E-02
RMM:   2    -0.322504230984E+02   -0.12035E-02   -0.46685E-03  1582   0.289E-01
   1344 T=   867. E= -.27361738E+02 F= -.32250423E+02 E0= -.32207446E+02  EK= 0.29151E+01 SP= 0.20E+01 SK= 0.30E-03 mag=      0.185
       N       E                     dE             d eps       ncg     rms          rms(c)
DAV:   1    -0.322510815102E+02   -0.18619E-02   -0.12078E-02  2200   0.109E+00    0.495E-02
RMM:   2    -0.322520622068E+02   -0.98070E-03   -0.41896E-03  1552   0.300E-01
   1345 T=   866. E= -.27358648E+02 F= -.32252062E+02 E0= -.32209534E+02  EK= 0.29101E+01 SP= 0.20E+01 SK= 0.10E-02 mag=     -0.030
       N       E                     dE             d eps       ncg     rms          rms(c)
DAV:   1    -0.322494091540E+02    0.16724E-02   -0.20394E-02  2656   0.122E+00    0.623E-02
RMM:   2    -0.322508333977E+02   -0.14242E-02   -0.53627E-03  1558   0.300E-01    0.477E-02
RMM:   3    -0.322512887362E+02   -0.45534E-03   -0.15556E-03  1427   0.114E-01
   1346 T=   862. E= -.27353577E+02 F= -.32251289E+02 E0= -.32209660E+02  EK= 0.28987E+01 SP= 0.20E+01 SK= 0.22E-02 mag=     -0.123
       N       E                     dE             d eps       ncg     rms          rms(c)
DAV:   1    -0.322483094809E+02    0.25239E-02   -0.14570E-02  2536   0.108E+00    0.575E-02
RMM:   2    -0.322492873888E+02   -0.97791E-03   -0.33762E-03  1514   0.274E-01
   1347 T=   857. E= -.27347688E+02 F= -.32249287E+02 E0= -.32208196E+02  EK= 0.28814E+01 SP= 0.20E+01 SK= 0.37E-02 mag=     -0.067
       N       E                     dE             d eps       ncg     rms          rms(c)
DAV:   1    -0.322433811563E+02    0.49283E-02   -0.24189E-02  2920   0.123E+00    0.549E-02
RMM:   2    -0.322445640233E+02   -0.11829E-02   -0.46385E-03  1568   0.273E-01
   1348 T=   850. E= -.27341545E+02 F= -.32244564E+02 E0= -.32204124E+02  EK= 0.28567E+01 SP= 0.20E+01 SK= 0.53E-02 mag=      0.075
       N       E                     dE             d eps       ncg     rms          rms(c)
DAV:   1    -0.322361854100E+02    0.71957E-02   -0.91835E-03  1840   0.105E+00    0.539E-02
RMM:   2    -0.322375140758E+02   -0.13287E-02   -0.54720E-03  1600   0.324E-01
   1349 T=   840. E= -.27337427E+02 F= -.32237514E+02 E0= -.32197893E+02  EK= 0.28236E+01 SP= 0.21E+01 SK= 0.69E-02 mag=      0.174
       N       E                     dE             d eps       ncg     rms          rms(c)
DAV:   1    -0.322269814621E+02    0.92039E-02   -0.22152E-02  2944   0.125E+00    0.554E-02
RMM:   2    -0.322283997932E+02   -0.14183E-02   -0.59583E-03  1645   0.319E-01    0.412E-02
RMM:   3    -0.322288560467E+02   -0.45625E-03   -0.16007E-03  1428   0.125E-01
   1350 T=   829. E= -.27333762E+02 F= -.32228856E+02 E0= -.32189909E+02  EK= 0.27853E+01 SP= 0.21E+01 SK= 0.83E-02 mag=      0.065
       N       E                     dE             d eps       ncg     rms          rms(c)
DAV:   1    -0.322162878179E+02    0.12112E-01   -0.21362E-02  2584   0.108E+00    0.585E-02
RMM:   2    -0.322174643085E+02   -0.11765E-02   -0.38052E-03  1521   0.277E-01
   1351 T=   817. E= -.27327672E+02 F= -.32217464E+02 E0= -.32179162E+02  EK= 0.27447E+01 SP= 0.21E+01 SK= 0.92E-02 mag=     -0.149
       N       E                     dE             d eps       ncg     rms          rms(c)
DAV:   1    -0.322013605197E+02    0.14927E-01   -0.28700E-02  3048   0.124E+00    0.819E-02
RMM:   2    -0.322030261643E+02   -0.16656E-02   -0.46386E-03  1562   0.269E-01    0.588E-02
RMM:   3    -0.322039488066E+02   -0.92264E-03   -0.15306E-03  1409   0.108E-01
   1352 T=   804. E= -.27321932E+02 F= -.32203949E+02 E0= -.32166456E+02  EK= 0.27008E+01 SP= 0.22E+01 SK= 0.97E-02 mag=     -0.098
       N       E                     dE             d eps       ncg     rms          rms(c)
DAV:   1    -0.321877328976E+02    0.15293E-01   -0.12611E-02  2416   0.103E+00    0.713E-02
RMM:   2    -0.321889865658E+02   -0.12537E-02   -0.43492E-03  1580   0.288E-01
   1353 T=   790. E= -.27318175E+02 F= -.32188987E+02 E0= -.32151971E+02  EK= 0.26537E+01 SP= 0.22E+01 SK= 0.95E-02 mag=      0.124
       N       E                     dE             d eps       ncg     rms          rms(c)
DAV:   1    -0.321688767971E+02    0.18856E-01   -0.28684E-02  2936   0.117E+00    0.941E-02
RMM:   2    -0.321709896739E+02   -0.21129E-02   -0.53731E-03  1549   0.278E-01    0.685E-02
RMM:   3    -0.321725286614E+02   -0.15390E-02   -0.28348E-03  1402   0.123E-01    0.380E-02
RMM:   4    -0.321729597994E+02   -0.43114E-03   -0.11062E-03  1375   0.778E-02
   1354 T=   775. E= -.27315473E+02 F= -.32172960E+02 E0= -.32136610E+02  EK= 0.26060E+01 SP= 0.22E+01 SK= 0.88E-02 mag=      0.037
       N       E                     dE             d eps       ncg     rms          rms(c)
DAV:   1    -0.321512481744E+02    0.21280E-01   -0.11450E-02  2456   0.103E+00    0.107E-01
RMM:   2    -0.321532033770E+02   -0.19552E-02   -0.56919E-03  1512   0.282E-01    0.710E-02
RMM:   3    -0.321542834957E+02   -0.10801E-02   -0.21819E-03  1400   0.117E-01
   1355 T=   761. E= -.27312170E+02 F= -.32154283E+02 E0= -.32118565E+02  EK= 0.25588E+01 SP= 0.23E+01 SK= 0.75E-02 mag=     -0.061
       N       E                     dE             d eps       ncg     rms          rms(c)
DAV:   1    -0.321340518540E+02    0.19152E-01   -0.22454E-02  2856   0.105E+00    0.598E-02
RMM:   2    -0.321349198926E+02   -0.86804E-03   -0.35906E-03  1459   0.249E-01
   1356 T=   749. E= -.27307645E+02 F= -.32134920E+02 E0= -.32099884E+02  EK= 0.25158E+01 SP= 0.23E+01 SK= 0.58E-02 mag=     -0.107
       N       E                     dE             d eps       ncg     rms          rms(c)
DAV:   1    -0.321138118042E+02    0.20240E-01   -0.16633E-02  2944   0.108E+00    0.463E-02
RMM:   2    -0.321147465786E+02   -0.93477E-03   -0.37816E-03  1565   0.243E-01
   1357 T=   736. E= -.27305941E+02 F= -.32114747E+02 E0= -.32080238E+02  EK= 0.24735E+01 SP= 0.23E+01 SK= 0.40E-02 mag=     -0.075
       N       E                     dE             d eps       ncg     rms          rms(c)
DAV:   1    -0.320931753716E+02    0.20636E-01   -0.87570E-03  1976   0.999E-01    0.433E-02
RMM:   2    -0.320941773985E+02   -0.10020E-02   -0.41507E-03  1555   0.272E-01
   1358 T=   725. E= -.27303566E+02 F= -.32094177E+02 E0= -.32060166E+02  EK= 0.24367E+01 SP= 0.24E+01 SK= 0.22E-02 mag=      0.014
       N       E                     dE             d eps       ncg     rms          rms(c)
DAV:   1    -0.320723513772E+02    0.20824E-01   -0.17626E-02  2960   0.115E+00    0.460E-02
RMM:   2    -0.320733453239E+02   -0.99395E-03   -0.45810E-03  1561   0.269E-01
   1359 T=   716. E= -.27298897E+02 F= -.32073345E+02 E0= -.32039934E+02  EK= 0.24078E+01 SP= 0.24E+01 SK= 0.85E-03 mag=      0.106
       N       E                     dE             d eps       ncg     rms          rms(c)
DAV:   1    -0.320512549424E+02    0.21096E-01   -0.11669E-02  2520   0.955E-01    0.482E-02
RMM:   2    -0.320524546441E+02   -0.11997E-02   -0.49768E-03  1576   0.292E-01
   1360 T=   710. E= -.27294314E+02 F= -.32052455E+02 E0= -.32019618E+02  EK= 0.23851E+01 SP= 0.24E+01 SK= 0.89E-04 mag=      0.113
       N       E                     dE             d eps       ncg     rms          rms(c)
DAV:   1    -0.320317759847E+02    0.19479E-01   -0.14574E-02  2680   0.104E+00    0.471E-02
RMM:   2    -0.320327418301E+02   -0.96585E-03   -0.41609E-03  1542   0.272E-01
   1361 T=   705. E= -.27290477E+02 F= -.32032742E+02 E0= -.32000237E+02  EK= 0.23695E+01 SP= 0.24E+01 SK= 0.14E-03 mag=      0.028
       N       E                     dE             d eps       ncg     rms          rms(c)
DAV:   1    -0.320124521622E+02    0.19324E-01   -0.13254E-02  2520   0.976E-01    0.399E-02
RMM:   2    -0.320134893708E+02   -0.10372E-02   -0.46782E-03  1573   0.272E-01
   1362 T=   703. E= -.27286225E+02 F= -.32013489E+02 E0= -.31981473E+02  EK= 0.23617E+01 SP= 0.24E+01 SK= 0.11E-02 mag=     -0.085
       N       E                     dE             d eps       ncg     rms          rms(c)
DAV:   1    -0.319937913076E+02    0.18661E-01   -0.14075E-02  2536   0.102E+00    0.539E-02
RMM:   2    -0.319950502911E+02   -0.12590E-02   -0.53400E-03  1594   0.282E-01
   1363 T=   703. E= -.27281410E+02 F= -.31995050E+02 E0= -.31963516E+02  EK= 0.23624E+01 SP= 0.23E+01 SK= 0.31E-02 mag=     -0.145
       N       E                     dE             d eps       ncg     rms          rms(c)
DAV:   1    -0.319770146758E+02    0.16777E-01   -0.13777E-02  2504   0.974E-01    0.555E-02
RMM:   2    -0.319783166857E+02   -0.13020E-02   -0.45793E-03  1549   0.283E-01
   1364 T=   706. E= -.27277291E+02 F= -.31978317E+02 E0= -.31947110E+02  EK= 0.23712E+01 SP= 0.23E+01 SK= 0.60E-02 mag=     -0.079
       N       E                     dE             d eps       ncg     rms          rms(c)
DAV:   1    -0.319630207251E+02    0.13994E-01   -0.14763E-02  2736   0.107E+00    0.404E-02
RMM:   2    -0.319640092252E+02   -0.98850E-03   -0.50940E-03  1571   0.291E-01
   1365 T=   711. E= -.27273469E+02 F= -.31964009E+02 E0= -.31933077E+02  EK= 0.23892E+01 SP= 0.23E+01 SK= 0.97E-02 mag=      0.069
       N       E                     dE             d eps       ncg     rms          rms(c)
DAV:   1    -0.319482194575E+02    0.14801E-01   -0.19384E-02  2600   0.971E-01    0.691E-02
RMM:   2    -0.319498958242E+02   -0.16764E-02   -0.56708E-03  1552   0.299E-01    0.523E-02
RMM:   3    -0.319508513218E+02   -0.95550E-03   -0.24233E-03  1440   0.119E-01
   1366 T=   719. E= -.27269734E+02 F= -.31950851E+02 E0= -.31920293E+02  EK= 0.24151E+01 SP= 0.23E+01 SK= 0.14E-01 mag=      0.052
       N       E                     dE             d eps       ncg     rms          rms(c)
DAV:   1    -0.319388938103E+02    0.11002E-01   -0.14870E-02  2544   0.986E-01    0.543E-02
RMM:   2    -0.319399166373E+02   -0.10228E-02   -0.34318E-03  1486   0.230E-01
   1367 T=   729. E= -.27265331E+02 F= -.31939917E+02 E0= -.31909587E+02  EK= 0.24505E+01 SP= 0.22E+01 SK= 0.18E-01 mag=     -0.065
       N       E                     dE             d eps       ncg     rms          rms(c)
DAV:   1    -0.319291050173E+02    0.97888E-02   -0.28454E-02  2784   0.105E+00    0.654E-02
RMM:   2    -0.319305038537E+02   -0.13988E-02   -0.42386E-03  1551   0.245E-01    0.488E-02
RMM:   3    -0.319310308730E+02   -0.52702E-03   -0.12477E-03  1426   0.953E-02
   1368 T=   742. E= -.27261604E+02 F= -.31931031E+02 E0= -.31901012E+02  EK= 0.24933E+01 SP= 0.22E+01 SK= 0.22E-01 mag=     -0.046
       N       E                     dE             d eps       ncg     rms          rms(c)
DAV:   1    -0.319234073383E+02    0.70965E-02   -0.14485E-02  2488   0.994E-01    0.631E-02
RMM:   2    -0.319245967060E+02   -0.11894E-02   -0.40293E-03  1483   0.252E-01
   1369 T=   757. E= -.27258153E+02 F= -.31924597E+02 E0= -.31894771E+02  EK= 0.25437E+01 SP= 0.21E+01 SK= 0.26E-01 mag=      0.060
       N       E                     dE             d eps       ncg     rms          rms(c)
DAV:   1    -0.319176875516E+02    0.57198E-02   -0.32319E-02  2760   0.110E+00    0.734E-02
RMM:   2    -0.319193806901E+02   -0.16931E-02   -0.52526E-03  1556   0.276E-01    0.524E-02
RMM:   3    -0.319202835829E+02   -0.90289E-03   -0.21758E-03  1429   0.113E-01
   1370 T=   774. E= -.27254645E+02 F= -.31920284E+02 E0= -.31890657E+02  EK= 0.26009E+01 SP= 0.20E+01 SK= 0.29E-01 mag=      0.031
       N       E                     dE             d eps       ncg     rms          rms(c)
DAV:   1    -0.319158324406E+02    0.35482E-02   -0.16878E-02  2288   0.100E+00    0.795E-02
RMM:   2    -0.319174283799E+02   -0.15959E-02   -0.49217E-03  1515   0.263E-01    0.526E-02
RMM:   3    -0.319179064524E+02   -0.47807E-03   -0.13724E-03  1397   0.104E-01
   1371 T=   792. E= -.27252686E+02 F= -.31917906E+02 E0= -.31888430E+02  EK= 0.26618E+01 SP= 0.20E+01 SK= 0.30E-01 mag=     -0.012
       N       E                     dE             d eps       ncg     rms          rms(c)
DAV:   1    -0.319160389737E+02    0.13894E-02   -0.36466E-02  2608   0.106E+00    0.534E-02
RMM:   2    -0.319170699477E+02   -0.10310E-02   -0.42368E-03  1583   0.267E-01
   1372 T=   812. E= -.27248364E+02 F= -.31917070E+02 E0= -.31887773E+02  EK= 0.27289E+01 SP= 0.19E+01 SK= 0.30E-01 mag=     -0.046
       N       E                     dE             d eps       ncg     rms          rms(c)
DAV:   1    -0.319169031803E+02   -0.86421E-03   -0.32199E-02  2720   0.110E+00    0.408E-02
RMM:   2    -0.319178835014E+02   -0.98032E-03   -0.45677E-03  1579   0.274E-01
   1373 T=   832. E= -.27245849E+02 F= -.31917884E+02 E0= -.31888717E+02  EK= 0.27963E+01 SP= 0.18E+01 SK= 0.28E-01 mag=     -0.045
       N       E                     dE             d eps       ncg     rms          rms(c)
DAV:   1    -0.319186735491E+02   -0.17704E-02   -0.16067E-02  2464   0.105E+00    0.327E-02
RMM:   2    -0.319197025665E+02   -0.10290E-02   -0.45857E-03  1577   0.296E-01
   1374 T=   852. E= -.27242988E+02 F= -.31919703E+02 E0= -.31890643E+02  EK= 0.28638E+01 SP= 0.18E+01 SK= 0.25E-01 mag=     -0.006
       N       E                     dE             d eps       ncg     rms          rms(c)
DAV:   1    -0.319206366169E+02   -0.19631E-02   -0.21879E-02  2600   0.117E+00    0.455E-02
RMM:   2    -0.319218385222E+02   -0.12019E-02   -0.50356E-03  1600   0.289E-01
   1375 T=   872. E= -.27238186E+02 F= -.31921839E+02 E0= -.31892917E+02  EK= 0.29305E+01 SP= 0.17E+01 SK= 0.21E-01 mag=      0.044
       N       E                     dE             d eps       ncg     rms          rms(c)
DAV:   1    -0.319232821863E+02   -0.26456E-02   -0.14279E-02  2448   0.108E+00    0.353E-02
RMM:   2    -0.319244427620E+02   -0.11606E-02   -0.46069E-03  1569   0.297E-01
   1376 T=   890. E= -.27234473E+02 F= -.31924443E+02 E0= -.31895597E+02  EK= 0.29912E+01 SP= 0.17E+01 SK= 0.16E-01 mag=      0.059
       N       E                     dE             d eps       ncg     rms          rms(c)
DAV:   1    -0.319256178539E+02   -0.23357E-02   -0.19991E-02  2440   0.117E+00    0.359E-02
RMM:   2    -0.319267409353E+02   -0.11231E-02   -0.49557E-03  1603   0.290E-01
   1377 T=   906. E= -.27230540E+02 F= -.31926741E+02 E0= -.31897962E+02  EK= 0.30445E+01 SP= 0.16E+01 SK= 0.11E-01 mag=      0.022
       N       E                     dE             d eps       ncg     rms          rms(c)
DAV:   1    -0.319259795266E+02   -0.36167E-03   -0.21399E-02  2512   0.113E+00    0.406E-02
RMM:   2    -0.319273294653E+02   -0.13499E-02   -0.55693E-03  1623   0.314E-01
   1378 T=   919. E= -.27226041E+02 F= -.31927329E+02 E0= -.31898618E+02  EK= 0.30875E+01 SP= 0.16E+01 SK= 0.60E-02 mag=     -0.042
       N       E                     dE             d eps       ncg     rms          rms(c)
DAV:   1    -0.319247293825E+02    0.12501E-02   -0.22033E-02  2688   0.117E+00    0.520E-02
RMM:   2    -0.319262630238E+02   -0.15336E-02   -0.58004E-03  1624   0.301E-01    0.367E-02
RMM:   3    -0.319266783114E+02   -0.41529E-03   -0.15662E-03  1473   0.119E-01
   1379 T=   927. E= -.27222952E+02 F= -.31926678E+02 E0= -.31897992E+02  EK= 0.31169E+01 SP= 0.16E+01 SK= 0.25E-02 mag=     -0.029
       N       E                     dE             d eps       ncg     rms          rms(c)
DAV:   1    -0.319224126828E+02    0.38503E-02   -0.23291E-02  2400   0.113E+00    0.505E-02
RMM:   2    -0.319236795818E+02   -0.12669E-02   -0.34237E-03  1489   0.258E-01
   1380 T=   933. E= -.27217129E+02 F= -.31923680E+02 E0= -.31895014E+02  EK= 0.31346E+01 SP= 0.16E+01 SK= 0.40E-03 mag=      0.026
       N       E                     dE             d eps       ncg     rms          rms(c)
DAV:   1    -0.319165289960E+02    0.58837E-02   -0.32493E-02  2968   0.124E+00    0.505E-02
RMM:   2    -0.319180110208E+02   -0.14820E-02   -0.48365E-03  1590   0.266E-01    0.379E-02
RMM:   3    -0.319184636886E+02   -0.45267E-03   -0.12429E-03  1417   0.103E-01
   1381 T=   933. E= -.27212062E+02 F= -.31918464E+02 E0= -.31889772E+02  EK= 0.31366E+01 SP= 0.16E+01 SK= 0.10E-03 mag=      0.019
       N       E                     dE             d eps       ncg     rms          rms(c)
DAV:   1    -0.319093509940E+02    0.86600E-02   -0.18599E-02  2208   0.109E+00    0.438E-02
RMM:   2    -0.319106437480E+02   -0.12928E-02   -0.41613E-03  1542   0.256E-01
   1382 T=   929. E= -.27207623E+02 F= -.31910644E+02 E0= -.31881880E+02  EK= 0.31224E+01 SP= 0.16E+01 SK= 0.16E-02 mag=     -0.028
       N       E                     dE             d eps       ncg     rms          rms(c)
DAV:   1    -0.318977802036E+02    0.11571E-01   -0.33472E-02  3080   0.124E+00    0.606E-02
RMM:   2    -0.318994426232E+02   -0.16624E-02   -0.53584E-03  1596   0.266E-01    0.432E-02
RMM:   3    -0.319002174410E+02   -0.77482E-03   -0.21585E-03  1402   0.115E-01
   1383 T=   920. E= -.27203334E+02 F= -.31900217E+02 E0= -.31871360E+02  EK= 0.30933E+01 SP= 0.16E+01 SK= 0.47E-02 mag=     -0.009
       N       E                     dE             d eps       ncg     rms          rms(c)
DAV:   1    -0.318851317986E+02    0.14311E-01   -0.21976E-02  2320   0.108E+00    0.582E-02
RMM:   2    -0.318867003281E+02   -0.15685E-02   -0.44706E-03  1586   0.286E-01    0.388E-02
RMM:   3    -0.318870472659E+02   -0.34694E-03   -0.12580E-03  1373   0.108E-01
   1384 T=   907. E= -.27200412E+02 F= -.31887047E+02 E0= -.31858035E+02  EK= 0.30489E+01 SP= 0.16E+01 SK= 0.89E-02 mag=      0.011
       N       E                     dE             d eps       ncg     rms          rms(c)
DAV:   1    -0.318699258070E+02    0.16775E-01   -0.32874E-02  2776   0.114E+00    0.415E-02
RMM:   2    -0.318710616445E+02   -0.11358E-02   -0.42273E-03  1582   0.265E-01
   1385 T=   891. E= -.27194500E+02 F= -.31871062E+02 E0= -.31841859E+02  EK= 0.29953E+01 SP= 0.17E+01 SK= 0.14E-01 mag=      0.020
       N       E                     dE             d eps       ncg     rms          rms(c)
DAV:   1    -0.318522253564E+02    0.17700E-01   -0.26133E-02  2936   0.116E+00    0.326E-02
RMM:   2    -0.318533392143E+02   -0.11139E-02   -0.45481E-03  1577   0.271E-01
   1386 T=   872. E= -.27191334E+02 F= -.31853339E+02 E0= -.31823883E+02  EK= 0.29297E+01 SP= 0.17E+01 SK= 0.18E-01 mag=      0.010
       N       E                     dE             d eps       ncg     rms          rms(c)
DAV:   1    -0.318335477763E+02    0.18678E-01   -0.15766E-02  2240   0.108E+00    0.269E-02
RMM:   2    -0.318346462321E+02   -0.10985E-02   -0.47810E-03  1579   0.298E-01
   1387 T=   850. E= -.27187951E+02 F= -.31834646E+02 E0= -.31804876E+02  EK= 0.28581E+01 SP= 0.18E+01 SK= 0.22E-01 mag=     -0.010
       N       E                     dE             d eps       ncg     rms          rms(c)
DAV:   1    -0.318138471333E+02    0.19701E-01   -0.23874E-02  2872   0.117E+00    0.338E-02
RMM:   2    -0.318149998119E+02   -0.11527E-02   -0.48781E-03  1581   0.296E-01
   1388 T=   829. E= -.27182269E+02 F= -.31815000E+02 E0= -.31784893E+02  EK= 0.27849E+01 SP= 0.18E+01 SK= 0.25E-01 mag=     -0.025
       N       E                     dE             d eps       ncg     rms          rms(c)
DAV:   1    -0.317940660810E+02    0.19781E-01   -0.13785E-02  2392   0.107E+00    0.337E-02
RMM:   2    -0.317953408237E+02   -0.12747E-02   -0.61072E-03  1644   0.305E-01
   1389 T=   806. E= -.27177009E+02 F= -.31795341E+02 E0= -.31764815E+02  EK= 0.27104E+01 SP= 0.19E+01 SK= 0.26E-01 mag=     -0.020
       N       E                     dE             d eps       ncg     rms          rms(c)
DAV:   1    -0.317762040704E+02    0.17862E-01   -0.21892E-02  2648   0.112E+00    0.298E-02
RMM:   2    -0.317771879351E+02   -0.98386E-03   -0.44127E-03  1588   0.288E-01
   1390 T=   785. E= -.27171729E+02 F= -.31777188E+02 E0= -.31746165E+02  EK= 0.26384E+01 SP= 0.19E+01 SK= 0.26E-01 mag=      0.002
       N       E                     dE             d eps       ncg     rms          rms(c)
DAV:   1    -0.317596101320E+02    0.16594E-01   -0.17055E-02  2544   0.106E+00    0.265E-02
RMM:   2    -0.317606649384E+02   -0.10548E-02   -0.53078E-03  1582   0.309E-01
   1391 T=   765. E= -.27166496E+02 F= -.31760665E+02 E0= -.31729115E+02  EK= 0.25708E+01 SP= 0.20E+01 SK= 0.24E-01 mag=      0.028
       N       E                     dE             d eps       ncg     rms          rms(c)
DAV:   1    -0.317456691482E+02    0.13941E-01   -0.19442E-02  2568   0.107E+00    0.446E-02
RMM:   2    -0.317468159998E+02   -0.11469E-02   -0.44035E-03  1560   0.279E-01
   1392 T=   747. E= -.27161531E+02 F= -.31746816E+02 E0= -.31714747E+02  EK= 0.25097E+01 SP= 0.21E+01 SK= 0.21E-01 mag=      0.030
       N       E                     dE             d eps       ncg     rms          rms(c)
DAV:   1    -0.317363501237E+02    0.93190E-02   -0.16850E-02  2560   0.105E+00    0.347E-02
RMM:   2    -0.317373536547E+02   -0.10035E-02   -0.50611E-03  1610   0.304E-01
   1393 T=   731. E= -.27157295E+02 F= -.31737354E+02 E0= -.31704603E+02  EK= 0.24575E+01 SP= 0.21E+01 SK= 0.17E-01 mag=      0.005
       N       E                     dE             d eps       ncg     rms          rms(c)
DAV:   1    -0.317313295126E+02    0.50206E-02   -0.17677E-02  2672   0.100E+00    0.304E-02
RMM:   2    -0.317322532324E+02   -0.92372E-03   -0.49776E-03  1597   0.298E-01
   1394 T=   719. E= -.27152695E+02 F= -.31732253E+02 E0= -.31698816E+02  EK= 0.24161E+01 SP= 0.22E+01 SK= 0.13E-01 mag=     -0.031
       N       E                     dE             d eps       ncg     rms          rms(c)
DAV:   1    -0.317308464103E+02    0.48310E-03   -0.15734E-02  2480   0.101E+00    0.422E-02
RMM:   2    -0.317319303197E+02   -0.10839E-02   -0.45022E-03  1566   0.274E-01
   1395 T=   710. E= -.27148085E+02 F= -.31731930E+02 E0= -.31697845E+02  EK= 0.23860E+01 SP= 0.22E+01 SK= 0.90E-02 mag=     -0.046
       N       E                     dE             d eps       ncg     rms          rms(c)
DAV:   1    -0.317365286052E+02   -0.56822E-02   -0.14046E-02  2576   0.102E+00    0.457E-02
RMM:   2    -0.317376166309E+02   -0.10880E-02   -0.46471E-03  1591   0.282E-01
   1396 T=   705. E= -.27143646E+02 F= -.31737617E+02 E0= -.31702822E+02  EK= 0.23688E+01 SP= 0.22E+01 SK= 0.55E-02 mag=     -0.017
       N       E                     dE             d eps       ncg     rms          rms(c)
DAV:   1    -0.317492576589E+02   -0.12729E-01   -0.17044E-02  2608   0.998E-01    0.247E-02
RMM:   2    -0.317500542344E+02   -0.79658E-03   -0.43673E-03  1587   0.293E-01
   1397 T=   704. E= -.27139923E+02 F= -.31750054E+02 E0= -.31714398E+02  EK= 0.23647E+01 SP= 0.22E+01 SK= 0.27E-02 mag=      0.037
       N       E                     dE             d eps       ncg     rms          rms(c)
DAV:   1    -0.317663982010E+02   -0.17141E-01   -0.18303E-02  2704   0.989E-01    0.511E-02
RMM:   2    -0.317676166146E+02   -0.12184E-02   -0.51232E-03  1610   0.274E-01
   1398 T=   706. E= -.27135500E+02 F= -.31767617E+02 E0= -.31731285E+02  EK= 0.23734E+01 SP= 0.23E+01 SK= 0.94E-03 mag=      0.052
       N       E                     dE             d eps       ncg     rms          rms(c)
DAV:   1    -0.317914692035E+02   -0.25071E-01   -0.17335E-02  2656   0.101E+00    0.445E-02
RMM:   2    -0.317925081299E+02   -0.10389E-02   -0.51930E-03  1623   0.296E-01
   1399 T=   713. E= -.27131990E+02 F= -.31792508E+02 E0= -.31755323E+02  EK= 0.23954E+01 SP= 0.23E+01 SK= 0.10E-03 mag=      0.018
       N       E                     dE             d eps       ncg     rms          rms(c)
DAV:   1    -0.318228288487E+02   -0.31360E-01   -0.19999E-02  2608   0.990E-01    0.313E-02
RMM:   2    -0.318237140603E+02   -0.88521E-03   -0.47012E-03  1582   0.293E-01
   1400 T=   723. E= -.27128718E+02 F= -.31823714E+02 E0= -.31785680E+02  EK= 0.24299E+01 SP= 0.23E+01 SK= 0.76E-04 mag=     -0.043
       N       E                     dE             d eps       ncg     rms          rms(c)
DAV:   1    -0.318589196022E+02   -0.36091E-01   -0.15626E-02  2232   0.101E+00    0.420E-02
RMM:   2    -0.318599827035E+02   -0.10631E-02   -0.48867E-03  1592   0.286E-01
   1401 T=   737. E= -.27124762E+02 F= -.31859983E+02 E0= -.31821188E+02  EK= 0.24759E+01 SP= 0.23E+01 SK= 0.61E-03 mag=     -0.085
       N       E                     dE             d eps       ncg     rms          rms(c)
DAV:   1    -0.318997048107E+02   -0.40785E-01   -0.18014E-02  2616   0.103E+00    0.583E-02
RMM:   2    -0.319010816879E+02   -0.13769E-02   -0.50996E-03  1603   0.291E-01    0.443E-02
RMM:   3    -0.319018167628E+02   -0.73507E-03   -0.19705E-03  1424   0.118E-01
   1402 T=   753. E= -.27121860E+02 F= -.31901817E+02 E0= -.31862198E+02  EK= 0.25315E+01 SP= 0.22E+01 SK= 0.14E-02 mag=     -0.020
       N       E                     dE             d eps       ncg     rms          rms(c)
DAV:   1    -0.319468328924E+02   -0.45751E-01   -0.24428E-02  2512   0.103E+00    0.563E-02
RMM:   2    -0.319478760651E+02   -0.10432E-02   -0.32244E-03  1540   0.246E-01
   1403 T=   773. E= -.27116941E+02 F= -.31947876E+02 E0= -.31907485E+02  EK= 0.25973E+01 SP= 0.22E+01 SK= 0.21E-02 mag=      0.085
       N       E                     dE             d eps       ncg     rms          rms(c)
DAV:   1    -0.319946775903E+02   -0.47845E-01   -0.32439E-02  2880   0.112E+00    0.708E-02
RMM:   2    -0.319964565415E+02   -0.17790E-02   -0.50984E-03  1600   0.268E-01    0.565E-02
RMM:   3    -0.319972147523E+02   -0.75821E-03   -0.14553E-03  1400   0.105E-01
   1404 T=   794. E= -.27112482E+02 F= -.31997215E+02 E0= -.31956158E+02  EK= 0.26684E+01 SP= 0.22E+01 SK= 0.24E-02 mag=      0.045
       N       E                     dE             d eps       ncg     rms          rms(c)
DAV:   1    -0.320486161340E+02   -0.52160E-01   -0.27543E-02  2488   0.104E+00    0.597E-02
RMM:   2    -0.320499697006E+02   -0.13536E-02   -0.39886E-03  1548   0.257E-01    0.439E-02
RMM:   3    -0.320502112642E+02   -0.24156E-03   -0.10157E-03  1225   0.976E-02
   1405 T=   816. E= -.27111503E+02 F= -.32050211E+02 E0= -.32008261E+02  EK= 0.27408E+01 SP= 0.22E+01 SK= 0.23E-02 mag=     -0.058
       N       E                     dE             d eps       ncg     rms          rms(c)
DAV:   1    -0.321023250265E+02   -0.52355E-01   -0.39673E-02  2608   0.112E+00    0.644E-02
RMM:   2    -0.321036626329E+02   -0.13376E-02   -0.50600E-03  1611   0.301E-01
   1406 T=   838. E= -.27107190E+02 F= -.32103663E+02 E0= -.32061171E+02  EK= 0.28160E+01 SP= 0.22E+01 SK= 0.18E-02 mag=     -0.148
       N       E                     dE             d eps       ncg     rms          rms(c)
DAV:   1    -0.321567907142E+02   -0.54466E-01   -0.23785E-02  2832   0.113E+00    0.601E-02
RMM:   2    -0.321582110339E+02   -0.14203E-02   -0.44456E-03  1591   0.270E-01    0.446E-02
RMM:   3    -0.321587793358E+02   -0.56830E-03   -0.13851E-03  1414   0.110E-01
   1407 T=   859. E= -.27105797E+02 F= -.32158779E+02 E0= -.32115490E+02  EK= 0.28872E+01 SP= 0.22E+01 SK= 0.97E-03 mag=     -0.058
       N       E                     dE             d eps       ncg     rms          rms(c)
DAV:   1    -0.322104224693E+02   -0.52211E-01   -0.29636E-02  2576   0.113E+00    0.726E-02
RMM:   2    -0.322118445152E+02   -0.14220E-02   -0.36318E-03  1563   0.256E-01    0.509E-02
RMM:   3    -0.322122667291E+02   -0.42221E-03   -0.97731E-04  1248   0.979E-02
   1408 T=   878. E= -.27104003E+02 F= -.32212267E+02 E0= -.32168380E+02  EK= 0.29521E+01 SP= 0.22E+01 SK= 0.24E-03 mag=      0.065
       N       E                     dE             d eps       ncg     rms          rms(c)
DAV:   1    -0.322623754300E+02   -0.50531E-01   -0.31354E-02  2728   0.115E+00    0.573E-02
RMM:   2    -0.322636697666E+02   -0.12943E-02   -0.42337E-03  1568   0.272E-01
   1409 T=   896. E= -.27099526E+02 F= -.32263670E+02 E0= -.32219312E+02  EK= 0.30106E+01 SP= 0.22E+01 SK= 0.18E-04 mag=      0.141
       N       E                     dE             d eps       ncg     rms          rms(c)
DAV:   1    -0.323118543435E+02   -0.49479E-01   -0.19438E-02  2376   0.118E+00    0.473E-02
RMM:   2    -0.323131307697E+02   -0.12764E-02   -0.52082E-03  1610   0.293E-01
   1410 T=   909. E= -.27097913E+02 F= -.32313131E+02 E0= -.32268148E+02  EK= 0.30554E+01 SP= 0.22E+01 SK= 0.76E-03 mag=      0.117
       N       E                     dE             d eps       ncg     rms          rms(c)
DAV:   1    -0.323570967671E+02   -0.45242E-01   -0.20922E-02  2560   0.114E+00    0.349E-02
RMM:   2    -0.323583009954E+02   -0.12042E-02   -0.45646E-03  1593   0.306E-01
   1411 T=   918. E= -.27095712E+02 F= -.32358301E+02 E0= -.32312823E+02  EK= 0.30861E+01 SP= 0.22E+01 SK= 0.29E-02 mag=     -0.002
       N       E                     dE             d eps       ncg     rms          rms(c)
DAV:   1    -0.323961128637E+02   -0.39016E-01   -0.28510E-02  2920   0.125E+00    0.551E-02
RMM:   2    -0.323979613720E+02   -0.18485E-02   -0.65773E-03  1637   0.302E-01    0.431E-02
RMM:   3    -0.323986326661E+02   -0.67129E-03   -0.19596E-03  1437   0.121E-01
   1412 T=   923. E= -.27092443E+02 F= -.32398633E+02 E0= -.32352911E+02  EK= 0.31017E+01 SP= 0.22E+01 SK= 0.66E-02 mag=     -0.060
       N       E                     dE             d eps       ncg     rms          rms(c)
DAV:   1    -0.324330435947E+02   -0.35082E-01   -0.21986E-02  2632   0.114E+00    0.524E-02
RMM:   2    -0.324343023858E+02   -0.12588E-02   -0.35344E-03  1551   0.273E-01
   1413 T=   923. E= -.27086885E+02 F= -.32434302E+02 E0= -.32388209E+02  EK= 0.31030E+01 SP= 0.22E+01 SK= 0.12E-01 mag=     -0.036
       N       E                     dE             d eps       ncg     rms          rms(c)
DAV:   1    -0.324621940543E+02   -0.29150E-01   -0.36566E-02  2952   0.126E+00    0.541E-02
RMM:   2    -0.324636259991E+02   -0.14319E-02   -0.43635E-03  1586   0.262E-01    0.374E-02
RMM:   3    -0.324640168125E+02   -0.39081E-03   -0.12161E-03  1375   0.995E-02
   1414 T=   918. E= -.27081316E+02 F= -.32464017E+02 E0= -.32417765E+02  EK= 0.30867E+01 SP= 0.23E+01 SK= 0.19E-01 mag=      0.024
       N       E                     dE             d eps       ncg     rms          rms(c)
DAV:   1    -0.324870908923E+02   -0.23465E-01   -0.14532E-02  1984   0.107E+00    0.544E-02
RMM:   2    -0.324882405234E+02   -0.11496E-02   -0.32673E-03  1563   0.262E-01
   1415 T=   908. E= -.27077163E+02 F= -.32488241E+02 E0= -.32441820E+02  EK= 0.30528E+01 SP= 0.23E+01 SK= 0.26E-01 mag=      0.082
       N       E                     dE             d eps       ncg     rms          rms(c)
DAV:   1    -0.325052554492E+02   -0.18165E-01   -0.30386E-02  2984   0.123E+00    0.428E-02
RMM:   2    -0.325064674787E+02   -0.12120E-02   -0.42758E-03  1565   0.257E-01
   1416 T=   894. E= -.27073123E+02 F= -.32506467E+02 E0= -.32460020E+02  EK= 0.30035E+01 SP= 0.24E+01 SK= 0.34E-01 mag=      0.089
       N       E                     dE             d eps       ncg     rms          rms(c)
DAV:   1    -0.325174654665E+02   -0.12210E-01   -0.15084E-02  2272   0.107E+00    0.453E-02
RMM:   2    -0.325188730356E+02   -0.14076E-02   -0.49418E-03  1570   0.310E-01    0.303E-02
RMM:   3    -0.325192161423E+02   -0.34311E-03   -0.15088E-03  1487   0.120E-01
   1417 T=   875. E= -.27071095E+02 F= -.32519216E+02 E0= -.32472745E+02  EK= 0.29395E+01 SP= 0.25E+01 SK= 0.42E-01 mag=      0.023
       N       E                     dE             d eps       ncg     rms          rms(c)
DAV:   1    -0.325255975697E+02   -0.67245E-02   -0.23833E-02  2496   0.114E+00    0.325E-02
RMM:   2    -0.325266534754E+02   -0.10559E-02   -0.30894E-03  1480   0.257E-01
   1418 T=   854. E= -.27065258E+02 F= -.32526653E+02 E0= -.32480229E+02  EK= 0.28690E+01 SP= 0.25E+01 SK= 0.48E-01 mag=     -0.076
       N       E                     dE             d eps       ncg     rms          rms(c)
DAV:   1    -0.325275170865E+02   -0.19195E-02   -0.21890E-02  2824   0.118E+00    0.482E-02
RMM:   2    -0.325287792136E+02   -0.12621E-02   -0.45159E-03  1562   0.252E-01
   1419 T=   830. E= -.27060155E+02 F= -.32528779E+02 E0= -.32482594E+02  EK= 0.27900E+01 SP= 0.26E+01 SK= 0.52E-01 mag=     -0.127
       N       E                     dE             d eps       ncg     rms          rms(c)
DAV:   1    -0.325262513766E+02    0.12657E-02   -0.16094E-02  2384   0.105E+00    0.440E-02
RMM:   2    -0.325274165384E+02   -0.11652E-02   -0.37637E-03  1571   0.283E-01
   1420 T=   805. E= -.27056768E+02 F= -.32527417E+02 E0= -.32481328E+02  EK= 0.27057E+01 SP= 0.27E+01 SK= 0.54E-01 mag=     -0.088
       N       E                     dE             d eps       ncg     rms          rms(c)
DAV:   1    -0.325215093688E+02    0.47420E-02   -0.24181E-02  2840   0.114E+00    0.335E-02
RMM:   2    -0.325226096168E+02   -0.11002E-02   -0.44399E-03  1571   0.273E-01
   1421 T=   780. E= -.27052893E+02 F= -.32522610E+02 E0= -.32476603E+02  EK= 0.26207E+01 SP= 0.28E+01 SK= 0.53E-01 mag=      0.025
       N       E                     dE             d eps       ncg     rms          rms(c)
DAV:   1    -0.325130705225E+02    0.84388E-02   -0.15223E-02  2544   0.101E+00    0.446E-02
RMM:   2    -0.325142679603E+02   -0.11974E-02   -0.47542E-03  1566   0.295E-01
   1422 T=   755. E= -.27048355E+02 F= -.32514268E+02 E0= -.32468589E+02  EK= 0.25370E+01 SP= 0.29E+01 SK= 0.50E-01 mag=      0.142
       N       E                     dE             d eps       ncg     rms          rms(c)
DAV:   1    -0.325023124956E+02    0.10758E-01   -0.19199E-02  2656   0.109E+00    0.573E-02
RMM:   2    -0.325037438148E+02   -0.14313E-02   -0.47776E-03  1596   0.275E-01    0.448E-02
RMM:   3    -0.325045008746E+02   -0.75706E-03   -0.20211E-03  1411   0.115E-01
   1423 T=   731. E= -.27044358E+02 F= -.32504501E+02 E0= -.32459042E+02  EK= 0.24574E+01 SP= 0.30E+01 SK= 0.44E-01 mag=      0.055
       N       E                     dE             d eps       ncg     rms          rms(c)
DAV:   1    -0.324914641455E+02    0.12280E-01   -0.16488E-02  2576   0.999E-01    0.610E-02
RMM:   2    -0.324926864213E+02   -0.12223E-02   -0.32354E-03  1509   0.240E-01
   1424 T=   710. E= -.27038515E+02 F= -.32492686E+02 E0= -.32447524E+02  EK= 0.23850E+01 SP= 0.30E+01 SK= 0.37E-01 mag=     -0.131
       N       E                     dE             d eps       ncg     rms          rms(c)
DAV:   1    -0.324777017222E+02    0.13762E-01   -0.31131E-02  2880   0.107E+00    0.790E-02
RMM:   2    -0.324794382500E+02   -0.17365E-02   -0.43446E-03  1556   0.247E-01    0.623E-02
RMM:   3    -0.324802416484E+02   -0.80340E-03   -0.13384E-03  1429   0.979E-02
   1425 T=   690. E= -.27033679E+02 F= -.32480242E+02 E0= -.32435474E+02  EK= 0.23193E+01 SP= 0.31E+01 SK= 0.29E-01 mag=     -0.078
       N       E                     dE             d eps       ncg     rms          rms(c)
DAV:   1    -0.324668731521E+02    0.12565E-01   -0.16502E-02  2528   0.944E-01    0.650E-02
RMM:   2    -0.324682709740E+02   -0.13978E-02   -0.40412E-03  1464   0.234E-01    0.498E-02
RMM:   3    -0.324685841055E+02   -0.31313E-03   -0.92112E-04  1268   0.897E-02
   1426 T=   673. E= -.27032072E+02 F= -.32468584E+02 E0= -.32423907E+02  EK= 0.22605E+01 SP= 0.32E+01 SK= 0.20E-01 mag=      0.062
       N       E                     dE             d eps       ncg     rms          rms(c)
DAV:   1    -0.324555197017E+02    0.12751E-01   -0.43007E-02  2600   0.104E+00    0.599E-02
RMM:   2    -0.324566382113E+02   -0.11185E-02   -0.46589E-03  1554   0.284E-01
   1427 T=   659. E= -.27027420E+02 F= -.32456638E+02 E0= -.32412355E+02  EK= 0.22144E+01 SP= 0.32E+01 SK= 0.12E-01 mag=      0.186
       N       E                     dE             d eps       ncg     rms          rms(c)
DAV:   1    -0.324456027581E+02    0.99169E-02   -0.26125E-02  2824   0.975E-01    0.587E-02
RMM:   2    -0.324466150185E+02   -0.10123E-02   -0.38183E-03  1541   0.243E-01
   1428 T=   648. E= -.27024418E+02 F= -.32446615E+02 E0= -.32402598E+02  EK= 0.21788E+01 SP= 0.32E+01 SK= 0.62E-02 mag=      0.175
       N       E                     dE             d eps       ncg     rms          rms(c)
DAV:   1    -0.324381876984E+02    0.74151E-02   -0.12557E-02  2664   0.923E-01    0.259E-02
RMM:   2    -0.324388535638E+02   -0.66587E-03   -0.34255E-03  1529   0.250E-01
   1429 T=   641. E= -.27022808E+02 F= -.32438854E+02 E0= -.32394951E+02  EK= 0.21546E+01 SP= 0.33E+01 SK= 0.19E-02 mag=      0.021
       N       E                     dE             d eps       ncg     rms          rms(c)
DAV:   1    -0.324311816122E+02    0.70061E-02   -0.14624E-02  2576   0.993E-01    0.519E-02
RMM:   2    -0.324321467629E+02   -0.96515E-03   -0.38398E-03  1528   0.242E-01
   1430 T=   638. E= -.27018987E+02 F= -.32432147E+02 E0= -.32388664E+02  EK= 0.21444E+01 SP= 0.33E+01 SK= 0.44E-04 mag=     -0.167
       N       E                     dE             d eps       ncg     rms          rms(c)
DAV:   1    -0.324269783639E+02    0.42032E-02   -0.11401E-02  2624   0.918E-01    0.715E-02
RMM:   2    -0.324282742707E+02   -0.12959E-02   -0.37157E-03  1522   0.252E-01
   1431 T=   639. E= -.27014977E+02 F= -.32428274E+02 E0= -.32385239E+02  EK= 0.21480E+01 SP= 0.33E+01 SK= 0.91E-03 mag=     -0.233
       N       E                     dE             d eps       ncg     rms          rms(c)
DAV:   1    -0.324279243741E+02   -0.94601E-03   -0.11448E-02  2520   0.961E-01    0.386E-02
RMM:   2    -0.324287743857E+02   -0.85001E-03   -0.42258E-03  1589   0.249E-01
   1432 T=   644. E= -.27012228E+02 F= -.32428774E+02 E0= -.32385792E+02  EK= 0.21655E+01 SP= 0.32E+01 SK= 0.44E-02 mag=     -0.107
       N       E                     dE             d eps       ncg     rms          rms(c)
DAV:   1    -0.324305348807E+02   -0.26105E-02   -0.12960E-02  2512   0.916E-01    0.427E-02
RMM:   2    -0.324314399891E+02   -0.90511E-03   -0.46263E-03  1572   0.270E-01
   1433 T=   654. E= -.27008662E+02 F= -.32431440E+02 E0= -.32388683E+02  EK= 0.21965E+01 SP= 0.32E+01 SK= 0.10E-01 mag=      0.126
       N       E                     dE             d eps       ncg     rms          rms(c)
DAV:   1    -0.324342639863E+02   -0.37291E-02   -0.18517E-02  2720   0.971E-01    0.851E-02
RMM:   2    -0.324360245288E+02   -0.17605E-02   -0.47647E-03  1549   0.258E-01    0.658E-02
RMM:   3    -0.324370573152E+02   -0.10328E-02   -0.18975E-03  1410   0.107E-01
   1434 T=   667. E= -.27005569E+02 F= -.32437057E+02 E0= -.32394739E+02  EK= 0.22406E+01 SP= 0.32E+01 SK= 0.18E-01 mag=      0.055
       N       E                     dE             d eps       ncg     rms          rms(c)
DAV:   1    -0.324447212041E+02   -0.86967E-02   -0.21081E-02  2472   0.958E-01    0.755E-02
RMM:   2    -0.324462751374E+02   -0.15539E-02   -0.46547E-03  1526   0.247E-01    0.563E-02
RMM:   3    -0.324467441073E+02   -0.46897E-03   -0.10399E-03  1311   0.897E-02
   1435 T=   684. E= -.27003454E+02 F= -.32446744E+02 E0= -.32404542E+02  EK= 0.22978E+01 SP= 0.31E+01 SK= 0.26E-01 mag=     -0.073
       N       E                     dE             d eps       ncg     rms          rms(c)
DAV:   1    -0.324581787905E+02   -0.11904E-01   -0.48030E-02  2504   0.997E-01    0.579E-02
RMM:   2    -0.324592815676E+02   -0.11028E-02   -0.50376E-03  1566   0.275E-01
   1436 T=   705. E= -.26999597E+02 F= -.32459282E+02 E0= -.32417408E+02  EK= 0.23693E+01 SP= 0.31E+01 SK= 0.34E-01 mag=     -0.168
       N       E                     dE             d eps       ncg     rms          rms(c)
DAV:   1    -0.324740046448E+02   -0.15826E-01   -0.28561E-02  2704   0.999E-01    0.527E-02
RMM:   2    -0.324750307448E+02   -0.10261E-02   -0.41968E-03  1549   0.257E-01
   1437 T=   729. E= -.26997720E+02 F= -.32475031E+02 E0= -.32433353E+02  EK= 0.24509E+01 SP= 0.30E+01 SK= 0.42E-01 mag=     -0.132
       N       E                     dE             d eps       ncg     rms          rms(c)
DAV:   1    -0.324930006213E+02   -0.18996E-01   -0.14631E-02  2592   0.996E-01    0.339E-02
RMM:   2    -0.324937781494E+02   -0.77753E-03   -0.41714E-03  1553   0.272E-01
   1438 T=   757. E= -.26996300E+02 F= -.32493778E+02 E0= -.32452191E+02  EK= 0.25428E+01 SP= 0.29E+01 SK= 0.47E-01 mag=      0.018
       N       E                     dE             d eps       ncg     rms          rms(c)
DAV:   1    -0.325123955530E+02   -0.19395E-01   -0.20531E-02  2584   0.110E+00    0.528E-02
RMM:   2    -0.325136100244E+02   -0.12145E-02   -0.50009E-03  1561   0.279E-01
   1439 T=   787. E= -.26992218E+02 F= -.32513610E+02 E0= -.32472410E+02  EK= 0.26446E+01 SP= 0.28E+01 SK= 0.50E-01 mag=      0.166
       N       E                     dE             d eps       ncg     rms          rms(c)
DAV:   1    -0.325342221094E+02   -0.21827E-01   -0.15434E-02  2624   0.105E+00    0.648E-02
RMM:   2    -0.325356834229E+02   -0.14613E-02   -0.55718E-03  1611   0.288E-01    0.485E-02
RMM:   3    -0.325361867347E+02   -0.50331E-03   -0.13938E-03  1437   0.112E-01
   1440 T=   819. E= -.26990125E+02 F= -.32536187E+02 E0= -.32495184E+02  EK= 0.27514E+01 SP= 0.27E+01 SK= 0.50E-01 mag=      0.067
       N       E                     dE             d eps       ncg     rms          rms(c)
DAV:   1    -0.325579206753E+02   -0.22237E-01   -0.23036E-02  2576   0.110E+00    0.612E-02
RMM:   2    -0.325592921471E+02   -0.13715E-02   -0.39474E-03  1504   0.258E-01    0.468E-02
RMM:   3    -0.325596049670E+02   -0.31282E-03   -0.87583E-04  1232   0.943E-02
   1441 T=   851. E= -.26987262E+02 F= -.32559605E+02 E0= -.32518741E+02  EK= 0.28615E+01 SP= 0.27E+01 SK= 0.46E-01 mag=     -0.072
       N       E                     dE             d eps       ncg     rms          rms(c)
DAV:   1    -0.325818973064E+02   -0.22605E-01   -0.38851E-02  2648   0.112E+00    0.540E-02
RMM:   2    -0.325830593257E+02   -0.11620E-02   -0.52312E-03  1625   0.288E-01
   1442 T=   884. E= -.26982805E+02 F= -.32583059E+02 E0= -.32542415E+02  EK= 0.29718E+01 SP= 0.26E+01 SK= 0.40E-01 mag=     -0.151
       N       E                     dE             d eps       ncg     rms          rms(c)
DAV:   1    -0.326052297507E+02   -0.23332E-01   -0.29808E-02  2816   0.115E+00    0.443E-02
RMM:   2    -0.326063864170E+02   -0.11567E-02   -0.51135E-03  1620   0.283E-01
   1443 T=   915. E= -.26981053E+02 F= -.32606386E+02 E0= -.32565862E+02  EK= 0.30745E+01 SP= 0.25E+01 SK= 0.31E-01 mag=     -0.105
       N       E                     dE             d eps       ncg     rms          rms(c)
DAV:   1    -0.326277969736E+02   -0.22567E-01   -0.19444E-02  2672   0.113E+00    0.299E-02
RMM:   2    -0.326288177753E+02   -0.10208E-02   -0.48489E-03  1608   0.305E-01
   1444 T=   943. E= -.26979228E+02 F= -.32628818E+02 E0= -.32588383E+02  EK= 0.31678E+01 SP= 0.25E+01 SK= 0.22E-01 mag=      0.036
       N       E                     dE             d eps       ncg     rms          rms(c)
DAV:   1    -0.326470084125E+02   -0.19211E-01   -0.26365E-02  2512   0.123E+00    0.496E-02
RMM:   2    -0.326483995150E+02   -0.13911E-02   -0.55737E-03  1631   0.298E-01    0.381E-02
RMM:   3    -0.326488691703E+02   -0.46966E-03   -0.15036E-03  1486   0.119E-01
   1445 T=   967. E= -.26975536E+02 F= -.32648869E+02 E0= -.32608659E+02  EK= 0.32484E+01 SP= 0.24E+01 SK= 0.13E-01 mag=      0.030
       N       E                     dE             d eps       ncg     rms          rms(c)
DAV:   1    -0.326651230046E+02   -0.16723E-01   -0.20728E-02  2536   0.115E+00    0.475E-02
RMM:   2    -0.326663180581E+02   -0.11951E-02   -0.43791E-03  1559   0.270E-01
   1446 T=   986. E= -.26969026E+02 F= -.32666318E+02 E0= -.32626237E+02  EK= 0.33137E+01 SP= 0.24E+01 SK= 0.52E-02 mag=     -0.060
       N       E                     dE             d eps       ncg     rms          rms(c)
DAV:   1    -0.326791489448E+02   -0.14026E-01   -0.35548E-02  2960   0.127E+00    0.513E-02
RMM:   2    -0.326804174246E+02   -0.12685E-02   -0.49886E-03  1639   0.274E-01
   1447 T=   999. E= -.26962578E+02 F= -.32680417E+02 E0= -.32640540E+02  EK= 0.33572E+01 SP= 0.24E+01 SK= 0.80E-03 mag=     -0.129
       N       E                     dE             d eps       ncg     rms          rms(c)
DAV:   1    -0.326896788379E+02   -0.10530E-01   -0.14126E-02  2056   0.112E+00    0.400E-02
RMM:   2    -0.326910215947E+02   -0.13428E-02   -0.63776E-03  1643   0.327E-01
   1448 T=  1004. E= -.26959755E+02 F= -.32691022E+02 E0= -.32651310E+02  EK= 0.33731E+01 SP= 0.24E+01 SK= 0.31E-03 mag=     -0.111
       N       E                     dE             d eps       ncg     rms          rms(c)
DAV:   1    -0.326963597742E+02   -0.66809E-02   -0.30454E-02  2968   0.129E+00    0.388E-02
RMM:   2    -0.326975887197E+02   -0.12289E-02   -0.54403E-03  1625   0.313E-01
   1449 T=  1001. E= -.26955991E+02 F= -.32697589E+02 E0= -.32657999E+02  EK= 0.33648E+01 SP= 0.24E+01 SK= 0.41E-02 mag=     -0.015
       N       E                     dE             d eps       ncg     rms          rms(c)
DAV:   1    -0.326983511424E+02   -0.19914E-02   -0.21406E-02  2752   0.116E+00    0.426E-02
RMM:   2    -0.326997774947E+02   -0.14264E-02   -0.62812E-03  1619   0.333E-01    0.314E-02
RMM:   3    -0.327000985427E+02   -0.32105E-03   -0.14242E-03  1486   0.121E-01
   1450 T=   991. E= -.26952861E+02 F= -.32700099E+02 E0= -.32660694E+02  EK= 0.33313E+01 SP= 0.24E+01 SK= 0.12E-01 mag=      0.028
       N       E                     dE             d eps       ncg     rms          rms(c)
DAV:   1    -0.326969623566E+02    0.28151E-02   -0.25172E-02  2488   0.119E+00    0.449E-02
RMM:   2    -0.326982053911E+02   -0.12430E-02   -0.45932E-03  1566   0.287E-01
   1451 T=   976. E= -.26944867E+02 F= -.32698205E+02 E0= -.32659005E+02  EK= 0.32792E+01 SP= 0.25E+01 SK= 0.23E-01 mag=      0.023
       N       E                     dE             d eps       ncg     rms          rms(c)
DAV:   1    -0.326909677692E+02    0.59946E-02   -0.33520E-02  3072   0.129E+00    0.575E-02
RMM:   2    -0.326922694185E+02   -0.13016E-02   -0.49653E-03  1609   0.280E-01
   1452 T=   954. E= -.26937866E+02 F= -.32692269E+02 E0= -.32653287E+02  EK= 0.32057E+01 SP= 0.25E+01 SK= 0.35E-01 mag=     -0.006
       N       E                     dE             d eps       ncg     rms          rms(c)
DAV:   1    -0.326822520711E+02    0.87157E-02   -0.11546E-02  2136   0.112E+00    0.352E-02
RMM:   2    -0.326834704563E+02   -0.12184E-02   -0.60865E-03  1615   0.331E-01
   1453 T=   926. E= -.26934623E+02 F= -.32683470E+02 E0= -.32644611E+02  EK= 0.31125E+01 SP= 0.26E+01 SK= 0.48E-01 mag=     -0.036
       N       E                     dE             d eps       ncg     rms          rms(c)
DAV:   1    -0.326706250226E+02    0.11627E-01   -0.29411E-02  2992   0.124E+00    0.417E-02
RMM:   2    -0.326717420526E+02   -0.11170E-02   -0.54515E-03  1584   0.298E-01
   1454 T=   895. E= -.26930789E+02 F= -.32671742E+02 E0= -.32633036E+02  EK= 0.30078E+01 SP= 0.27E+01 SK= 0.60E-01 mag=     -0.052
       N       E                     dE             d eps       ncg     rms          rms(c)
DAV:   1    -0.326554190529E+02    0.15206E-01   -0.19611E-02  2736   0.111E+00    0.489E-02
RMM:   2    -0.326568243716E+02   -0.14053E-02   -0.64575E-03  1603   0.326E-01    0.371E-02
RMM:   3    -0.326572554168E+02   -0.43105E-03   -0.16346E-03  1507   0.122E-01
   1455 T=   861. E= -.26927557E+02 F= -.32657255E+02 E0= -.32618745E+02  EK= 0.28945E+01 SP= 0.28E+01 SK= 0.69E-01 mag=     -0.021
       N       E                     dE             d eps       ncg     rms          rms(c)
DAV:   1    -0.326397778923E+02    0.17046E-01   -0.26737E-02  2616   0.112E+00    0.613E-02
RMM:   2    -0.326410907866E+02   -0.13129E-02   -0.43838E-03  1500   0.281E-01
   1456 T=   828. E= -.26920112E+02 F= -.32641091E+02 E0= -.32602716E+02  EK= 0.27823E+01 SP= 0.29E+01 SK= 0.74E-01 mag=      0.046
       N       E                     dE             d eps       ncg     rms          rms(c)
DAV:   1    -0.326221882344E+02    0.17590E-01   -0.38293E-02  2912   0.117E+00    0.700E-02
RMM:   2    -0.326234706903E+02   -0.12825E-02   -0.48949E-03  1574   0.276E-01
   1457 T=   794. E= -.26913332E+02 F= -.32623471E+02 E0= -.32585310E+02  EK= 0.26698E+01 SP= 0.30E+01 SK= 0.76E-01 mag=      0.099
       N       E                     dE             d eps       ncg     rms          rms(c)
DAV:   1    -0.326051979407E+02    0.16990E-01   -0.15074E-02  2440   0.102E+00    0.502E-02
RMM:   2    -0.326062020390E+02   -0.10041E-02   -0.41324E-03  1561   0.287E-01
   1458 T=   761. E= -.26910444E+02 F= -.32606202E+02 E0= -.32568064E+02  EK= 0.25582E+01 SP= 0.31E+01 SK= 0.73E-01 mag=      0.077
       N       E                     dE             d eps       ncg     rms          rms(c)
DAV:   1    -0.325883178068E+02    0.16880E-01   -0.22176E-02  2880   0.112E+00    0.457E-02
RMM:   2    -0.325891325423E+02   -0.81474E-03   -0.44718E-03  1559   0.273E-01
   1459 T=   730. E= -.26907099E+02 F= -.32589133E+02 E0= -.32550958E+02  EK= 0.24544E+01 SP= 0.32E+01 SK= 0.66E-01 mag=     -0.016
       N       E                     dE             d eps       ncg     rms          rms(c)
DAV:   1    -0.325706868922E+02    0.17631E-01   -0.14575E-02  2456   0.997E-01    0.593E-02
RMM:   2    -0.325718580191E+02   -0.11711E-02   -0.47674E-03  1547   0.288E-01
   1460 T=   702. E= -.26902147E+02 F= -.32571858E+02 E0= -.32533879E+02  EK= 0.23606E+01 SP= 0.33E+01 SK= 0.57E-01 mag=     -0.116
       N       E                     dE             d eps       ncg     rms          rms(c)
DAV:   1    -0.325551231175E+02    0.15564E-01   -0.13743E-02  2584   0.104E+00    0.638E-02
RMM:   2    -0.325564482844E+02   -0.13252E-02   -0.53088E-03  1603   0.276E-01
   1461 T=   678. E= -.26896665E+02 F= -.32556448E+02 E0= -.32518608E+02  EK= 0.22791E+01 SP= 0.33E+01 SK= 0.46E-01 mag=     -0.111
       N       E                     dE             d eps       ncg     rms          rms(c)
DAV:   1    -0.325432562181E+02    0.11867E-01   -0.15618E-02  2528   0.982E-01    0.534E-02
RMM:   2    -0.325440531971E+02   -0.79698E-03   -0.48313E-03  1539   0.293E-01
   1462 T=   658. E= -.26892380E+02 F= -.32544053E+02 E0= -.32505982E+02  EK= 0.22102E+01 SP= 0.34E+01 SK= 0.34E-01 mag=     -0.004
       N       E                     dE             d eps       ncg     rms          rms(c)
DAV:   1    -0.325304577000E+02    0.12799E-01   -0.21711E-02  2648   0.977E-01    0.708E-02
RMM:   2    -0.325319595647E+02   -0.15019E-02   -0.57800E-03  1544   0.287E-01    0.526E-02
RMM:   3    -0.325326181943E+02   -0.65863E-03   -0.17603E-03  1485   0.112E-01
   1463 T=   641. E= -.26887886E+02 F= -.32532618E+02 E0= -.32494620E+02  EK= 0.21538E+01 SP= 0.35E+01 SK= 0.22E-01 mag=      0.048
       N       E                     dE             d eps       ncg     rms          rms(c)
DAV:   1    -0.325229105356E+02    0.90490E-02   -0.16693E-02  2464   0.934E-01    0.601E-02
RMM:   2    -0.325240119873E+02   -0.11015E-02   -0.37997E-03  1496   0.235E-01
   1464 T=   628. E= -.26883396E+02 F= -.32524012E+02 E0= -.32485937E+02  EK= 0.21117E+01 SP= 0.35E+01 SK= 0.12E-01 mag=      0.028
       N       E                     dE             d eps       ncg     rms          rms(c)
DAV:   1    -0.325171419554E+02    0.57686E-02   -0.36891E-02  2672   0.993E-01    0.511E-02
RMM:   2    -0.325181013169E+02   -0.95936E-03   -0.43347E-03  1541   0.258E-01
   1465 T=   620. E= -.26879205E+02 F= -.32518101E+02 E0= -.32479942E+02  EK= 0.20839E+01 SP= 0.35E+01 SK= 0.51E-02 mag=     -0.042
       N       E                     dE             d eps       ncg     rms          rms(c)
DAV:   1    -0.325141562609E+02    0.29857E-02   -0.16542E-02  2304   0.872E-01    0.476E-02
RMM:   2    -0.325149386336E+02   -0.78237E-03   -0.38620E-03  1546   0.270E-01
   1466 T=   616. E= -.26875880E+02 F= -.32514939E+02 E0= -.32476801E+02  EK= 0.20697E+01 SP= 0.36E+01 SK= 0.89E-03 mag=     -0.091
       N       E                     dE             d eps       ncg     rms          rms(c)
DAV:   1    -0.325138085046E+02    0.34776E-03   -0.14097E-02  2632   0.994E-01    0.541E-02
RMM:   2    -0.325146879946E+02   -0.87949E-03   -0.42764E-03  1559   0.259E-01
   1467 T=   616. E= -.26871901E+02 F= -.32514688E+02 E0= -.32476512E+02  EK= 0.20709E+01 SP= 0.36E+01 SK= 0.14E-03 mag=     -0.079
       N       E                     dE             d eps       ncg     rms          rms(c)
DAV:   1    -0.325165598845E+02   -0.27514E-02   -0.10070E-02  2272   0.892E-01    0.521E-02
RMM:   2    -0.325175477165E+02   -0.98783E-03   -0.40051E-03  1542   0.257E-01
   1468 T=   621. E= -.26867653E+02 F= -.32517548E+02 E0= -.32479254E+02  EK= 0.20873E+01 SP= 0.36E+01 SK= 0.28E-02 mag=     -0.002
       N       E                     dE             d eps       ncg     rms          rms(c)
DAV:   1    -0.325232538281E+02   -0.66939E-02   -0.15112E-02  2592   0.966E-01    0.491E-02
RMM:   2    -0.325239209935E+02   -0.66717E-03   -0.37541E-03  1544   0.253E-01
   1469 T=   631. E= -.26863401E+02 F= -.32523921E+02 E0= -.32485562E+02  EK= 0.21190E+01 SP= 0.35E+01 SK= 0.86E-02 mag=      0.092
       N       E                     dE             d eps       ncg     rms          rms(c)
DAV:   1    -0.325306714138E+02   -0.74176E-02   -0.18535E-02  2456   0.911E-01    0.713E-02
RMM:   2    -0.325320643609E+02   -0.13929E-02   -0.44817E-03  1538   0.262E-01    0.539E-02
RMM:   3    -0.325327204044E+02   -0.65604E-03   -0.15822E-03  1436   0.104E-01
   1470 T=   644. E= -.26860012E+02 F= -.32532720E+02 E0= -.32494357E+02  EK= 0.21639E+01 SP= 0.35E+01 SK= 0.17E-01 mag=      0.041
       N       E                     dE             d eps       ncg     rms          rms(c)
DAV:   1    -0.325436955523E+02   -0.11631E-01   -0.20930E-02  2464   0.962E-01    0.550E-02
RMM:   2    -0.325446894744E+02   -0.99392E-03   -0.35394E-03  1495   0.239E-01
   1471 T=   662. E= -.26856336E+02 F= -.32544689E+02 E0= -.32506233E+02  EK= 0.22236E+01 SP= 0.34E+01 SK= 0.27E-01 mag=     -0.084
       N       E                     dE             d eps       ncg     rms          rms(c)
DAV:   1    -0.325563559936E+02   -0.12660E-01   -0.40598E-02  2776   0.102E+00    0.716E-02
RMM:   2    -0.325578903349E+02   -0.15343E-02   -0.56482E-03  1617   0.270E-01    0.559E-02
RMM:   3    -0.325584886733E+02   -0.59834E-03   -0.13373E-03  1513   0.105E-01
   1472 T=   683. E= -.26852726E+02 F= -.32558489E+02 E0= -.32520052E+02  EK= 0.22960E+01 SP= 0.34E+01 SK= 0.37E-01 mag=     -0.054
       N       E                     dE             d eps       ncg     rms          rms(c)
DAV:   1    -0.325744242302E+02   -0.16534E-01   -0.19815E-02  2560   0.988E-01    0.590E-02
RMM:   2    -0.325754242578E+02   -0.10000E-02   -0.43249E-03  1439   0.245E-01
   1473 T=   708. E= -.26850751E+02 F= -.32575424E+02 E0= -.32536782E+02  EK= 0.23802E+01 SP= 0.33E+01 SK= 0.47E-01 mag=      0.082
       N       E                     dE             d eps       ncg     rms          rms(c)
DAV:   1    -0.325912257437E+02   -0.16802E-01   -0.35275E-02  2800   0.106E+00    0.841E-02
RMM:   2    -0.325928400491E+02   -0.16143E-02   -0.50128E-03  1536   0.272E-01    0.609E-02
RMM:   3    -0.325939969447E+02   -0.11569E-02   -0.23242E-03  1438   0.113E-01
   1474 T=   737. E= -.26848499E+02 F= -.32593997E+02 E0= -.32555383E+02  EK= 0.24757E+01 SP= 0.32E+01 SK= 0.55E-01 mag=      0.060
       N       E                     dE             d eps       ncg     rms          rms(c)
DAV:   1    -0.326129773774E+02   -0.20137E-01   -0.13950E-02  2288   0.104E+00    0.800E-02
RMM:   2    -0.326142363672E+02   -0.12590E-02   -0.46997E-03  1490   0.287E-01
   1475 T=   768. E= -.26845507E+02 F= -.32614236E+02 E0= -.32575541E+02  EK= 0.25817E+01 SP= 0.31E+01 SK= 0.60E-01 mag=     -0.065
       N       E                     dE             d eps       ncg     rms          rms(c)
DAV:   1    -0.326334975017E+02   -0.20520E-01   -0.36262E-02  2752   0.114E+00    0.936E-02
RMM:   2    -0.326350390167E+02   -0.15415E-02   -0.45078E-03  1541   0.265E-01    0.660E-02
RMM:   3    -0.326357174024E+02   -0.67839E-03   -0.13240E-03  1412   0.104E-01
   1476 T=   802. E= -.26842389E+02 F= -.32635717E+02 E0= -.32597045E+02  EK= 0.26951E+01 SP= 0.30E+01 SK= 0.62E-01 mag=     -0.066
       N       E                     dE             d eps       ncg     rms          rms(c)
DAV:   1    -0.326562464542E+02   -0.21207E-01   -0.17812E-02  2496   0.109E+00    0.103E-01
RMM:   2    -0.326577470925E+02   -0.15006E-02   -0.55044E-03  1539   0.302E-01    0.676E-02
RMM:   3    -0.326581851430E+02   -0.43805E-03   -0.15001E-03  1395   0.116E-01
   1477 T=   836. E= -.26841262E+02 F= -.32658185E+02 E0= -.32619357E+02  EK= 0.28112E+01 SP= 0.29E+01 SK= 0.60E-01 mag=     -0.000
       N       E                     dE             d eps       ncg     rms          rms(c)
DAV:   1    -0.326791605278E+02   -0.21413E-01   -0.46719E-02  2656   0.118E+00    0.530E-02
RMM:   2    -0.326802327386E+02   -0.10722E-02   -0.50658E-03  1568   0.307E-01
   1478 T=   872. E= -.26837664E+02 F= -.32680233E+02 E0= -.32641460E+02  EK= 0.29301E+01 SP= 0.29E+01 SK= 0.54E-01 mag=      0.093
       N       E                     dE             d eps       ncg     rms          rms(c)
DAV:   1    -0.327003918234E+02   -0.21231E-01   -0.43145E-02  2848   0.115E+00    0.656E-02
RMM:   2    -0.327016433997E+02   -0.12516E-02   -0.53000E-03  1584   0.293E-01
   1479 T=   906. E= -.26835787E+02 F= -.32701643E+02 E0= -.32662960E+02  EK= 0.30437E+01 SP= 0.28E+01 SK= 0.45E-01 mag=      0.126
       N       E                     dE             d eps       ncg     rms          rms(c)
DAV:   1    -0.327220336543E+02   -0.21642E-01   -0.15336E-02  2576   0.112E+00    0.437E-02
RMM:   2    -0.327230155272E+02   -0.98187E-03   -0.49356E-03  1577   0.317E-01
   1480 T=   937. E= -.26834521E+02 F= -.32723016E+02 E0= -.32684209E+02  EK= 0.31499E+01 SP= 0.27E+01 SK= 0.34E-01 mag=      0.066
       N       E                     dE             d eps       ncg     rms          rms(c)
DAV:   1    -0.327414029310E+02   -0.19369E-01   -0.23160E-02  2640   0.124E+00    0.432E-02
RMM:   2    -0.327423579087E+02   -0.95498E-03   -0.48635E-03  1570   0.294E-01
   1481 T=   966. E= -.26830712E+02 F= -.32742358E+02 E0= -.32703525E+02  EK= 0.32459E+01 SP= 0.26E+01 SK= 0.22E-01 mag=     -0.060
       N       E                     dE             d eps       ncg     rms          rms(c)
DAV:   1    -0.327572273180E+02   -0.15824E-01   -0.12914E-02  2512   0.115E+00    0.596E-02
RMM:   2    -0.327586866969E+02   -0.14594E-02   -0.58027E-03  1596   0.315E-01    0.448E-02
RMM:   3    -0.327592315819E+02   -0.54488E-03   -0.18175E-03  1447   0.124E-01
   1482 T=   989. E= -.26827688E+02 F= -.32759232E+02 E0= -.32720491E+02  EK= 0.33238E+01 SP= 0.26E+01 SK= 0.12E-01 mag=     -0.065
       N       E                     dE             d eps       ncg     rms          rms(c)
DAV:   1    -0.327728731779E+02   -0.14186E-01   -0.22150E-02  2536   0.123E+00    0.500E-02
RMM:   2    -0.327739562973E+02   -0.10831E-02   -0.44919E-03  1581   0.306E-01
   1483 T=  1007. E= -.26820849E+02 F= -.32773956E+02 E0= -.32735137E+02  EK= 0.33850E+01 SP= 0.26E+01 SK= 0.41E-02 mag=      0.037
       N       E                     dE             d eps       ncg     rms          rms(c)
DAV:   1    -0.327834277108E+02   -0.10555E-01   -0.33733E-02  3016   0.129E+00    0.632E-02
RMM:   2    -0.327847970815E+02   -0.13694E-02   -0.52873E-03  1631   0.280E-01    0.442E-02
RMM:   3    -0.327853759163E+02   -0.57883E-03   -0.14926E-03  1455   0.115E-01
   1484 T=  1018. E= -.26814983E+02 F= -.32785376E+02 E0= -.32746578E+02  EK= 0.34209E+01 SP= 0.25E+01 SK= 0.24E-03 mag=      0.070
       N       E                     dE             d eps       ncg     rms          rms(c)
DAV:   1    -0.327925351622E+02   -0.77381E-02   -0.14434E-02  2168   0.116E+00    0.579E-02
RMM:   2    -0.327935896118E+02   -0.10544E-02   -0.42309E-03  1539   0.289E-01
   1485 T=  1020. E= -.26810473E+02 F= -.32793590E+02 E0= -.32754657E+02  EK= 0.34293E+01 SP= 0.26E+01 SK= 0.12E-02 mag=      0.018
       N       E                     dE             d eps       ncg     rms          rms(c)
DAV:   1    -0.327966513040E+02   -0.41161E-02   -0.29964E-02  3064   0.132E+00    0.551E-02
RMM:   2    -0.327978111664E+02   -0.11599E-02   -0.53743E-03  1620   0.279E-01
   1486 T=  1015. E= -.26805309E+02 F= -.32797811E+02 E0= -.32758859E+02  EK= 0.34112E+01 SP= 0.26E+01 SK= 0.70E-02 mag=     -0.073
       N       E                     dE             d eps       ncg     rms          rms(c)
DAV:   1    -0.327971467005E+02   -0.49540E-03   -0.13581E-02  2304   0.112E+00    0.450E-02
RMM:   2    -0.327984971061E+02   -0.13504E-02   -0.59521E-03  1617   0.347E-01    0.329E-02
RMM:   3    -0.327988524694E+02   -0.35536E-03   -0.15607E-03  1505   0.134E-01
   1487 T=  1001. E= -.26803207E+02 F= -.32798852E+02 E0= -.32759854E+02  EK= 0.33648E+01 SP= 0.26E+01 SK= 0.17E-01 mag=     -0.067
       N       E                     dE             d eps       ncg     rms          rms(c)
DAV:   1    -0.327951161668E+02    0.33809E-02   -0.21172E-02  2528   0.123E+00    0.466E-02
RMM:   2    -0.327961045666E+02   -0.98840E-03   -0.41828E-03  1538   0.283E-01
   1488 T=   982. E= -.26796192E+02 F= -.32796105E+02 E0= -.32756938E+02  EK= 0.32996E+01 SP= 0.27E+01 SK= 0.31E-01 mag=      0.023
       N       E                     dE             d eps       ncg     rms          rms(c)
DAV:   1    -0.327879925777E+02    0.71236E-02   -0.21587E-02  2656   0.125E+00    0.524E-02
RMM:   2    -0.327892174968E+02   -0.12249E-02   -0.54123E-03  1580   0.269E-01
   1489 T=   956. E= -.26789620E+02 F= -.32789217E+02 E0= -.32750022E+02  EK= 0.32132E+01 SP= 0.27E+01 SK= 0.46E-01 mag=      0.108
       N       E                     dE             d eps       ncg     rms          rms(c)
DAV:   1    -0.327789897721E+02    0.90028E-02   -0.16173E-02  2584   0.115E+00    0.515E-02
RMM:   2    -0.327800374130E+02   -0.10476E-02   -0.40906E-03  1583   0.296E-01
   1490 T=   925. E= -.26785888E+02 F= -.32780037E+02 E0= -.32740622E+02  EK= 0.31090E+01 SP= 0.28E+01 SK= 0.60E-01 mag=      0.117
       N       E                     dE             d eps       ncg     rms          rms(c)
DAV:   1    -0.327668116968E+02    0.12178E-01   -0.26380E-02  2968   0.121E+00    0.453E-02
RMM:   2    -0.327678908915E+02   -0.10792E-02   -0.51840E-03  1581   0.296E-01
   1491 T=   891. E= -.26781259E+02 F= -.32767891E+02 E0= -.32728141E+02  EK= 0.29944E+01 SP= 0.29E+01 SK= 0.73E-01 mag=      0.037
       N       E                     dE             d eps       ncg     rms          rms(c)
DAV:   1    -0.327518869057E+02    0.14925E-01   -0.12500E-02  2352   0.106E+00    0.462E-02
RMM:   2    -0.327529347762E+02   -0.10479E-02   -0.49365E-03  1573   0.307E-01
   1492 T=   855. E= -.26776124E+02 F= -.32752935E+02 E0= -.32712982E+02  EK= 0.28733E+01 SP= 0.30E+01 SK= 0.82E-01 mag=     -0.092
       N       E                     dE             d eps       ncg     rms          rms(c)
DAV:   1    -0.327344930309E+02    0.17394E-01   -0.17145E-02  2904   0.112E+00    0.570E-02
RMM:   2    -0.327356948597E+02   -0.12018E-02   -0.43640E-03  1538   0.273E-01
   1493 T=   818. E= -.26770333E+02 F= -.32735695E+02 E0= -.32695624E+02  EK= 0.27505E+01 SP= 0.31E+01 SK= 0.87E-01 mag=     -0.168
       N       E                     dE             d eps       ncg     rms          rms(c)
DAV:   1    -0.327166454397E+02    0.17848E-01   -0.11619E-02  2408   0.106E+00    0.506E-02
RMM:   2    -0.327176229070E+02   -0.97747E-03   -0.46048E-03  1568   0.292E-01
   1494 T=   782. E= -.26765643E+02 F= -.32717623E+02 E0= -.32677104E+02  EK= 0.26290E+01 SP= 0.32E+01 SK= 0.87E-01 mag=     -0.136
       N       E                     dE             d eps       ncg     rms          rms(c)
DAV:   1    -0.326971652985E+02    0.19480E-01   -0.14358E-02  2624   0.106E+00    0.378E-02
RMM:   2    -0.326980628304E+02   -0.89753E-03   -0.49106E-03  1578   0.289E-01
   1495 T=   748. E= -.26760424E+02 F= -.32698063E+02 E0= -.32657028E+02  EK= 0.25128E+01 SP= 0.33E+01 SK= 0.82E-01 mag=      0.002
       N       E                     dE             d eps       ncg     rms          rms(c)
DAV:   1    -0.326757884864E+02    0.21377E-01   -0.13382E-02  2632   0.100E+00    0.563E-02
RMM:   2    -0.326769460088E+02   -0.11575E-02   -0.48767E-03  1567   0.287E-01
   1496 T=   715. E= -.26754827E+02 F= -.32676946E+02 E0= -.32635729E+02  EK= 0.24037E+01 SP= 0.34E+01 SK= 0.73E-01 mag=      0.168
       N       E                     dE             d eps       ncg     rms          rms(c)
DAV:   1    -0.326543424833E+02    0.21446E-01   -0.13879E-02  2552   0.102E+00    0.634E-02
RMM:   2    -0.326556666358E+02   -0.13242E-02   -0.46276E-03  1545   0.273E-01
   1497 T=   686. E= -.26749508E+02 F= -.32655667E+02 E0= -.32614253E+02  EK= 0.23043E+01 SP= 0.35E+01 SK= 0.62E-01 mag=      0.168
       N       E                     dE             d eps       ncg     rms          rms(c)
DAV:   1    -0.326351697304E+02    0.19173E-01   -0.16782E-02  2528   0.973E-01    0.515E-02
RMM:   2    -0.326359817873E+02   -0.81206E-03   -0.48885E-03  1541   0.295E-01
   1498 T=   659. E= -.26745849E+02 F= -.32635982E+02 E0= -.32593675E+02  EK= 0.22161E+01 SP= 0.36E+01 SK= 0.48E-01 mag=      0.002
       N       E                     dE             d eps       ncg     rms          rms(c)
DAV:   1    -0.326126134533E+02    0.22556E-01   -0.23983E-02  2520   0.962E-01    0.770E-02
RMM:   2    -0.326142204331E+02   -0.16070E-02   -0.55907E-03  1555   0.288E-01    0.588E-02
RMM:   3    -0.326150206193E+02   -0.80019E-03   -0.17508E-03  1498   0.113E-01
   1499 T=   637. E= -.26741381E+02 F= -.32615021E+02 E0= -.32572495E+02  EK= 0.21395E+01 SP= 0.37E+01 SK= 0.34E-01 mag=     -0.106
       N       E                     dE             d eps       ncg     rms          rms(c)
DAV:   1    -0.325948600279E+02    0.19360E-01   -0.13980E-02  2448   0.936E-01    0.539E-02
RMM:   2    -0.325956550554E+02   -0.79503E-03   -0.33912E-03  1489   0.244E-01
   1500 T=   618. E= -.26737045E+02 F= -.32595655E+02 E0= -.32552427E+02  EK= 0.20769E+01 SP= 0.38E+01 SK= 0.21E-01 mag=     -0.089
       N       E                     dE             d eps       ncg     rms          rms(c)
DAV:   1    -0.325753837164E+02    0.19476E-01   -0.27401E-02  2672   0.986E-01    0.489E-02
RMM:   2    -0.325763326776E+02   -0.94896E-03   -0.40528E-03  1530   0.252E-01
   1501 T=   603. E= -.26732273E+02 F= -.32576333E+02 E0= -.32532610E+02  EK= 0.20276E+01 SP= 0.38E+01 SK= 0.10E-01 mag=      0.042
       N       E                     dE             d eps       ncg     rms          rms(c)
DAV:   1    -0.325568931379E+02    0.18491E-01   -0.12197E-02  2344   0.852E-01    0.626E-02
RMM:   2    -0.325579046443E+02   -0.10115E-02   -0.37262E-03  1560   0.256E-01
   1502 T=   592. E= -.26728902E+02 F= -.32557905E+02 E0= -.32513927E+02  EK= 0.19907E+01 SP= 0.38E+01 SK= 0.32E-02 mag=      0.160
       N       E                     dE             d eps       ncg     rms          rms(c)
DAV:   1    -0.325406417213E+02    0.16251E-01   -0.14772E-02  2568   0.972E-01    0.478E-02
RMM:   2    -0.325414941069E+02   -0.85239E-03   -0.43167E-03  1530   0.257E-01
   1503 T=   586. E= -.26726100E+02 F= -.32541494E+02 E0= -.32496857E+02  EK= 0.19683E+01 SP= 0.38E+01 SK= 0.66E-04 mag=      0.176
       N       E                     dE             d eps       ncg     rms          rms(c)
DAV:   1    -0.325249339596E+02    0.15708E-01   -0.11790E-02  2408   0.865E-01    0.496E-02
RMM:   2    -0.325258910489E+02   -0.95709E-03   -0.41607E-03  1519   0.261E-01
   1504 T=   583. E= -.26722237E+02 F= -.32525891E+02 E0= -.32480595E+02  EK= 0.19609E+01 SP= 0.38E+01 SK= 0.17E-02 mag=      0.043
       N       E                     dE             d eps       ncg     rms          rms(c)
DAV:   1    -0.325107296394E+02    0.14204E-01   -0.13031E-02  2504   0.938E-01    0.571E-02
RMM:   2    -0.325116134415E+02   -0.88380E-03   -0.35533E-03  1519   0.256E-01
   1505 T=   586. E= -.26717837E+02 F= -.32511613E+02 E0= -.32465992E+02  EK= 0.19685E+01 SP= 0.38E+01 SK= 0.81E-02 mag=     -0.169
       N       E                     dE             d eps       ncg     rms          rms(c)
DAV:   1    -0.324969675764E+02    0.13762E-01   -0.11120E-02  2416   0.870E-01    0.683E-02
RMM:   2    -0.324982982603E+02   -0.13307E-02   -0.44616E-03  1553   0.257E-01
   1506 T=   592. E= -.26713076E+02 F= -.32498298E+02 E0= -.32452440E+02  EK= 0.19907E+01 SP= 0.38E+01 SK= 0.19E-01 mag=     -0.258
       N       E                     dE             d eps       ncg     rms          rms(c)
DAV:   1    -0.324871098577E+02    0.98577E-02   -0.14606E-02  2480   0.912E-01    0.619E-02
RMM:   2    -0.324880093677E+02   -0.89951E-03   -0.45495E-03  1568   0.272E-01
   1507 T=   603. E= -.26710082E+02 F= -.32488009E+02 E0= -.32441172E+02  EK= 0.20275E+01 SP= 0.37E+01 SK= 0.34E-01 mag=     -0.153
       N       E                     dE             d eps       ncg     rms          rms(c)
DAV:   1    -0.324764180608E+02    0.10692E-01   -0.16920E-02  2472   0.878E-01    0.698E-02
RMM:   2    -0.324776418740E+02   -0.12238E-02   -0.47894E-03  1544   0.266E-01
   1508 T=   618. E= -.26706254E+02 F= -.32477642E+02 E0= -.32430434E+02  EK= 0.20785E+01 SP= 0.36E+01 SK= 0.51E-01 mag=      0.111
       N       E                     dE             d eps       ncg     rms          rms(c)
DAV:   1    -0.324663117980E+02    0.10106E-01   -0.13376E-02  2344   0.925E-01    0.855E-02
RMM:   2    -0.324680732980E+02   -0.17615E-02   -0.47236E-03  1541   0.263E-01    0.674E-02
RMM:   3    -0.324690849807E+02   -0.10117E-02   -0.17894E-03  1445   0.108E-01
   1509 T=   638. E= -.26703672E+02 F= -.32469085E+02 E0= -.32421637E+02  EK= 0.21435E+01 SP= 0.36E+01 SK= 0.71E-01 mag=      0.114
       N       E                     dE             d eps       ncg     rms          rms(c)
DAV:   1    -0.324595126801E+02    0.85606E-02   -0.39419E-02  2472   0.942E-01    0.854E-02
RMM:   2    -0.324615604330E+02   -0.20478E-02   -0.56673E-03  1480   0.260E-01    0.659E-02
RMM:   3    -0.324622672826E+02   -0.70685E-03   -0.14216E-03  1394   0.935E-02
   1510 T=   661. E= -.26701646E+02 F= -.32462267E+02 E0= -.32414006E+02  EK= 0.22231E+01 SP= 0.34E+01 SK= 0.90E-01 mag=     -0.063
       N       E                     dE             d eps       ncg     rms          rms(c)
DAV:   1    -0.324546689550E+02    0.68915E-02   -0.72444E-02  2448   0.991E-01    0.683E-02
RMM:   2    -0.324560242230E+02   -0.13553E-02   -0.56033E-03  1531   0.289E-01    0.500E-02
RMM:   3    -0.324565614407E+02   -0.53722E-03   -0.11855E-03  1518   0.106E-01
   1511 T=   689. E= -.26699706E+02 F= -.32456561E+02 E0= -.32407835E+02  EK= 0.23167E+01 SP= 0.33E+01 SK= 0.11E+00 mag=     -0.158
       N       E                     dE             d eps       ncg     rms          rms(c)
DAV:   1    -0.324509188943E+02    0.51053E-02   -0.35519E-02  2456   0.972E-01    0.479E-02
RMM:   2    -0.324516916593E+02   -0.77277E-03   -0.41573E-03  1557   0.260E-01
   1512 T=   721. E= -.26697222E+02 F= -.32451692E+02 E0= -.32402238E+02  EK= 0.24241E+01 SP= 0.32E+01 SK= 0.12E+00 mag=     -0.107
       N       E                     dE             d eps       ncg     rms          rms(c)
DAV:   1    -0.324451512338E+02    0.57677E-02   -0.24842E-02  2848   0.999E-01    0.595E-02
RMM:   2    -0.324463324800E+02   -0.11812E-02   -0.43384E-03  1548   0.245E-01
   1513 T=   757. E= -.26694356E+02 F= -.32446332E+02 E0= -.32396570E+02  EK= 0.25425E+01 SP= 0.31E+01 SK= 0.13E+00 mag=      0.061
       N       E                     dE             d eps       ncg     rms          rms(c)
DAV:   1    -0.324413127383E+02    0.38385E-02   -0.13606E-02  2496   0.995E-01    0.606E-02
RMM:   2    -0.324424078104E+02   -0.10951E-02   -0.42890E-03  1532   0.280E-01
   1514 T=   795. E= -.26692182E+02 F= -.32442408E+02 E0= -.32392300E+02  EK= 0.26712E+01 SP= 0.29E+01 SK= 0.14E+00 mag=      0.223
       N       E                     dE             d eps       ncg     rms          rms(c)
DAV:   1    -0.324375463449E+02    0.37664E-02   -0.19951E-02  2744   0.109E+00    0.496E-02
RMM:   2    -0.324387660970E+02   -0.12198E-02   -0.56421E-03  1604   0.279E-01
   1515 T=   836. E= -.26688656E+02 F= -.32438766E+02 E0= -.32388177E+02  EK= 0.28086E+01 SP= 0.28E+01 SK= 0.13E+00 mag=      0.264
       N       E                     dE             d eps       ncg     rms          rms(c)
DAV:   1    -0.324329351126E+02    0.46112E-02   -0.19617E-02  2520   0.105E+00    0.560E-02
RMM:   2    -0.324343092028E+02   -0.13741E-02   -0.54695E-03  1557   0.307E-01    0.433E-02
RMM:   3    -0.324348885318E+02   -0.57933E-03   -0.17808E-03  1465   0.117E-01
   1516 T=   877. E= -.26686488E+02 F= -.32434889E+02 E0= -.32383689E+02  EK= 0.29481E+01 SP= 0.27E+01 SK= 0.13E+00 mag=      0.044
       N       E                     dE             d eps       ncg     rms          rms(c)
DAV:   1    -0.324284295217E+02    0.58797E-02   -0.20408E-02  2568   0.112E+00    0.594E-02
RMM:   2    -0.324296180652E+02   -0.11885E-02   -0.32346E-03  1466   0.259E-01
   1517 T=   919. E= -.26681239E+02 F= -.32429618E+02 E0= -.32378315E+02  EK= 0.30890E+01 SP= 0.25E+01 SK= 0.11E+00 mag=     -0.292
       N       E                     dE             d eps       ncg     rms          rms(c)
DAV:   1    -0.324199735935E+02    0.84559E-02   -0.30239E-02  3080   0.121E+00    0.943E-02
RMM:   2    -0.324221764710E+02   -0.22029E-02   -0.51387E-03  1579   0.265E-01    0.756E-02
RMM:   3    -0.324237057301E+02   -0.15293E-02   -0.20153E-03  1408   0.114E-01    0.543E-02
RMM:   4    -0.324248420552E+02   -0.11363E-02   -0.22088E-03  1400   0.948E-02
   1518 T=   959. E= -.26678398E+02 F= -.32424842E+02 E0= -.32372824E+02  EK= 0.32227E+01 SP= 0.24E+01 SK= 0.90E-01 mag=     -0.047
       N       E                     dE             d eps       ncg     rms          rms(c)
DAV:   1    -0.324127579736E+02    0.10948E-01   -0.14707E-02  2440   0.112E+00    0.105E-01
RMM:   2    -0.324153271023E+02   -0.25691E-02   -0.62696E-03  1538   0.268E-01    0.819E-02
RMM:   3    -0.324169797869E+02   -0.16527E-02   -0.22820E-03  1400   0.110E-01    0.581E-02
RMM:   4    -0.324180194262E+02   -0.10396E-02   -0.12751E-03  1396   0.776E-02
   1519 T=   994. E= -.26677227E+02 F= -.32418019E+02 E0= -.32365887E+02  EK= 0.33422E+01 SP= 0.23E+01 SK= 0.68E-01 mag=      0.101
       N       E                     dE             d eps       ncg     rms          rms(c)
DAV:   1    -0.324088949554E+02    0.80848E-02   -0.31490E-02  2856   0.124E+00    0.568E-02
RMM:   2    -0.324101164742E+02   -0.12215E-02   -0.44871E-03  1474   0.268E-01
   1520 T=  1026. E= -.26673941E+02 F= -.32410116E+02 E0= -.32357594E+02  EK= 0.34466E+01 SP= 0.22E+01 SK= 0.45E-01 mag=      0.108
       N       E                     dE             d eps       ncg     rms          rms(c)
DAV:   1    -0.323994211564E+02    0.94738E-02   -0.28271E-02  3000   0.122E+00    0.399E-02
RMM:   2    -0.324005982560E+02   -0.11771E-02   -0.46904E-03  1591   0.285E-01
   1521 T=  1049. E= -.26672713E+02 F= -.32400598E+02 E0= -.32347747E+02  EK= 0.35261E+01 SP= 0.22E+01 SK= 0.25E-01 mag=     -0.016
       N       E                     dE             d eps       ncg     rms          rms(c)
DAV:   1    -0.323878463944E+02    0.11575E-01   -0.16447E-02  2304   0.122E+00    0.416E-02
RMM:   2    -0.323891753286E+02   -0.13289E-02   -0.49499E-03  1563   0.305E-01
   1522 T=  1065. E= -.26670580E+02 F= -.32389175E+02 E0= -.32336276E+02  EK= 0.35791E+01 SP= 0.21E+01 SK= 0.99E-02 mag=     -0.186
       N       E                     dE             d eps       ncg     rms          rms(c)
DAV:   1    -0.323743621790E+02    0.13484E-01   -0.26693E-02  2952   0.130E+00    0.530E-02
RMM:   2    -0.323759493334E+02   -0.15872E-02   -0.57273E-03  1585   0.305E-01    0.411E-02
RMM:   3    -0.323763392534E+02   -0.38992E-03   -0.15016E-03  1460   0.115E-01
   1523 T=  1072. E= -.26666580E+02 F= -.32376339E+02 E0= -.32323452E+02  EK= 0.36039E+01 SP= 0.21E+01 SK= 0.15E-02 mag=     -0.158
       N       E                     dE             d eps       ncg     rms          rms(c)
DAV:   1    -0.323609469124E+02    0.15002E-01   -0.21975E-02  2656   0.118E+00    0.466E-02
RMM:   2    -0.323623029190E+02   -0.13560E-02   -0.37747E-03  1536   0.280E-01    0.277E-02
RMM:   3    -0.323624899961E+02   -0.18708E-03   -0.93165E-04  1258   0.998E-02
   1524 T=  1070. E= -.26663186E+02 F= -.32362490E+02 E0= -.32309135E+02  EK= 0.35969E+01 SP= 0.21E+01 SK= 0.55E-03 mag=      0.039
       N       E                     dE             d eps       ncg     rms          rms(c)
DAV:   1    -0.323445783884E+02    0.17725E-01   -0.31359E-02  2896   0.124E+00    0.507E-02
RMM:   2    -0.323458834487E+02   -0.13051E-02   -0.41382E-03  1583   0.272E-01
   1525 T=  1059. E= -.26656768E+02 F= -.32345883E+02 E0= -.32292825E+02  EK= 0.35605E+01 SP= 0.21E+01 SK= 0.70E-02 mag=      0.273
       N       E                     dE             d eps       ncg     rms          rms(c)
DAV:   1    -0.323267565379E+02    0.17822E-01   -0.24647E-02  2928   0.122E+00    0.635E-02
RMM:   2    -0.323284034298E+02   -0.16469E-02   -0.51592E-03  1599   0.281E-01    0.493E-02
RMM:   3    -0.323291140331E+02   -0.71060E-03   -0.14557E-03  1457   0.118E-01
   1526 T=  1039. E= -.26654003E+02 F= -.32329114E+02 E0= -.32276009E+02  EK= 0.34925E+01 SP= 0.22E+01 SK= 0.20E-01 mag=      0.099
       N       E                     dE             d eps       ncg     rms          rms(c)
DAV:   1    -0.323095617021E+02    0.18842E-01   -0.24464E-02  2600   0.118E+00    0.680E-02
RMM:   2    -0.323110776274E+02   -0.15159E-02   -0.36261E-03  1550   0.278E-01    0.492E-02
RMM:   3    -0.323114997380E+02   -0.42211E-03   -0.93195E-04  1131   0.102E-01
   1527 T=  1012. E= -.26650489E+02 F= -.32311500E+02 E0= -.32258311E+02  EK= 0.34003E+01 SP= 0.22E+01 SK= 0.37E-01 mag=     -0.197
       N       E                     dE             d eps       ncg     rms          rms(c)
DAV:   1    -0.322907688369E+02    0.20309E-01   -0.35007E-02  2792   0.119E+00    0.707E-02
RMM:   2    -0.322924306937E+02   -0.16619E-02   -0.49658E-03  1582   0.290E-01    0.567E-02
RMM:   3    -0.322930800937E+02   -0.64940E-03   -0.12664E-03  1454   0.112E-01
   1528 T=   979. E= -.26644446E+02 F= -.32293080E+02 E0= -.32240235E+02  EK= 0.32902E+01 SP= 0.23E+01 SK= 0.56E-01 mag=     -0.210
       N       E                     dE             d eps       ncg     rms          rms(c)
DAV:   1    -0.322751330008E+02    0.17298E-01   -0.14667E-02  2296   0.114E+00    0.436E-02
RMM:   2    -0.322762428232E+02   -0.11098E-02   -0.39424E-03  1575   0.278E-01
   1529 T=   942. E= -.26639826E+02 F= -.32276243E+02 E0= -.32222734E+02  EK= 0.31659E+01 SP= 0.24E+01 SK= 0.75E-01 mag=      0.043
       N       E                     dE             d eps       ncg     rms          rms(c)
DAV:   1    -0.322567699514E+02    0.18363E-01   -0.25914E-02  2888   0.116E+00    0.661E-02
RMM:   2    -0.322581763815E+02   -0.14064E-02   -0.46528E-03  1553   0.273E-01    0.481E-02
RMM:   3    -0.322588820722E+02   -0.70569E-03   -0.13142E-03  1477   0.111E-01
   1530 T=   902. E= -.26635297E+02 F= -.32258882E+02 E0= -.32205875E+02  EK= 0.30320E+01 SP= 0.25E+01 SK= 0.90E-01 mag=      0.195
       N       E                     dE             d eps       ncg     rms          rms(c)
DAV:   1    -0.322423085671E+02    0.15868E-01   -0.14055E-02  2400   0.107E+00    0.471E-02
RMM:   2    -0.322432709212E+02   -0.96235E-03   -0.32156E-03  1551   0.260E-01
   1531 T=   862. E= -.26629941E+02 F= -.32243271E+02 E0= -.32190139E+02  EK= 0.28965E+01 SP= 0.26E+01 SK= 0.10E+00 mag=      0.176
       N       E                     dE             d eps       ncg     rms          rms(c)
DAV:   1    -0.322284902127E+02    0.13818E-01   -0.20151E-02  2488   0.116E+00    0.333E-02
RMM:   2    -0.322293530790E+02   -0.86287E-03   -0.35698E-03  1542   0.244E-01
   1532 T=   822. E= -.26624328E+02 F= -.32229353E+02 E0= -.32176103E+02  EK= 0.27632E+01 SP= 0.27E+01 SK= 0.11E+00 mag=     -0.001
       N       E                     dE             d eps       ncg     rms          rms(c)
DAV:   1    -0.322157805680E+02    0.12710E-01   -0.10316E-02  2416   0.994E-01    0.428E-02
RMM:   2    -0.322168913631E+02   -0.11108E-02   -0.47958E-03  1554   0.299E-01
   1533 T=   784. E= -.26619307E+02 F= -.32216891E+02 E0= -.32164125E+02  EK= 0.26347E+01 SP= 0.29E+01 SK= 0.11E+00 mag=     -0.242
       N       E                     dE             d eps       ncg     rms          rms(c)
DAV:   1    -0.322052315833E+02    0.10549E-01   -0.20100E-02  2824   0.110E+00    0.619E-02
RMM:   2    -0.322065385207E+02   -0.13069E-02   -0.42524E-03  1516   0.265E-01
   1534 T=   748. E= -.26613943E+02 F= -.32206539E+02 E0= -.32154496E+02  EK= 0.25155E+01 SP= 0.30E+01 SK= 0.10E+00 mag=     -0.356
       N       E                     dE             d eps       ncg     rms          rms(c)
DAV:   1    -0.321991681991E+02    0.60634E-02   -0.11977E-02  2352   0.992E-01    0.456E-02
RMM:   2    -0.322001582953E+02   -0.99010E-03   -0.43925E-03  1540   0.292E-01
   1535 T=   716. E= -.26609873E+02 F= -.32200158E+02 E0= -.32147734E+02  EK= 0.24078E+01 SP= 0.31E+01 SK= 0.94E-01 mag=     -0.250
       N       E                     dE             d eps       ncg     rms          rms(c)
DAV:   1    -0.321955274939E+02    0.36407E-02   -0.16431E-02  2824   0.101E+00    0.293E-02
RMM:   2    -0.321962864975E+02   -0.75900E-03   -0.38684E-03  1529   0.266E-01
   1536 T=   688. E= -.26605352E+02 F= -.32196286E+02 E0= -.32143678E+02  EK= 0.23135E+01 SP= 0.32E+01 SK= 0.81E-01 mag=      0.054
       N       E                     dE             d eps       ncg     rms          rms(c)
DAV:   1    -0.321924968048E+02    0.30307E-02   -0.10172E-02  2368   0.959E-01    0.614E-02
RMM:   2    -0.321936624251E+02   -0.11656E-02   -0.41059E-03  1520   0.275E-01
   1537 T=   664. E= -.26599727E+02 F= -.32193662E+02 E0= -.32142133E+02  EK= 0.22328E+01 SP= 0.33E+01 SK= 0.65E-01 mag=      0.376
       N       E                     dE             d eps       ncg     rms          rms(c)
DAV:   1    -0.321927168325E+02   -0.22003E-03   -0.13330E-02  2680   0.101E+00    0.790E-02
RMM:   2    -0.321944074374E+02   -0.16906E-02   -0.53744E-03  1599   0.272E-01    0.644E-02
RMM:   3    -0.321956514329E+02   -0.12440E-02   -0.19935E-03  1411   0.116E-01
   1538 T=   645. E= -.26596111E+02 F= -.32195651E+02 E0= -.32144154E+02  EK= 0.21667E+01 SP= 0.34E+01 SK= 0.50E-01 mag=      0.164
       N       E                     dE             d eps       ncg     rms          rms(c)
DAV:   1    -0.321987521321E+02   -0.43447E-02   -0.16524E-02  2584   0.925E-01    0.755E-02
RMM:   2    -0.322000351871E+02   -0.12831E-02   -0.29704E-03  1452   0.230E-01
   1539 T=   630. E= -.26591690E+02 F= -.32200035E+02 E0= -.32148908E+02  EK= 0.21159E+01 SP= 0.35E+01 SK= 0.34E-01 mag=     -0.410
       N       E                     dE             d eps       ncg     rms          rms(c)
DAV:   1    -0.321972563828E+02    0.14957E-02   -0.30984E-02  2816   0.100E+00    0.158E-01
RMM:   2    -0.322015606168E+02   -0.43042E-02   -0.57289E-03  1512   0.249E-01    0.124E-01
RMM:   3    -0.322071663759E+02   -0.56058E-02   -0.69186E-03  1400   0.151E-01    0.670E-02
RMM:   4    -0.322088477591E+02   -0.16814E-02   -0.34447E-03  1400   0.115E-01    0.273E-02
RMM:   5    -0.322091608409E+02   -0.31308E-03   -0.93479E-04  1373   0.720E-02
   1540 T=   619. E= -.26590027E+02 F= -.32209161E+02 E0= -.32157321E+02  EK= 0.20794E+01 SP= 0.35E+01 SK= 0.21E-01 mag=     -0.025
       N       E                     dE             d eps       ncg     rms          rms(c)
DAV:   1    -0.322075959251E+02    0.12518E-02   -0.16041E-02  2464   0.915E-01    0.162E-01
RMM:   2    -0.322119075028E+02   -0.43116E-02   -0.64070E-03  1427   0.243E-01    0.126E-01
RMM:   3    -0.322158999498E+02   -0.39924E-02   -0.39201E-03  1400   0.112E-01    0.902E-02
RMM:   4    -0.322184655879E+02   -0.25656E-02   -0.28923E-03  1400   0.950E-02    0.480E-02
RMM:   5    -0.322194031660E+02   -0.93758E-03   -0.17455E-03  1404   0.792E-02
   1541 T=   612. E= -.26589168E+02 F= -.32219403E+02 E0= -.32167841E+02  EK= 0.20554E+01 SP= 0.36E+01 SK= 0.11E-01 mag=      0.057
       N       E                     dE             d eps       ncg     rms          rms(c)
DAV:   1    -0.322316088266E+02   -0.13143E-01   -0.11648E-02  2632   0.904E-01    0.499E-02
RMM:   2    -0.322322085705E+02   -0.59974E-03   -0.25819E-03  1466   0.211E-01
   1542 T=   609. E= -.26586574E+02 F= -.32232209E+02 E0= -.32180900E+02  EK= 0.20479E+01 SP= 0.36E+01 SK= 0.36E-02 mag=     -0.107
       N       E                     dE             d eps       ncg     rms          rms(c)
DAV:   1    -0.322460201756E+02   -0.14411E-01   -0.12057E-02  2840   0.101E+00    0.697E-02
RMM:   2    -0.322471086357E+02   -0.10885E-02   -0.31019E-03  1471   0.226E-01
   1543 T=   612. E= -.26583347E+02 F= -.32247109E+02 E0= -.32196606E+02  EK= 0.20553E+01 SP= 0.36E+01 SK= 0.29E-03 mag=     -0.338
       N       E                     dE             d eps       ncg     rms          rms(c)
DAV:   1    -0.322638083647E+02   -0.17788E-01   -0.51473E-03  2080   0.917E-01    0.734E-02
RMM:   2    -0.322650017340E+02   -0.11934E-02   -0.32290E-03  1518   0.256E-01
   1544 T=   618. E= -.26580454E+02 F= -.32265002E+02 E0= -.32215157E+02  EK= 0.20773E+01 SP= 0.36E+01 SK= 0.62E-03 mag=     -0.384
       N       E                     dE             d eps       ncg     rms          rms(c)
DAV:   1    -0.322861340074E+02   -0.22326E-01   -0.12753E-02  2688   0.110E+00    0.446E-02
RMM:   2    -0.322868009794E+02   -0.66697E-03   -0.34798E-03  1522   0.268E-01
   1545 T=   629. E= -.26577463E+02 F= -.32286801E+02 E0= -.32236348E+02  EK= 0.21152E+01 SP= 0.36E+01 SK= 0.42E-02 mag=     -0.177
       N       E                     dE             d eps       ncg     rms          rms(c)
DAV:   1    -0.323080100929E+02   -0.21876E-01   -0.10464E-02  2408   0.917E-01    0.557E-02
RMM:   2    -0.323089519834E+02   -0.94189E-03   -0.38195E-03  1521   0.266E-01
   1546 T=   645. E= -.26572709E+02 F= -.32308952E+02 E0= -.32258713E+02  EK= 0.21667E+01 SP= 0.36E+01 SK= 0.10E-01 mag=      0.177
       N       E                     dE             d eps       ncg     rms          rms(c)
DAV:   1    -0.323303041912E+02   -0.22294E-01   -0.98382E-03  2360   0.101E+00    0.829E-02
RMM:   2    -0.323318860974E+02   -0.15819E-02   -0.43263E-03  1521   0.279E-01    0.667E-02
RMM:   3    -0.323328128398E+02   -0.92674E-03   -0.15312E-03  1456   0.116E-01
   1547 T=   664. E= -.26568936E+02 F= -.32332813E+02 E0= -.32283346E+02  EK= 0.22301E+01 SP= 0.35E+01 SK= 0.18E-01 mag=      0.164
       N       E                     dE             d eps       ncg     rms          rms(c)
DAV:   1    -0.323575600741E+02   -0.25674E-01   -0.17546E-02  2472   0.946E-01    0.666E-02
RMM:   2    -0.323587935099E+02   -0.12334E-02   -0.35967E-03  1436   0.243E-01
   1548 T=   686. E= -.26565348E+02 F= -.32358794E+02 E0= -.32309072E+02  EK= 0.23062E+01 SP= 0.35E+01 SK= 0.27E-01 mag=     -0.134
       N       E                     dE             d eps       ncg     rms          rms(c)
DAV:   1    -0.323797981342E+02   -0.22238E-01   -0.31682E-02  2720   0.106E+00    0.118E-01
RMM:   2    -0.323827178386E+02   -0.29197E-02   -0.55946E-03  1543   0.266E-01    0.906E-02
RMM:   3    -0.323851841903E+02   -0.24664E-02   -0.30043E-03  1406   0.124E-01    0.600E-02
RMM:   4    -0.323864744785E+02   -0.12903E-02   -0.24011E-03  1400   0.950E-02
   1549 T=   712. E= -.26563378E+02 F= -.32386474E+02 E0= -.32336955E+02  EK= 0.23922E+01 SP= 0.34E+01 SK= 0.35E-01 mag=     -0.047
       N       E                     dE             d eps       ncg     rms          rms(c)
DAV:   1    -0.324066193937E+02   -0.21435E-01   -0.12721E-02  2448   0.949E-01    0.125E-01
RMM:   2    -0.324099927626E+02   -0.33734E-02   -0.62586E-03  1409   0.236E-01    0.951E-02
RMM:   3    -0.324125247471E+02   -0.25320E-02   -0.32856E-03  1400   0.103E-01    0.647E-02
RMM:   4    -0.324140692256E+02   -0.15445E-02   -0.24058E-03  1400   0.831E-02    0.269E-02
RMM:   5    -0.324143172499E+02   -0.24802E-03   -0.64592E-04  1313   0.523E-02
   1550 T=   740. E= -.26563166E+02 F= -.32414317E+02 E0= -.32365009E+02  EK= 0.24854E+01 SP= 0.33E+01 SK= 0.42E-01 mag=      0.009
       N       E                     dE             d eps       ncg     rms          rms(c)
DAV:   1    -0.324411580750E+02   -0.27089E-01   -0.12644E-02  2680   0.102E+00    0.500E-02
RMM:   2    -0.324419908499E+02   -0.83277E-03   -0.31551E-03  1416   0.230E-01
   1551 T=   770. E= -.26560227E+02 F= -.32441991E+02 E0= -.32393101E+02  EK= 0.25885E+01 SP= 0.32E+01 SK= 0.46E-01 mag=      0.040
       N       E                     dE             d eps       ncg     rms          rms(c)
DAV:   1    -0.324682350467E+02   -0.27077E-01   -0.13875E-02  2768   0.107E+00    0.660E-02
RMM:   2    -0.324695093785E+02   -0.12743E-02   -0.44450E-03  1497   0.249E-01
   1552 T=   802. E= -.26557657E+02 F= -.32469509E+02 E0= -.32421059E+02  EK= 0.26965E+01 SP= 0.32E+01 SK= 0.47E-01 mag=      0.054
       N       E                     dE             d eps       ncg     rms          rms(c)
DAV:   1    -0.324964469925E+02   -0.28212E-01   -0.71836E-03  2064   0.103E+00    0.544E-02
RMM:   2    -0.324975334625E+02   -0.10865E-02   -0.34121E-03  1529   0.257E-01
   1553 T=   835. E= -.26556052E+02 F= -.32497533E+02 E0= -.32449353E+02  EK= 0.28070E+01 SP= 0.31E+01 SK= 0.45E-01 mag=      0.044
       N       E                     dE             d eps       ncg     rms          rms(c)
DAV:   1    -0.325242962664E+02   -0.27849E-01   -0.16943E-02  2840   0.115E+00    0.410E-02
RMM:   2    -0.325252301540E+02   -0.93389E-03   -0.49277E-03  1565   0.287E-01
   1554 T=   868. E= -.26552911E+02 F= -.32525230E+02 E0= -.32477237E+02  EK= 0.29188E+01 SP= 0.30E+01 SK= 0.41E-01 mag=     -0.001
       N       E                     dE             d eps       ncg     rms          rms(c)
DAV:   1    -0.325476408163E+02   -0.23345E-01   -0.19258E-02  2568   0.106E+00    0.773E-02
RMM:   2    -0.325494724565E+02   -0.18316E-02   -0.60976E-03  1569   0.315E-01    0.560E-02
RMM:   3    -0.325504728001E+02   -0.10003E-02   -0.21818E-03  1439   0.125E-01
   1555 T=   900. E= -.26549520E+02 F= -.32550473E+02 E0= -.32503005E+02  EK= 0.30253E+01 SP= 0.29E+01 SK= 0.33E-01 mag=     -0.072
       N       E                     dE             d eps       ncg     rms          rms(c)
DAV:   1    -0.325735366617E+02   -0.24064E-01   -0.19762E-02  2624   0.111E+00    0.534E-02
RMM:   2    -0.325746691681E+02   -0.11325E-02   -0.36412E-03  1509   0.268E-01
   1556 T=   930. E= -.26544444E+02 F= -.32574669E+02 E0= -.32527402E+02  EK= 0.31256E+01 SP= 0.29E+01 SK= 0.24E-01 mag=     -0.081
       N       E                     dE             d eps       ncg     rms          rms(c)
DAV:   1    -0.325940236390E+02   -0.20487E-01   -0.33596E-02  2976   0.119E+00    0.591E-02
RMM:   2    -0.325955089735E+02   -0.14853E-02   -0.53915E-03  1553   0.277E-01    0.431E-02
RMM:   3    -0.325961128268E+02   -0.60385E-03   -0.14920E-03  1508   0.107E-01
   1557 T=   956. E= -.26540027E+02 F= -.32596113E+02 E0= -.32549236E+02  EK= 0.32119E+01 SP= 0.28E+01 SK= 0.15E-01 mag=      0.031
       N       E                     dE             d eps       ncg     rms          rms(c)
DAV:   1    -0.326134893581E+02   -0.17980E-01   -0.14705E-02  2536   0.110E+00    0.606E-02
RMM:   2    -0.326147336577E+02   -0.12443E-02   -0.41960E-03  1446   0.257E-01
   1558 T=   976. E= -.26535883E+02 F= -.32614734E+02 E0= -.32568226E+02  EK= 0.32811E+01 SP= 0.28E+01 SK= 0.73E-02 mag=      0.151
       N       E                     dE             d eps       ncg     rms          rms(c)
DAV:   1    -0.326284052522E+02   -0.14916E-01   -0.28870E-02  2912   0.123E+00    0.671E-02
RMM:   2    -0.326298908480E+02   -0.14856E-02   -0.48586E-03  1552   0.270E-01    0.467E-02
RMM:   3    -0.326304590131E+02   -0.56817E-03   -0.14060E-03  1494   0.109E-01
   1559 T=   991. E= -.26531639E+02 F= -.32630459E+02 E0= -.32584254E+02  EK= 0.33303E+01 SP= 0.28E+01 SK= 0.19E-02 mag=      0.050
       N       E                     dE             d eps       ncg     rms          rms(c)
DAV:   1    -0.326404593762E+02   -0.10569E-01   -0.10527E-02  2000   0.109E+00    0.701E-02
RMM:   2    -0.326419355784E+02   -0.14762E-02   -0.42975E-03  1517   0.278E-01    0.474E-02
RMM:   3    -0.326423426866E+02   -0.40711E-03   -0.11875E-03  1387   0.110E-01
   1560 T=   998. E= -.26528420E+02 F= -.32642343E+02 E0= -.32596485E+02  EK= 0.33554E+01 SP= 0.28E+01 SK= 0.22E-06 mag=     -0.052
       N       E                     dE             d eps       ncg     rms          rms(c)
DAV:   1    -0.326492551000E+02   -0.73195E-02   -0.28641E-02  2712   0.116E+00    0.417E-02
RMM:   2    -0.326503293817E+02   -0.10743E-02   -0.44672E-03  1551   0.282E-01
   1561 T=  1000. E= -.26522199E+02 F= -.32650329E+02 E0= -.32604817E+02  EK= 0.33591E+01 SP= 0.28E+01 SK= 0.21E-02 mag=     -0.107
       N       E                     dE             d eps       ncg     rms          rms(c)
DAV:   1    -0.326533304635E+02   -0.40754E-02   -0.28108E-02  2776   0.118E+00    0.346E-02
RMM:   2    -0.326543466136E+02   -0.10162E-02   -0.47219E-03  1547   0.274E-01
   1562 T=   993. E= -.26517940E+02 F= -.32654347E+02 E0= -.32609097E+02  EK= 0.33364E+01 SP= 0.28E+01 SK= 0.82E-02 mag=     -0.076
       N       E                     dE             d eps       ncg     rms          rms(c)
DAV:   1    -0.326530839630E+02    0.24650E-03   -0.12440E-02  2544   0.111E+00    0.267E-02
RMM:   2    -0.326540517994E+02   -0.96784E-03   -0.48323E-03  1576   0.302E-01
   1563 T=   979. E= -.26512399E+02 F= -.32654052E+02 E0= -.32609040E+02  EK= 0.32913E+01 SP= 0.28E+01 SK= 0.18E-01 mag=      0.024
       N       E                     dE             d eps       ncg     rms          rms(c)
DAV:   1    -0.326482466700E+02    0.48373E-02   -0.19255E-02  2592   0.121E+00    0.364E-02
RMM:   2    -0.326493205451E+02   -0.10739E-02   -0.47424E-03  1543   0.285E-01
   1564 T=   960. E= -.26504973E+02 F= -.32649321E+02 E0= -.32604639E+02  EK= 0.32265E+01 SP= 0.29E+01 SK= 0.29E-01 mag=      0.113
       N       E                     dE             d eps       ncg     rms          rms(c)
DAV:   1    -0.326399737749E+02    0.82729E-02   -0.91515E-03  2560   0.109E+00    0.376E-02
RMM:   2    -0.326409499349E+02   -0.97616E-03   -0.43130E-03  1538   0.291E-01
   1565 T=   935. E= -.26498581E+02 F= -.32640950E+02 E0= -.32596507E+02  EK= 0.31428E+01 SP= 0.30E+01 SK= 0.42E-01 mag=      0.126
       N       E                     dE             d eps       ncg     rms          rms(c)
DAV:   1    -0.326277062578E+02    0.12268E-01   -0.12955E-02  2272   0.115E+00    0.296E-02
RMM:   2    -0.326286716163E+02   -0.96536E-03   -0.51268E-03  1616   0.294E-01
   1566 T=   906. E= -.26491068E+02 F= -.32628672E+02 E0= -.32584353E+02  EK= 0.30458E+01 SP= 0.30E+01 SK= 0.54E-01 mag=      0.043
       N       E                     dE             d eps       ncg     rms          rms(c)
DAV:   1    -0.326116111259E+02    0.16095E-01   -0.14541E-02  2488   0.108E+00    0.329E-02
RMM:   2    -0.326125681012E+02   -0.95698E-03   -0.46282E-03  1547   0.301E-01
   1567 T=   874. E= -.26483865E+02 F= -.32612568E+02 E0= -.32568451E+02  EK= 0.29379E+01 SP= 0.31E+01 SK= 0.64E-01 mag=     -0.090
       N       E                     dE             d eps       ncg     rms          rms(c)
DAV:   1    -0.325921617783E+02    0.19449E-01   -0.13784E-02  2600   0.110E+00    0.486E-02
RMM:   2    -0.325932889135E+02   -0.11271E-02   -0.46105E-03  1536   0.284E-01
   1568 T=   840. E= -.26476423E+02 F= -.32593289E+02 E0= -.32549472E+02  EK= 0.28242E+01 SP= 0.32E+01 SK= 0.71E-01 mag=     -0.144
       N       E                     dE             d eps       ncg     rms          rms(c)
DAV:   1    -0.325712463631E+02    0.20915E-01   -0.12880E-02  2560   0.107E+00    0.412E-02
RMM:   2    -0.325721666854E+02   -0.92032E-03   -0.50345E-03  1595   0.304E-01
   1569 T=   806. E= -.26469246E+02 F= -.32572167E+02 E0= -.32528377E+02  EK= 0.27089E+01 SP= 0.33E+01 SK= 0.74E-01 mag=     -0.087
       N       E                     dE             d eps       ncg     rms          rms(c)
DAV:   1    -0.325474771300E+02    0.23769E-01   -0.15195E-02  2616   0.106E+00    0.414E-02
RMM:   2    -0.325484698743E+02   -0.99274E-03   -0.54422E-03  1597   0.304E-01
   1570 T=   772. E= -.26462077E+02 F= -.32548470E+02 E0= -.32504759E+02  EK= 0.25948E+01 SP= 0.34E+01 SK= 0.72E-01 mag=      0.045
       N       E                     dE             d eps       ncg     rms          rms(c)
DAV:   1    -0.325220074152E+02    0.25470E-01   -0.11391E-02  2256   0.103E+00    0.458E-02
RMM:   2    -0.325229825623E+02   -0.97515E-03   -0.42859E-03  1527   0.293E-01
   1571 T=   739. E= -.26455237E+02 F= -.32522983E+02 E0= -.32479518E+02  EK= 0.24848E+01 SP= 0.35E+01 SK= 0.67E-01 mag=      0.163
       N       E                     dE             d eps       ncg     rms          rms(c)
DAV:   1    -0.324955781039E+02    0.26429E-01   -0.10645E-02  2432   0.105E+00    0.500E-02
RMM:   2    -0.324965837014E+02   -0.10056E-02   -0.48519E-03  1589   0.287E-01
   1572 T=   709. E= -.26447786E+02 F= -.32496584E+02 E0= -.32453311E+02  EK= 0.23828E+01 SP= 0.36E+01 SK= 0.58E-01 mag=      0.149
       N       E                     dE             d eps       ncg     rms          rms(c)
DAV:   1    -0.324693425102E+02    0.26236E-01   -0.14557E-02  2544   0.101E+00    0.434E-02
RMM:   2    -0.324701590182E+02   -0.81651E-03   -0.46408E-03  1558   0.306E-01
   1573 T=   681. E= -.26441124E+02 F= -.32470159E+02 E0= -.32426765E+02  EK= 0.22899E+01 SP= 0.37E+01 SK= 0.47E-01 mag=      0.011
       N       E                     dE             d eps       ncg     rms          rms(c)
DAV:   1    -0.324419111909E+02    0.27431E-01   -0.14346E-02  2480   0.980E-01    0.584E-02
RMM:   2    -0.324429442222E+02   -0.10330E-02   -0.42580E-03  1525   0.277E-01
   1574 T=   657. E= -.26434713E+02 F= -.32442944E+02 E0= -.32399732E+02  EK= 0.22068E+01 SP= 0.38E+01 SK= 0.35E-01 mag=     -0.141
       N       E                     dE             d eps       ncg     rms          rms(c)
DAV:   1    -0.324153037587E+02    0.26607E-01   -0.10509E-02  2352   0.972E-01    0.615E-02
RMM:   2    -0.324163207581E+02   -0.10170E-02   -0.46156E-03  1575   0.282E-01
   1575 T=   636. E= -.26428584E+02 F= -.32416321E+02 E0= -.32373331E+02  EK= 0.21359E+01 SP= 0.38E+01 SK= 0.23E-01 mag=     -0.215
       N       E                     dE             d eps       ncg     rms          rms(c)
DAV:   1    -0.323896269515E+02    0.25677E-01   -0.13582E-02  2512   0.945E-01    0.599E-02
RMM:   2    -0.323906502915E+02   -0.10233E-02   -0.45146E-03  1545   0.282E-01
   1576 T=   618. E= -.26422889E+02 F= -.32390650E+02 E0= -.32347665E+02  EK= 0.20776E+01 SP= 0.39E+01 SK= 0.13E-01 mag=     -0.146
       N       E                     dE             d eps       ncg     rms          rms(c)
DAV:   1    -0.323659433122E+02    0.23684E-01   -0.11804E-02  2424   0.937E-01    0.530E-02
RMM:   2    -0.323668132728E+02   -0.86996E-03   -0.41481E-03  1539   0.275E-01
   1577 T=   605. E= -.26418021E+02 F= -.32366813E+02 E0= -.32323669E+02  EK= 0.20328E+01 SP= 0.39E+01 SK= 0.49E-02 mag=      0.038
       N       E                     dE             d eps       ncg     rms          rms(c)
DAV:   1    -0.323426851021E+02    0.23258E-01   -0.12096E-02  2400   0.924E-01    0.694E-02
RMM:   2    -0.323438377112E+02   -0.11526E-02   -0.48698E-03  1568   0.278E-01
   1578 T=   596. E= -.26412139E+02 F= -.32343838E+02 E0= -.32300984E+02  EK= 0.20026E+01 SP= 0.39E+01 SK= 0.61E-03 mag=      0.208
       N       E                     dE             d eps       ncg     rms          rms(c)
DAV:   1    -0.323214677860E+02    0.21217E-01   -0.14663E-02  2448   0.931E-01    0.758E-02
RMM:   2    -0.323227964484E+02   -0.13287E-02   -0.49767E-03  1551   0.285E-01
   1579 T=   591. E= -.26406743E+02 F= -.32322796E+02 E0= -.32280160E+02  EK= 0.19865E+01 SP= 0.39E+01 SK= 0.50E-03 mag=      0.256
       N       E                     dE             d eps       ncg     rms          rms(c)
DAV:   1    -0.323032103159E+02    0.18257E-01   -0.14374E-02  2472   0.908E-01    0.754E-02
RMM:   2    -0.323045796687E+02   -0.13694E-02   -0.46924E-03  1552   0.273E-01    0.548E-02
RMM:   3    -0.323053117008E+02   -0.73203E-03   -0.16325E-03  1464   0.109E-01
   1580 T=   590. E= -.26404092E+02 F= -.32305312E+02 E0= -.32262326E+02  EK= 0.19841E+01 SP= 0.39E+01 SK= 0.49E-02 mag=      0.080
       N       E                     dE             d eps       ncg     rms          rms(c)
DAV:   1    -0.322875122671E+02    0.17067E-01   -0.14440E-02  2520   0.896E-01    0.783E-02
RMM:   2    -0.322888321267E+02   -0.13199E-02   -0.44280E-03  1495   0.231E-01
   1581 T=   594. E= -.26399547E+02 F= -.32288832E+02 E0= -.32246050E+02  EK= 0.19976E+01 SP= 0.39E+01 SK= 0.14E-01 mag=     -0.175
       N       E                     dE             d eps       ncg     rms          rms(c)
DAV:   1    -0.322719859104E+02    0.15526E-01   -0.32201E-02  2568   0.981E-01    0.939E-02
RMM:   2    -0.322742562966E+02   -0.22704E-02   -0.53469E-03  1547   0.270E-01    0.773E-02
RMM:   3    -0.322757409196E+02   -0.14846E-02   -0.20864E-03  1403   0.111E-01    0.540E-02
RMM:   4    -0.322770743863E+02   -0.13335E-02   -0.30986E-03  1423   0.105E-01
   1582 T=   603. E= -.26397843E+02 F= -.32277074E+02 E0= -.32233896E+02  EK= 0.20260E+01 SP= 0.38E+01 SK= 0.27E-01 mag=     -0.046
       N       E                     dE             d eps       ncg     rms          rms(c)
DAV:   1    -0.322621971735E+02    0.13544E-01   -0.17716E-02  2488   0.879E-01    0.956E-02
RMM:   2    -0.322643771611E+02   -0.21800E-02   -0.60372E-03  1540   0.234E-01    0.762E-02
RMM:   3    -0.322656223509E+02   -0.12452E-02   -0.20308E-03  1400   0.947E-02
   1583 T=   616. E= -.26395225E+02 F= -.32265622E+02 E0= -.32222916E+02  EK= 0.20687E+01 SP= 0.38E+01 SK= 0.43E-01 mag=      0.167
       N       E                     dE             d eps       ncg     rms          rms(c)
DAV:   1    -0.322574419791E+02    0.69352E-02   -0.29400E-02  2472   0.961E-01    0.870E-02
RMM:   2    -0.322586783738E+02   -0.12364E-02   -0.35394E-03  1484   0.257E-01
   1584 T=   634. E= -.26392274E+02 F= -.32258678E+02 E0= -.32216070E+02  EK= 0.21296E+01 SP= 0.37E+01 SK= 0.61E-01 mag=      0.311
       N       E                     dE             d eps       ncg     rms          rms(c)
DAV:   1    -0.322543685000E+02    0.30735E-02   -0.20144E-02  2536   0.960E-01    0.613E-02
RMM:   2    -0.322555264482E+02   -0.11579E-02   -0.38647E-03  1522   0.253E-01
   1585 T=   657. E= -.26390413E+02 F= -.32255526E+02 E0= -.32212563E+02  EK= 0.22064E+01 SP= 0.36E+01 SK= 0.79E-01 mag=      0.225
       N       E                     dE             d eps       ncg     rms          rms(c)
DAV:   1    -0.322549527722E+02   -0.58427E-03   -0.95654E-03  2504   0.925E-01    0.364E-02
RMM:   2    -0.322556205483E+02   -0.66778E-03   -0.37633E-03  1506   0.255E-01
   1586 T=   684. E= -.26388474E+02 F= -.32255621E+02 E0= -.32212197E+02  EK= 0.22996E+01 SP= 0.35E+01 SK= 0.97E-01 mag=     -0.061
       N       E                     dE             d eps       ncg     rms          rms(c)
DAV:   1    -0.322540068574E+02    0.94591E-03   -0.13959E-02  2640   0.103E+00    0.856E-02
RMM:   2    -0.322559214945E+02   -0.19146E-02   -0.53415E-03  1510   0.272E-01    0.699E-02
RMM:   3    -0.322571468198E+02   -0.12253E-02   -0.21299E-03  1431   0.114E-01
   1587 T=   717. E= -.26384180E+02 F= -.32257147E+02 E0= -.32214087E+02  EK= 0.24090E+01 SP= 0.34E+01 SK= 0.11E+00 mag=     -0.091
       N       E                     dE             d eps       ncg     rms          rms(c)
DAV:   1    -0.322628861772E+02   -0.69647E-02   -0.23496E-02  2496   0.995E-01    0.504E-02
RMM:   2    -0.322637283488E+02   -0.84217E-03   -0.33057E-03  1493   0.250E-01
   1588 T=   754. E= -.26381016E+02 F= -.32263728E+02 E0= -.32220165E+02  EK= 0.25338E+01 SP= 0.32E+01 SK= 0.12E+00 mag=      0.095
       N       E                     dE             d eps       ncg     rms          rms(c)
DAV:   1    -0.322680145210E+02   -0.51283E-02   -0.38881E-02  2600   0.110E+00    0.920E-02
RMM:   2    -0.322699318608E+02   -0.19173E-02   -0.58103E-03  1558   0.292E-01    0.689E-02
RMM:   3    -0.322715841341E+02   -0.16523E-02   -0.24999E-03  1458   0.130E-01    0.435E-02
RMM:   4    -0.322722333243E+02   -0.64919E-03   -0.13161E-03  1392   0.856E-02
   1589 T=   795. E= -.26377731E+02 F= -.32272233E+02 E0= -.32228504E+02  EK= 0.26704E+01 SP= 0.31E+01 SK= 0.13E+00 mag=      0.033
       N       E                     dE             d eps       ncg     rms          rms(c)
DAV:   1    -0.322804500083E+02   -0.88659E-02   -0.12420E-02  2568   0.101E+00    0.808E-02
RMM:   2    -0.322817979589E+02   -0.13480E-02   -0.45219E-03  1473   0.248E-01
   1590 T=   838. E= -.26373765E+02 F= -.32281798E+02 E0= -.32238156E+02  EK= 0.28159E+01 SP= 0.30E+01 SK= 0.12E+00 mag=     -0.155
       N       E                     dE             d eps       ncg     rms          rms(c)
DAV:   1    -0.322918842636E+02   -0.11434E-01   -0.37028E-02  2752   0.119E+00    0.956E-02
RMM:   2    -0.322938770825E+02   -0.19928E-02   -0.51740E-03  1595   0.300E-01    0.709E-02
RMM:   3    -0.322950177185E+02   -0.11406E-02   -0.15336E-03  1435   0.121E-01
   1591 T=   883. E= -.26370978E+02 F= -.32295018E+02 E0= -.32251394E+02  EK= 0.29676E+01 SP= 0.28E+01 SK= 0.11E+00 mag=     -0.084
       N       E                     dE             d eps       ncg     rms          rms(c)
DAV:   1    -0.323077430421E+02   -0.13866E-01   -0.22088E-02  2592   0.114E+00    0.854E-02
RMM:   2    -0.323096134104E+02   -0.18704E-02   -0.62040E-03  1451   0.314E-01    0.620E-02
RMM:   3    -0.323103970480E+02   -0.78364E-03   -0.17793E-03  1400   0.119E-01
   1592 T=   928. E= -.26369184E+02 F= -.32310397E+02 E0= -.32266362E+02  EK= 0.31198E+01 SP= 0.27E+01 SK= 0.98E-01 mag=      0.088
       N       E                     dE             d eps       ncg     rms          rms(c)
DAV:   1    -0.323247332884E+02   -0.15120E-01   -0.51373E-02  2552   0.121E+00    0.679E-02
RMM:   2    -0.323262138911E+02   -0.14806E-02   -0.59329E-03  1579   0.335E-01    0.507E-02
RMM:   3    -0.323267375299E+02   -0.52364E-03   -0.13485E-03  1505   0.123E-01
   1593 T=   973. E= -.26365476E+02 F= -.32326738E+02 E0= -.32282666E+02  EK= 0.32689E+01 SP= 0.26E+01 SK= 0.78E-01 mag=      0.140
       N       E                     dE             d eps       ncg     rms          rms(c)
DAV:   1    -0.323436019539E+02   -0.17388E-01   -0.21115E-02  2560   0.118E+00    0.349E-02
RMM:   2    -0.323445486416E+02   -0.94669E-03   -0.47384E-03  1573   0.300E-01
   1594 T=  1014. E= -.26360800E+02 F= -.32344549E+02 E0= -.32300019E+02  EK= 0.34085E+01 SP= 0.25E+01 SK= 0.55E-01 mag=      0.043
       N       E                     dE             d eps       ncg     rms          rms(c)
DAV:   1    -0.323594990396E+02   -0.15897E-01   -0.22751E-02  2968   0.124E+00    0.560E-02
RMM:   2    -0.323610317440E+02   -0.15327E-02   -0.63356E-03  1604   0.311E-01    0.411E-02
RMM:   3    -0.323616290791E+02   -0.59734E-03   -0.17358E-03  1504   0.127E-01
   1595 T=  1050. E= -.26356970E+02 F= -.32361629E+02 E0= -.32317072E+02  EK= 0.35282E+01 SP= 0.24E+01 SK= 0.33E-01 mag=     -0.056
       N       E                     dE             d eps       ncg     rms          rms(c)
DAV:   1    -0.323775707578E+02   -0.16539E-01   -0.19059E-02  2640   0.123E+00    0.483E-02
RMM:   2    -0.323786992626E+02   -0.11285E-02   -0.31871E-03  1540   0.277E-01
   1596 T=  1079. E= -.26351486E+02 F= -.32378699E+02 E0= -.32333938E+02  EK= 0.36252E+01 SP= 0.24E+01 SK= 0.15E-01 mag=     -0.095
       N       E                     dE             d eps       ncg     rms          rms(c)
DAV:   1    -0.323934216879E+02   -0.15851E-01   -0.29253E-02  3064   0.132E+00    0.533E-02
RMM:   2    -0.323948112279E+02   -0.13895E-02   -0.49560E-03  1545   0.284E-01    0.356E-02
RMM:   3    -0.323952349240E+02   -0.42370E-03   -0.13568E-03  1474   0.111E-01
   1597 T=  1099. E= -.26345445E+02 F= -.32395235E+02 E0= -.32350282E+02  EK= 0.36924E+01 SP= 0.24E+01 SK= 0.32E-02 mag=     -0.017
       N       E                     dE             d eps       ncg     rms          rms(c)
DAV:   1    -0.324092547868E+02   -0.14444E-01   -0.11907E-02  2040   0.118E+00    0.466E-02
RMM:   2    -0.324104440455E+02   -0.11893E-02   -0.39604E-03  1597   0.296E-01
   1598 T=  1108. E= -.26339280E+02 F= -.32410444E+02 E0= -.32365389E+02  EK= 0.37251E+01 SP= 0.23E+01 SK= 0.16E-03 mag=      0.120
       N       E                     dE             d eps       ncg     rms          rms(c)
DAV:   1    -0.324217298792E+02   -0.12475E-01   -0.27207E-02  3136   0.135E+00    0.652E-02
RMM:   2    -0.324233533738E+02   -0.16235E-02   -0.49643E-03  1537   0.282E-01    0.476E-02
RMM:   3    -0.324241087882E+02   -0.75541E-03   -0.18540E-03  1402   0.120E-01
   1599 T=  1107. E= -.26333612E+02 F= -.32424109E+02 E0= -.32378928E+02  EK= 0.37204E+01 SP= 0.24E+01 SK= 0.68E-02 mag=      0.055
       N       E                     dE             d eps       ncg     rms          rms(c)
DAV:   1    -0.324339212960E+02   -0.10568E-01   -0.15293E-02  2568   0.119E+00    0.648E-02
RMM:   2    -0.324354478201E+02   -0.15265E-02   -0.39664E-03  1523   0.297E-01    0.442E-02
RMM:   3    -0.324358098407E+02   -0.36202E-03   -0.96572E-04  1264   0.113E-01
   1600 T=  1094. E= -.26329844E+02 F= -.32435810E+02 E0= -.32390447E+02  EK= 0.36771E+01 SP= 0.24E+01 SK= 0.23E-01 mag=     -0.064
       N       E                     dE             d eps       ncg     rms          rms(c)
DAV:   1    -0.324440759238E+02   -0.86281E-02   -0.28803E-02  2744   0.124E+00    0.432E-02
RMM:   2    -0.324452075429E+02   -0.11316E-02   -0.42587E-03  1514   0.289E-01
   1601 T=  1072. E= -.26321941E+02 F= -.32445208E+02 E0= -.32399770E+02  EK= 0.36035E+01 SP= 0.25E+01 SK= 0.47E-01 mag=     -0.158
       N       E                     dE             d eps       ncg     rms          rms(c)
DAV:   1    -0.324515940802E+02   -0.75182E-02   -0.16748E-02  2920   0.125E+00    0.407E-02
RMM:   2    -0.324528192767E+02   -0.12252E-02   -0.48938E-03  1558   0.285E-01
   1602 T=  1041. E= -.26317318E+02 F= -.32452819E+02 E0= -.32407237E+02  EK= 0.34975E+01 SP= 0.26E+01 SK= 0.75E-01 mag=     -0.132
       N       E                     dE             d eps       ncg     rms          rms(c)
DAV:   1    -0.324575519407E+02   -0.59579E-02   -0.10826E-02  2016   0.115E+00    0.301E-02
RMM:   2    -0.324586590216E+02   -0.11071E-02   -0.50177E-03  1573   0.333E-01
   1603 T=  1002. E= -.26311792E+02 F= -.32458659E+02 E0= -.32412835E+02  EK= 0.33690E+01 SP= 0.27E+01 SK= 0.11E+00 mag=      0.004
       N       E                     dE             d eps       ncg     rms          rms(c)
DAV:   1    -0.324610887236E+02   -0.35368E-02   -0.21963E-02  2928   0.128E+00    0.406E-02
RMM:   2    -0.324623008367E+02   -0.12121E-02   -0.48917E-03  1564   0.300E-01
   1604 T=   960. E= -.26303729E+02 F= -.32462301E+02 E0= -.32416459E+02  EK= 0.32259E+01 SP= 0.28E+01 SK= 0.13E+00 mag=      0.143
       N       E                     dE             d eps       ncg     rms          rms(c)
DAV:   1    -0.324633825417E+02   -0.22938E-02   -0.12242E-02  2408   0.110E+00    0.459E-02
RMM:   2    -0.324645909600E+02   -0.12084E-02   -0.51694E-03  1600   0.319E-01
   1605 T=   914. E= -.26296451E+02 F= -.32464591E+02 E0= -.32418697E+02  EK= 0.30721E+01 SP= 0.29E+01 SK= 0.16E+00 mag=      0.189
       N       E                     dE             d eps       ncg     rms          rms(c)
DAV:   1    -0.324650162906E+02   -0.16337E-02   -0.15799E-02  2544   0.116E+00    0.349E-02
RMM:   2    -0.324660660580E+02   -0.10498E-02   -0.49151E-03  1583   0.294E-01
   1606 T=   867. E= -.26289282E+02 F= -.32466066E+02 E0= -.32419934E+02  EK= 0.29149E+01 SP= 0.31E+01 SK= 0.17E+00 mag=      0.093
       N       E                     dE             d eps       ncg     rms          rms(c)
DAV:   1    -0.324656072621E+02   -0.59097E-03   -0.12219E-02  2448   0.107E+00    0.324E-02
RMM:   2    -0.324665687699E+02   -0.96151E-03   -0.49143E-03  1585   0.315E-01
   1607 T=   821. E= -.26282682E+02 F= -.32466569E+02 E0= -.32420268E+02  EK= 0.27589E+01 SP= 0.32E+01 SK= 0.18E+00 mag=     -0.094
       N       E                     dE             d eps       ncg     rms          rms(c)
DAV:   1    -0.324647779677E+02    0.82929E-03   -0.15257E-02  2512   0.108E+00    0.551E-02
RMM:   2    -0.324659478697E+02   -0.11699E-02   -0.44786E-03  1521   0.291E-01
   1608 T=   776. E= -.26275502E+02 F= -.32465948E+02 E0= -.32419792E+02  EK= 0.26094E+01 SP= 0.34E+01 SK= 0.18E+00 mag=     -0.206
       N       E                     dE             d eps       ncg     rms          rms(c)
DAV:   1    -0.324651835677E+02   -0.40560E-03   -0.11845E-02  2400   0.103E+00    0.511E-02
RMM:   2    -0.324661870759E+02   -0.10035E-02   -0.47966E-03  1569   0.297E-01
   1609 T=   735. E= -.26269212E+02 F= -.32466187E+02 E0= -.32419839E+02  EK= 0.24701E+01 SP= 0.36E+01 SK= 0.17E+00 mag=     -0.174
       N       E                     dE             d eps       ncg     rms          rms(c)
DAV:   1    -0.324657729996E+02   -0.58943E-03   -0.13461E-02  2592   0.101E+00    0.392E-02
RMM:   2    -0.324666726633E+02   -0.89966E-03   -0.47692E-03  1588   0.289E-01
   1610 T=   697. E= -.26262953E+02 F= -.32466673E+02 E0= -.32420055E+02  EK= 0.23434E+01 SP= 0.37E+01 SK= 0.16E+00 mag=     -0.007
       N       E                     dE             d eps       ncg     rms          rms(c)
DAV:   1    -0.324661503634E+02   -0.37736E-03   -0.10168E-02  2368   0.956E-01    0.449E-02
RMM:   2    -0.324670543895E+02   -0.90403E-03   -0.41929E-03  1548   0.280E-01
   1611 T=   664. E= -.26256881E+02 F= -.32467054E+02 E0= -.32420472E+02  EK= 0.22302E+01 SP= 0.38E+01 SK= 0.14E+00 mag=      0.192
       N       E                     dE             d eps       ncg     rms          rms(c)
DAV:   1    -0.324666278224E+02   -0.47746E-03   -0.10935E-02  2272   0.973E-01    0.629E-02
RMM:   2    -0.324678384647E+02   -0.12106E-02   -0.45745E-03  1552   0.274E-01
   1612 T=   635. E= -.26250299E+02 F= -.32467838E+02 E0= -.32421483E+02  EK= 0.21326E+01 SP= 0.40E+01 SK= 0.11E+00 mag=      0.213
       N       E                     dE             d eps       ncg     rms          rms(c)
DAV:   1    -0.324704620290E+02   -0.38342E-02   -0.14450E-02  2496   0.941E-01    0.482E-02
RMM:   2    -0.324712291354E+02   -0.76711E-03   -0.44259E-03  1567   0.286E-01
   1613 T=   610. E= -.26245453E+02 F= -.32471229E+02 E0= -.32424402E+02  EK= 0.20509E+01 SP= 0.41E+01 SK= 0.87E-01 mag=      0.048
       N       E                     dE             d eps       ncg     rms          rms(c)
DAV:   1    -0.324736171586E+02   -0.31551E-02   -0.16520E-02  2480   0.901E-01    0.562E-02
RMM:   2    -0.324745429353E+02   -0.92578E-03   -0.41215E-03  1527   0.270E-01
   1614 T=   591. E= -.26240039E+02 F= -.32474543E+02 E0= -.32427737E+02  EK= 0.19846E+01 SP= 0.42E+01 SK= 0.62E-01 mag=     -0.189
       N       E                     dE             d eps       ncg     rms          rms(c)
DAV:   1    -0.324772431290E+02   -0.36260E-02   -0.85019E-03  2168   0.892E-01    0.732E-02
RMM:   2    -0.324785822522E+02   -0.13391E-02   -0.48689E-03  1599   0.267E-01
   1615 T=   575. E= -.26234409E+02 F= -.32478582E+02 E0= -.32432118E+02  EK= 0.19341E+01 SP= 0.43E+01 SK= 0.40E-01 mag=     -0.327
       N       E                     dE             d eps       ncg     rms          rms(c)
DAV:   1    -0.324835339701E+02   -0.62908E-02   -0.11385E-02  2512   0.883E-01    0.646E-02
RMM:   2    -0.324847059172E+02   -0.11719E-02   -0.39460E-03  1519   0.260E-01
   1616 T=   565. E= -.26230037E+02 F= -.32484706E+02 E0= -.32438112E+02  EK= 0.18991E+01 SP= 0.43E+01 SK= 0.22E-01 mag=     -0.178
       N       E                     dE             d eps       ncg     rms          rms(c)
DAV:   1    -0.324921573588E+02   -0.86234E-02   -0.13466E-02  2400   0.905E-01    0.546E-02
RMM:   2    -0.324929005420E+02   -0.74318E-03   -0.39476E-03  1529   0.268E-01
   1617 T=   559. E= -.26226542E+02 F= -.32492901E+02 E0= -.32445897E+02  EK= 0.18796E+01 SP= 0.44E+01 SK= 0.88E-02 mag=      0.168
       N       E                     dE             d eps       ncg     rms          rms(c)
DAV:   1    -0.324970056042E+02   -0.48482E-02   -0.20704E-02  2368   0.864E-01    0.101E-01
RMM:   2    -0.324991063592E+02   -0.21008E-02   -0.47554E-03  1526   0.272E-01    0.801E-02
RMM:   3    -0.325009390255E+02   -0.18327E-02   -0.26411E-03  1421   0.121E-01    0.488E-02
RMM:   4    -0.325017567995E+02   -0.81777E-03   -0.14951E-03  1400   0.879E-02
   1618 T=   558. E= -.26223561E+02 F= -.32501757E+02 E0= -.32454714E+02  EK= 0.18745E+01 SP= 0.44E+01 SK= 0.15E-02 mag=      0.055
       N       E                     dE             d eps       ncg     rms          rms(c)
DAV:   1    -0.325088839526E+02   -0.79449E-02   -0.99482E-03  2440   0.877E-01    0.908E-02
RMM:   2    -0.325101879108E+02   -0.13040E-02   -0.30266E-03  1405   0.189E-01
   1619 T=   561. E= -.26219828E+02 F= -.32510188E+02 E0= -.32463496E+02  EK= 0.18837E+01 SP= 0.44E+01 SK= 0.25E-03 mag=     -0.271
       N       E                     dE             d eps       ncg     rms          rms(c)
DAV:   1    -0.325167595383E+02   -0.78756E-02   -0.25773E-02  2568   0.884E-01    0.115E-01
RMM:   2    -0.325191472313E+02   -0.23877E-02   -0.40683E-03  1517   0.243E-01    0.904E-02
RMM:   3    -0.325204712548E+02   -0.13240E-02   -0.13641E-03  1431   0.959E-02
   1620 T=   568. E= -.26217199E+02 F= -.32520471E+02 E0= -.32474098E+02  EK= 0.19078E+01 SP= 0.44E+01 SK= 0.48E-02 mag=     -0.121
       N       E                     dE             d eps       ncg     rms          rms(c)
DAV:   1    -0.325306492531E+02   -0.11502E-01   -0.21304E-02  2432   0.879E-01    0.950E-02
RMM:   2    -0.325325256233E+02   -0.18764E-02   -0.49016E-03  1494   0.257E-01    0.719E-02
RMM:   3    -0.325331713435E+02   -0.64572E-03   -0.13622E-03  1395   0.997E-02
   1621 T=   579. E= -.26216813E+02 F= -.32533171E+02 E0= -.32486265E+02  EK= 0.19460E+01 SP= 0.44E+01 SK= 0.15E-01 mag=      0.158
       N       E                     dE             d eps       ncg     rms          rms(c)
DAV:   1    -0.325436388001E+02   -0.11113E-01   -0.64788E-02  2272   0.940E-01    0.825E-02
RMM:   2    -0.325450473838E+02   -0.14086E-02   -0.52697E-03  1538   0.287E-01    0.613E-02
RMM:   3    -0.325457626863E+02   -0.71530E-03   -0.13044E-03  1518   0.110E-01
   1622 T=   595. E= -.26215150E+02 F= -.32545763E+02 E0= -.32498953E+02  EK= 0.19995E+01 SP= 0.43E+01 SK= 0.29E-01 mag=      0.186
       N       E                     dE             d eps       ncg     rms          rms(c)
DAV:   1    -0.325588331242E+02   -0.13786E-01   -0.23853E-02  2376   0.942E-01    0.350E-02
RMM:   2    -0.325593810226E+02   -0.54790E-03   -0.31881E-03  1542   0.234E-01
   1623 T=   616. E= -.26212726E+02 F= -.32559381E+02 E0= -.32512157E+02  EK= 0.20689E+01 SP= 0.42E+01 SK= 0.46E-01 mag=     -0.027
       N       E                     dE             d eps       ncg     rms          rms(c)
DAV:   1    -0.325697141718E+02   -0.10881E-01   -0.17447E-02  2408   0.926E-01    0.728E-02
RMM:   2    -0.325709086992E+02   -0.11945E-02   -0.39367E-03  1541   0.251E-01
   1624 T=   641. E= -.26207792E+02 F= -.32570909E+02 E0= -.32524070E+02  EK= 0.21528E+01 SP= 0.41E+01 SK= 0.64E-01 mag=     -0.264
       N       E                     dE             d eps       ncg     rms          rms(c)
DAV:   1    -0.325817916091E+02   -0.12077E-01   -0.10175E-02  2440   0.930E-01    0.767E-02
RMM:   2    -0.325830303394E+02   -0.12387E-02   -0.38072E-03  1527   0.262E-01
   1625 T=   669. E= -.26204264E+02 F= -.32583030E+02 E0= -.32536330E+02  EK= 0.22495E+01 SP= 0.40E+01 SK= 0.82E-01 mag=     -0.337
       N       E                     dE             d eps       ncg     rms          rms(c)
DAV:   1    -0.325944588144E+02   -0.12667E-01   -0.10188E-02  2216   0.982E-01    0.420E-02
RMM:   2    -0.325953818972E+02   -0.92308E-03   -0.40965E-03  1577   0.252E-01
   1626 T=   702. E= -.26201541E+02 F= -.32595382E+02 E0= -.32548317E+02  EK= 0.23587E+01 SP= 0.39E+01 SK= 0.97E-01 mag=     -0.158
       N       E                     dE             d eps       ncg     rms          rms(c)
DAV:   1    -0.326043398328E+02   -0.98810E-02   -0.99055E-03  2344   0.990E-01    0.527E-02
RMM:   2    -0.326053477569E+02   -0.10079E-02   -0.42902E-03  1537   0.279E-01
   1627 T=   738. E= -.26197341E+02 F= -.32605348E+02 E0= -.32558230E+02  EK= 0.24789E+01 SP= 0.38E+01 SK= 0.11E+00 mag=      0.185
       N       E                     dE             d eps       ncg     rms          rms(c)
DAV:   1    -0.326095856170E+02   -0.52458E-02   -0.13111E-02  2456   0.104E+00    0.927E-02
RMM:   2    -0.326117278342E+02   -0.21422E-02   -0.50460E-03  1547   0.274E-01    0.742E-02
RMM:   3    -0.326135158697E+02   -0.17880E-02   -0.31947E-03  1400   0.127E-01    0.428E-02
RMM:   4    -0.326141928235E+02   -0.67695E-03   -0.15899E-03  1399   0.907E-02
   1628 T=   776. E= -.26195092E+02 F= -.32614193E+02 E0= -.32566990E+02  EK= 0.26063E+01 SP= 0.37E+01 SK= 0.12E+00 mag=      0.031
       N       E                     dE             d eps       ncg     rms          rms(c)
DAV:   1    -0.326148685815E+02   -0.13527E-02   -0.14393E-02  2360   0.102E+00    0.997E-02
RMM:   2    -0.326172597308E+02   -0.23911E-02   -0.51667E-03  1478   0.240E-01    0.780E-02
RMM:   3    -0.326187910319E+02   -0.15313E-02   -0.22034E-03  1400   0.981E-02    0.517E-02
RMM:   4    -0.326197574007E+02   -0.96637E-03   -0.18570E-03  1400   0.793E-02
   1629 T=   815. E= -.26193592E+02 F= -.32619757E+02 E0= -.32572556E+02  EK= 0.27376E+01 SP= 0.36E+01 SK= 0.12E+00 mag=     -0.046
       N       E                     dE             d eps       ncg     rms          rms(c)
DAV:   1    -0.326211100089E+02   -0.23190E-02   -0.19610E-02  2600   0.108E+00    0.468E-02
RMM:   2    -0.326220592560E+02   -0.94925E-03   -0.42040E-03  1507   0.253E-01
   1630 T=   855. E= -.26189801E+02 F= -.32622059E+02 E0= -.32574822E+02  EK= 0.28729E+01 SP= 0.34E+01 SK= 0.11E+00 mag=     -0.028
       N       E                     dE             d eps       ncg     rms          rms(c)
DAV:   1    -0.326194273728E+02    0.16826E-02   -0.22449E-02  2808   0.110E+00    0.417E-02
RMM:   2    -0.326205031066E+02   -0.10757E-02   -0.43131E-03  1571   0.274E-01
   1631 T=   894. E= -.26187383E+02 F= -.32620503E+02 E0= -.32573298E+02  EK= 0.30040E+01 SP= 0.33E+01 SK= 0.10E+00 mag=      0.055
       N       E                     dE             d eps       ncg     rms          rms(c)
DAV:   1    -0.326132169143E+02    0.62105E-02   -0.12094E-02  2184   0.111E+00    0.470E-02
RMM:   2    -0.326144365313E+02   -0.12196E-02   -0.41494E-03  1568   0.283E-01
   1632 T=   931. E= -.26184955E+02 F= -.32614437E+02 E0= -.32567297E+02  EK= 0.31275E+01 SP= 0.32E+01 SK= 0.85E-01 mag=      0.130
       N       E                     dE             d eps       ncg     rms          rms(c)
DAV:   1    -0.326027374479E+02    0.10479E-01   -0.18064E-02  2512   0.121E+00    0.395E-02
RMM:   2    -0.326040310991E+02   -0.12937E-02   -0.55198E-03  1621   0.316E-01
   1633 T=   965. E= -.26179159E+02 F= -.32604031E+02 E0= -.32556879E+02  EK= 0.32420E+01 SP= 0.31E+01 SK= 0.67E-01 mag=      0.137
       N       E                     dE             d eps       ncg     rms          rms(c)
DAV:   1    -0.325867960399E+02    0.15941E-01   -0.15757E-02  2568   0.116E+00    0.399E-02
RMM:   2    -0.325881727220E+02   -0.13767E-02   -0.50625E-03  1582   0.324E-01    0.281E-02
RMM:   3    -0.325884265632E+02   -0.25384E-03   -0.12765E-03  1400   0.118E-01
   1634 T=   993. E= -.26174529E+02 F= -.32588427E+02 E0= -.32541225E+02  EK= 0.33375E+01 SP= 0.30E+01 SK= 0.47E-01 mag=      0.032
       N       E                     dE             d eps       ncg     rms          rms(c)
DAV:   1    -0.325651973889E+02    0.22975E-01   -0.18633E-02  2200   0.119E+00    0.405E-02
RMM:   2    -0.325665619210E+02   -0.13645E-02   -0.36313E-03  1499   0.276E-01    0.290E-02
RMM:   3    -0.325668063553E+02   -0.24443E-03   -0.86652E-04  1261   0.104E-01
   1635 T=  1015. E= -.26169598E+02 F= -.32566806E+02 E0= -.32519643E+02  EK= 0.34099E+01 SP= 0.30E+01 SK= 0.29E-01 mag=     -0.070
       N       E                     dE             d eps       ncg     rms          rms(c)
DAV:   1    -0.325381508789E+02    0.28411E-01   -0.23451E-02  2760   0.119E+00    0.338E-02
RMM:   2    -0.325393885389E+02   -0.12377E-02   -0.42078E-03  1586   0.271E-01
   1636 T=  1029. E= -.26162734E+02 F= -.32539389E+02 E0= -.32492233E+02  EK= 0.34574E+01 SP= 0.29E+01 SK= 0.15E-01 mag=     -0.107
       N       E                     dE             d eps       ncg     rms          rms(c)
DAV:   1    -0.325048256655E+02    0.33325E-01   -0.24155E-02  2816   0.124E+00    0.345E-02
RMM:   2    -0.325062601386E+02   -0.14345E-02   -0.51604E-03  1607   0.290E-01    0.247E-02
RMM:   3    -0.325065439543E+02   -0.28382E-03   -0.13996E-03  1385   0.115E-01
   1637 T=  1033. E= -.26158867E+02 F= -.32506544E+02 E0= -.32459388E+02  EK= 0.34726E+01 SP= 0.29E+01 SK= 0.46E-02 mag=     -0.024
       N       E                     dE             d eps       ncg     rms          rms(c)
DAV:   1    -0.324667040466E+02    0.39556E-01   -0.18158E-02  2032   0.120E+00    0.364E-02
RMM:   2    -0.324680466139E+02   -0.13426E-02   -0.36572E-03  1560   0.276E-01
   1638 T=  1030. E= -.26152204E+02 F= -.32468047E+02 E0= -.32420934E+02  EK= 0.34602E+01 SP= 0.29E+01 SK= 0.23E-03 mag=      0.110
       N       E                     dE             d eps       ncg     rms          rms(c)
DAV:   1    -0.324229468533E+02    0.43757E-01   -0.29871E-02  3072   0.131E+00    0.487E-02
RMM:   2    -0.324244360441E+02   -0.14892E-02   -0.43158E-03  1542   0.265E-01    0.359E-02
RMM:   3    -0.324248756550E+02   -0.43961E-03   -0.12726E-03  1355   0.106E-01
   1639 T=  1017. E= -.26145297E+02 F= -.32424876E+02 E0= -.32377829E+02  EK= 0.34189E+01 SP= 0.29E+01 SK= 0.13E-02 mag=      0.070
       N       E                     dE             d eps       ncg     rms          rms(c)
DAV:   1    -0.323759020183E+02    0.48534E-01   -0.12368E-02  2096   0.111E+00    0.387E-02
RMM:   2    -0.323774213042E+02   -0.15193E-02   -0.44407E-03  1591   0.293E-01    0.263E-02
RMM:   3    -0.323776213113E+02   -0.20001E-03   -0.11248E-03  1288   0.109E-01
   1640 T=   996. E= -.26141492E+02 F= -.32377621E+02 E0= -.32330544E+02  EK= 0.33478E+01 SP= 0.29E+01 SK= 0.69E-02 mag=     -0.059
       N       E                     dE             d eps       ncg     rms          rms(c)
DAV:   1    -0.323246439460E+02    0.52777E-01   -0.25128E-02  2656   0.118E+00    0.440E-02
RMM:   2    -0.323259620754E+02   -0.13181E-02   -0.39777E-03  1572   0.275E-01
   1641 T=   969. E= -.26134056E+02 F= -.32325962E+02 E0= -.32279036E+02  EK= 0.32567E+01 SP= 0.29E+01 SK= 0.15E-01 mag=     -0.179
       N       E                     dE             d eps       ncg     rms          rms(c)
DAV:   1    -0.322704978290E+02    0.54146E-01   -0.19151E-02  2632   0.124E+00    0.474E-02
RMM:   2    -0.322720023270E+02   -0.15045E-02   -0.52363E-03  1639   0.285E-01    0.342E-02
RMM:   3    -0.322723632584E+02   -0.36093E-03   -0.13436E-03  1385   0.115E-01
   1642 T=   936. E= -.26129760E+02 F= -.32272363E+02 E0= -.32225433E+02  EK= 0.31453E+01 SP= 0.30E+01 SK= 0.25E-01 mag=     -0.088
       N       E                     dE             d eps       ncg     rms          rms(c)
DAV:   1    -0.322157944788E+02    0.56208E-01   -0.17434E-02  2168   0.113E+00    0.463E-02
RMM:   2    -0.322170887224E+02   -0.12942E-02   -0.31705E-03  1521   0.269E-01
   1643 T=   900. E= -.26123563E+02 F= -.32217089E+02 E0= -.32170160E+02  EK= 0.30234E+01 SP= 0.30E+01 SK= 0.35E-01 mag=      0.145
       N       E                     dE             d eps       ncg     rms          rms(c)
DAV:   1    -0.321583421167E+02    0.57452E-01   -0.27263E-02  3192   0.123E+00    0.749E-02
RMM:   2    -0.321600407887E+02   -0.16987E-02   -0.40600E-03  1541   0.253E-01    0.562E-02
RMM:   3    -0.321611420971E+02   -0.11013E-02   -0.19452E-03  1404   0.109E-01
   1644 T=   861. E= -.26117299E+02 F= -.32161142E+02 E0= -.32114333E+02  EK= 0.28948E+01 SP= 0.31E+01 SK= 0.42E-01 mag=      0.071
       N       E                     dE             d eps       ncg     rms          rms(c)
DAV:   1    -0.321041115425E+02    0.55929E-01   -0.11863E-02  2536   0.104E+00    0.593E-02
RMM:   2    -0.321055082602E+02   -0.13967E-02   -0.34064E-03  1521   0.273E-01    0.434E-02
RMM:   3    -0.321057771864E+02   -0.26893E-03   -0.71811E-04  1137   0.973E-02
   1645 T=   822. E= -.26114123E+02 F= -.32105777E+02 E0= -.32058922E+02  EK= 0.27618E+01 SP= 0.32E+01 SK= 0.46E-01 mag=     -0.086
       N       E                     dE             d eps       ncg     rms          rms(c)
DAV:   1    -0.320498002319E+02    0.55708E-01   -0.27590E-02  2752   0.108E+00    0.524E-02
RMM:   2    -0.320509524334E+02   -0.11522E-02   -0.38587E-03  1537   0.262E-01
   1646 T=   784. E= -.26108141E+02 F= -.32050952E+02 E0= -.32004215E+02  EK= 0.26341E+01 SP= 0.33E+01 SK= 0.46E-01 mag=     -0.211
       N       E                     dE             d eps       ncg     rms          rms(c)
DAV:   1    -0.319973815788E+02    0.52419E-01   -0.16773E-02  2864   0.113E+00    0.507E-02
RMM:   2    -0.319985565731E+02   -0.11750E-02   -0.39980E-03  1553   0.261E-01
   1647 T=   747. E= -.26104182E+02 F= -.31998557E+02 E0= -.31951825E+02  EK= 0.25116E+01 SP= 0.33E+01 SK= 0.43E-01 mag=     -0.191
       N       E                     dE             d eps       ncg     rms          rms(c)
DAV:   1    -0.319485588594E+02    0.48823E-01   -0.11833E-02  2216   0.100E+00    0.252E-02
RMM:   2    -0.319494639598E+02   -0.90510E-03   -0.40016E-03  1560   0.295E-01
   1648 T=   714. E= -.26100616E+02 F= -.31949464E+02 E0= -.31902534E+02  EK= 0.23994E+01 SP= 0.34E+01 SK= 0.36E-01 mag=     -0.023
       N       E                     dE             d eps       ncg     rms          rms(c)
DAV:   1    -0.319017457932E+02    0.46813E-01   -0.15571E-02  2800   0.106E+00    0.420E-02
RMM:   2    -0.319027843015E+02   -0.10385E-02   -0.41035E-03  1542   0.267E-01
   1649 T=   684. E= -.26095479E+02 F= -.31902784E+02 E0= -.31855969E+02  EK= 0.23002E+01 SP= 0.35E+01 SK= 0.28E-01 mag=      0.189
       N       E                     dE             d eps       ncg     rms          rms(c)
DAV:   1    -0.318581226721E+02    0.43623E-01   -0.10276E-02  2360   0.964E-01    0.630E-02
RMM:   2    -0.318594501645E+02   -0.13275E-02   -0.41665E-03  1534   0.271E-01
   1650 T=   659. E= -.26090449E+02 F= -.31859450E+02 E0= -.31812887E+02  EK= 0.22146E+01 SP= 0.35E+01 SK= 0.19E-01 mag=      0.263
       N       E                     dE             d eps       ncg     rms          rms(c)
DAV:   1    -0.318206447379E+02    0.37478E-01   -0.12947E-02  2560   0.103E+00    0.409E-02
RMM:   2    -0.318215634864E+02   -0.91875E-03   -0.39208E-03  1548   0.270E-01
   1651 T=   638. E= -.26086505E+02 F= -.31821563E+02 E0= -.31774690E+02  EK= 0.21445E+01 SP= 0.36E+01 SK= 0.11E-01 mag=      0.134
       N       E                     dE             d eps       ncg     rms          rms(c)
DAV:   1    -0.317863884939E+02    0.34256E-01   -0.10567E-02  2576   0.907E-01    0.318E-02
RMM:   2    -0.317872524143E+02   -0.86392E-03   -0.43476E-03  1553   0.272E-01
   1652 T=   622. E= -.26082606E+02 F= -.31787252E+02 E0= -.31740216E+02  EK= 0.20895E+01 SP= 0.36E+01 SK= 0.42E-02 mag=     -0.127
       N       E                     dE             d eps       ncg     rms          rms(c)
DAV:   1    -0.317542286891E+02    0.32160E-01   -0.12754E-02  2536   0.941E-01    0.711E-02
RMM:   2    -0.317556661194E+02   -0.14374E-02   -0.41873E-03  1521   0.256E-01    0.567E-02
RMM:   3    -0.317565607545E+02   -0.89464E-03   -0.17825E-03  1417   0.105E-01
   1653 T=   610. E= -.26079239E+02 F= -.31756561E+02 E0= -.31709677E+02  EK= 0.20495E+01 SP= 0.36E+01 SK= 0.53E-03 mag=     -0.093
       N       E                     dE             d eps       ncg     rms          rms(c)
DAV:   1    -0.317295931385E+02    0.26073E-01   -0.15564E-02  2512   0.906E-01    0.508E-02
RMM:   2    -0.317304965209E+02   -0.90338E-03   -0.32173E-03  1536   0.237E-01
   1654 T=   603. E= -.26075585E+02 F= -.31730497E+02 E0= -.31683364E+02  EK= 0.20267E+01 SP= 0.36E+01 SK= 0.44E-03 mag=      0.147
       N       E                     dE             d eps       ncg     rms          rms(c)
DAV:   1    -0.317049614617E+02    0.24632E-01   -0.28660E-02  2672   0.947E-01    0.813E-02
RMM:   2    -0.317065363211E+02   -0.15749E-02   -0.39772E-03  1528   0.238E-01    0.635E-02
RMM:   3    -0.317077003840E+02   -0.11641E-02   -0.15528E-03  1456   0.995E-02
   1655 T=   601. E= -.26071932E+02 F= -.31707700E+02 E0= -.31660591E+02  EK= 0.20194E+01 SP= 0.36E+01 SK= 0.44E-02 mag=      0.098
       N       E                     dE             d eps       ncg     rms          rms(c)
DAV:   1    -0.316875115924E+02    0.19025E-01   -0.11954E-02  2456   0.879E-01    0.652E-02
RMM:   2    -0.316886801254E+02   -0.11685E-02   -0.34548E-03  1462   0.219E-01
   1656 T=   603. E= -.26069778E+02 F= -.31688680E+02 E0= -.31641367E+02  EK= 0.20269E+01 SP= 0.36E+01 SK= 0.12E-01 mag=     -0.147
       N       E                     dE             d eps       ncg     rms          rms(c)
DAV:   1    -0.316694104034E+02    0.18101E-01   -0.24936E-02  2616   0.952E-01    0.969E-02
RMM:   2    -0.316713477916E+02   -0.19374E-02   -0.41515E-03  1543   0.244E-01    0.726E-02
RMM:   3    -0.316729454436E+02   -0.15977E-02   -0.21617E-03  1401   0.110E-01    0.460E-02
RMM:   4    -0.316736183632E+02   -0.67292E-03   -0.14546E-03  1396   0.804E-02
   1657 T=   610. E= -.26068704E+02 F= -.31673618E+02 E0= -.31626082E+02  EK= 0.20499E+01 SP= 0.35E+01 SK= 0.24E-01 mag=     -0.030
       N       E                     dE             d eps       ncg     rms          rms(c)
DAV:   1    -0.316561239233E+02    0.16822E-01   -0.13764E-02  2456   0.899E-01    0.108E-01
RMM:   2    -0.316583188853E+02   -0.21950E-02   -0.48390E-03  1438   0.228E-01    0.779E-02
RMM:   3    -0.316599546164E+02   -0.16357E-02   -0.25546E-03  1400   0.102E-01    0.503E-02
RMM:   4    -0.316607294258E+02   -0.77481E-03   -0.15158E-03  1396   0.734E-02
   1658 T=   621. E= -.26067675E+02 F= -.31660729E+02 E0= -.31613058E+02  EK= 0.20877E+01 SP= 0.35E+01 SK= 0.39E-01 mag=      0.042
       N       E                     dE             d eps       ncg     rms          rms(c)
DAV:   1    -0.316495943377E+02    0.10360E-01   -0.13115E-02  2672   0.946E-01    0.525E-02
RMM:   2    -0.316501793465E+02   -0.58501E-03   -0.24302E-03  1491   0.208E-01
   1659 T=   637. E= -.26065438E+02 F= -.31650179E+02 E0= -.31602363E+02  EK= 0.21419E+01 SP= 0.34E+01 SK= 0.56E-01 mag=      0.045
       N       E                     dE             d eps       ncg     rms          rms(c)
DAV:   1    -0.316403311321E+02    0.92632E-02   -0.12898E-02  2688   0.944E-01    0.404E-02
RMM:   2    -0.316411249596E+02   -0.79383E-03   -0.34002E-03  1519   0.242E-01
   1660 T=   657. E= -.26063938E+02 F= -.31641125E+02 E0= -.31593192E+02  EK= 0.22095E+01 SP= 0.33E+01 SK= 0.73E-01 mag=     -0.001
       N       E                     dE             d eps       ncg     rms          rms(c)
DAV:   1    -0.316322414844E+02    0.80896E-02   -0.77576E-03  2200   0.964E-01    0.457E-02
RMM:   2    -0.316331753185E+02   -0.93383E-03   -0.37847E-03  1527   0.260E-01
   1661 T=   682. E= -.26062373E+02 F= -.31633175E+02 E0= -.31585114E+02  EK= 0.22907E+01 SP= 0.32E+01 SK= 0.90E-01 mag=     -0.051
       N       E                     dE             d eps       ncg     rms          rms(c)
DAV:   1    -0.316253603877E+02    0.68811E-02   -0.12678E-02  2488   0.106E+00    0.394E-02
RMM:   2    -0.316261361929E+02   -0.77581E-03   -0.38065E-03  1527   0.275E-01
   1662 T=   710. E= -.26059061E+02 F= -.31626136E+02 E0= -.31577864E+02  EK= 0.23866E+01 SP= 0.31E+01 SK= 0.11E+00 mag=     -0.069
       N       E                     dE             d eps       ncg     rms          rms(c)
DAV:   1    -0.316176396756E+02    0.77207E-02   -0.11654E-02  2568   0.102E+00    0.419E-02
RMM:   2    -0.316186082354E+02   -0.96856E-03   -0.43415E-03  1553   0.288E-01
   1663 T=   742. E= -.26054852E+02 F= -.31618608E+02 E0= -.31570174E+02  EK= 0.24939E+01 SP= 0.30E+01 SK= 0.12E+00 mag=     -0.050
       N       E                     dE             d eps       ncg     rms          rms(c)
DAV:   1    -0.316093190577E+02    0.83206E-02   -0.13139E-02  2576   0.109E+00    0.455E-02
RMM:   2    -0.316104782317E+02   -0.11592E-02   -0.48389E-03  1574   0.285E-01
   1664 T=   777. E= -.26051063E+02 F= -.31610478E+02 E0= -.31561910E+02  EK= 0.26098E+01 SP= 0.28E+01 SK= 0.12E+00 mag=     -0.008
       N       E                     dE             d eps       ncg     rms          rms(c)
DAV:   1    -0.316004444566E+02    0.88746E-02   -0.13121E-02  2432   0.108E+00    0.448E-02
RMM:   2    -0.316015999158E+02   -0.11555E-02   -0.47789E-03  1557   0.305E-01
   1665 T=   813. E= -.26047684E+02 F= -.31601600E+02 E0= -.31552816E+02  EK= 0.27320E+01 SP= 0.27E+01 SK= 0.12E+00 mag=      0.023
       N       E                     dE             d eps       ncg     rms          rms(c)
DAV:   1    -0.315899294875E+02    0.10515E-01   -0.16004E-02  2784   0.116E+00    0.394E-02
RMM:   2    -0.315910582612E+02   -0.11288E-02   -0.52739E-03  1570   0.311E-01
   1666 T=   850. E= -.26043997E+02 F= -.31591058E+02 E0= -.31542029E+02  EK= 0.28577E+01 SP= 0.26E+01 SK= 0.12E+00 mag=      0.039
       N       E                     dE             d eps       ncg     rms          rms(c)
DAV:   1    -0.315759069393E+02    0.14023E-01   -0.18377E-02  2776   0.114E+00    0.577E-02
RMM:   2    -0.315775455508E+02   -0.16386E-02   -0.61195E-03  1580   0.320E-01    0.435E-02
RMM:   3    -0.315782569387E+02   -0.71139E-03   -0.21141E-03  1449   0.123E-01
   1667 T=   887. E= -.26041072E+02 F= -.31578257E+02 E0= -.31529090E+02  EK= 0.29817E+01 SP= 0.24E+01 SK= 0.11E+00 mag=      0.050
       N       E                     dE             d eps       ncg     rms          rms(c)
DAV:   1    -0.315619693700E+02    0.15576E-01   -0.17694E-02  2560   0.115E+00    0.490E-02
RMM:   2    -0.315632732925E+02   -0.13039E-02   -0.39860E-03  1491   0.279E-01
   1668 T=   924. E= -.26035338E+02 F= -.31563273E+02 E0= -.31513844E+02  EK= 0.31038E+01 SP= 0.23E+01 SK= 0.93E-01 mag=      0.022
       N       E                     dE             d eps       ncg     rms          rms(c)
DAV:   1    -0.315436604869E+02    0.18309E-01   -0.32470E-02  2984   0.128E+00    0.570E-02
RMM:   2    -0.315453776424E+02   -0.17172E-02   -0.64177E-03  1631   0.281E-01    0.407E-02
RMM:   3    -0.315460218494E+02   -0.64421E-03   -0.16561E-03  1410   0.112E-01
   1669 T=   957. E= -.26030502E+02 F= -.31546022E+02 E0= -.31496418E+02  EK= 0.32158E+01 SP= 0.22E+01 SK= 0.75E-01 mag=     -0.051
       N       E                     dE             d eps       ncg     rms          rms(c)
DAV:   1    -0.315245962301E+02    0.20781E-01   -0.15498E-02  1896   0.113E+00    0.611E-02
RMM:   2    -0.315261422037E+02   -0.15460E-02   -0.50186E-03  1547   0.283E-01    0.424E-02
RMM:   3    -0.315265759193E+02   -0.43372E-03   -0.13207E-03  1400   0.114E-01
   1670 T=   985. E= -.26028475E+02 F= -.31526576E+02 E0= -.31476769E+02  EK= 0.33111E+01 SP= 0.21E+01 SK= 0.55E-01 mag=     -0.052
       N       E                     dE             d eps       ncg     rms          rms(c)
DAV:   1    -0.315039661646E+02    0.22176E-01   -0.34221E-02  2680   0.121E+00    0.377E-02
RMM:   2    -0.315050778383E+02   -0.11117E-02   -0.45379E-03  1611   0.302E-01
   1671 T=  1009. E= -.26023439E+02 F= -.31505078E+02 E0= -.31455045E+02  EK= 0.33912E+01 SP= 0.21E+01 SK= 0.36E-01 mag=      0.020
       N       E                     dE             d eps       ncg     rms          rms(c)
DAV:   1    -0.314804832233E+02    0.23483E-01   -0.28191E-02  2984   0.125E+00    0.422E-02
RMM:   2    -0.314817731765E+02   -0.12900E-02   -0.51071E-03  1602   0.285E-01
   1672 T=  1026. E= -.26020988E+02 F= -.31481773E+02 E0= -.31431691E+02  EK= 0.34469E+01 SP= 0.20E+01 SK= 0.20E-01 mag=      0.117
       N       E                     dE             d eps       ncg     rms          rms(c)
DAV:   1    -0.314565545684E+02    0.23929E-01   -0.15552E-02  2432   0.117E+00    0.457E-02
RMM:   2    -0.314579802625E+02   -0.14257E-02   -0.50199E-03  1615   0.320E-01    0.323E-02
RMM:   3    -0.314583170795E+02   -0.33682E-03   -0.13792E-03  1463   0.122E-01
   1673 T=  1035. E= -.26020124E+02 F= -.31458317E+02 E0= -.31408076E+02  EK= 0.34778E+01 SP= 0.20E+01 SK= 0.77E-02 mag=      0.098
       N       E                     dE             d eps       ncg     rms          rms(c)
DAV:   1    -0.314334319620E+02    0.24548E-01   -0.26152E-02  2424   0.126E+00    0.306E-02
RMM:   2    -0.314346253638E+02   -0.11934E-02   -0.39794E-03  1545   0.291E-01
   1674 T=  1038. E= -.26013520E+02 F= -.31434625E+02 E0= -.31384152E+02  EK= 0.34894E+01 SP= 0.19E+01 SK= 0.11E-02 mag=     -0.031
       N       E                     dE             d eps       ncg     rms          rms(c)
DAV:   1    -0.314089698633E+02    0.24462E-01   -0.24822E-02  2784   0.127E+00    0.526E-02
RMM:   2    -0.314104587498E+02   -0.14889E-02   -0.55312E-03  1566   0.276E-01    0.396E-02
RMM:   3    -0.314110736842E+02   -0.61493E-03   -0.16723E-03  1404   0.109E-01
   1675 T=  1034. E= -.26008479E+02 F= -.31411074E+02 E0= -.31360672E+02  EK= 0.34740E+01 SP= 0.19E+01 SK= 0.40E-03 mag=     -0.109
       N       E                     dE             d eps       ncg     rms          rms(c)
DAV:   1    -0.313881858369E+02    0.22273E-01   -0.18664E-02  2440   0.113E+00    0.484E-02
RMM:   2    -0.313895922377E+02   -0.14064E-02   -0.45952E-03  1569   0.298E-01    0.294E-02
RMM:   3    -0.313897969350E+02   -0.20470E-03   -0.90870E-04  1230   0.105E-01
   1676 T=  1022. E= -.26006231E+02 F= -.31389797E+02 E0= -.31339133E+02  EK= 0.34332E+01 SP= 0.19E+01 SK= 0.52E-02 mag=     -0.062
       N       E                     dE             d eps       ncg     rms          rms(c)
DAV:   1    -0.313689629961E+02    0.20629E-01   -0.28923E-02  2744   0.121E+00    0.394E-02
RMM:   2    -0.313701880716E+02   -0.12251E-02   -0.48426E-03  1628   0.289E-01
   1677 T=  1004. E= -.26000240E+02 F= -.31370188E+02 E0= -.31319529E+02  EK= 0.33749E+01 SP= 0.20E+01 SK= 0.15E-01 mag=      0.088
       N       E                     dE             d eps       ncg     rms          rms(c)
DAV:   1    -0.313519237433E+02    0.17039E-01   -0.22917E-02  2816   0.124E+00    0.531E-02
RMM:   2    -0.313533693997E+02   -0.14457E-02   -0.52271E-03  1623   0.294E-01    0.394E-02
RMM:   3    -0.313538892449E+02   -0.51985E-03   -0.15009E-03  1435   0.115E-01
   1678 T=   981. E= -.25996927E+02 F= -.31353889E+02 E0= -.31303345E+02  EK= 0.32971E+01 SP= 0.20E+01 SK= 0.27E-01 mag=      0.131
       N       E                     dE             d eps       ncg     rms          rms(c)
DAV:   1    -0.313406579949E+02    0.12711E-01   -0.19908E-02  2256   0.115E+00    0.506E-02
RMM:   2    -0.313417743977E+02   -0.11164E-02   -0.42706E-03  1616   0.279E-01
   1679 T=   955. E= -.25991844E+02 F= -.31341774E+02 E0= -.31290988E+02  EK= 0.32088E+01 SP= 0.21E+01 SK= 0.41E-01 mag=      0.044
       N       E                     dE             d eps       ncg     rms          rms(c)
DAV:   1    -0.313318271572E+02    0.88308E-02   -0.30963E-02  3024   0.125E+00    0.499E-02
RMM:   2    -0.313331463060E+02   -0.13191E-02   -0.50664E-03  1606   0.271E-01
   1680 T=   926. E= -.25985457E+02 F= -.31333146E+02 E0= -.31282585E+02  EK= 0.31125E+01 SP= 0.22E+01 SK= 0.55E-01 mag=     -0.124
       N       E                     dE             d eps       ncg     rms          rms(c)
DAV:   1    -0.313281607070E+02    0.36665E-02   -0.15303E-02  2464   0.109E+00    0.566E-02
RMM:   2    -0.313295375243E+02   -0.13768E-02   -0.49521E-03  1611   0.319E-01    0.422E-02
RMM:   3    -0.313300889413E+02   -0.55142E-03   -0.14624E-03  1420   0.125E-01
   1681 T=   895. E= -.25983326E+02 F= -.31330089E+02 E0= -.31279594E+02  EK= 0.30086E+01 SP= 0.23E+01 SK= 0.67E-01 mag=     -0.130
       N       E                     dE             d eps       ncg     rms          rms(c)
DAV:   1    -0.313302224942E+02   -0.68497E-03   -0.25980E-02  2280   0.111E+00    0.484E-02
RMM:   2    -0.313314282953E+02   -0.12058E-02   -0.45445E-03  1532   0.282E-01
   1682 T=   865. E= -.25976614E+02 F= -.31331428E+02 E0= -.31280747E+02  EK= 0.29084E+01 SP= 0.24E+01 SK= 0.77E-01 mag=      0.020
       N       E                     dE             d eps       ncg     rms          rms(c)
DAV:   1    -0.313347838378E+02   -0.45613E-02   -0.30019E-02  3048   0.117E+00    0.774E-02
RMM:   2    -0.313366410211E+02   -0.18572E-02   -0.51626E-03  1542   0.261E-01    0.605E-02
RMM:   3    -0.313378920702E+02   -0.12510E-02   -0.21470E-03  1403   0.110E-01
   1683 T=   836. E= -.25971236E+02 F= -.31337892E+02 E0= -.31287506E+02  EK= 0.28099E+01 SP= 0.25E+01 SK= 0.84E-01 mag=      0.112
       N       E                     dE             d eps       ncg     rms          rms(c)
DAV:   1    -0.313476043525E+02   -0.10963E-01   -0.31789E-02  2576   0.105E+00    0.733E-02
RMM:   2    -0.313493011205E+02   -0.16968E-02   -0.50286E-03  1493   0.264E-01    0.536E-02
RMM:   3    -0.313498181516E+02   -0.51703E-03   -0.11408E-03  1352   0.101E-01
   1684 T=   808. E= -.25969302E+02 F= -.31349818E+02 E0= -.31299198E+02  EK= 0.27140E+01 SP= 0.26E+01 SK= 0.87E-01 mag=      0.044
       N       E                     dE             d eps       ncg     rms          rms(c)
DAV:   1    -0.313651187531E+02   -0.15818E-01   -0.47467E-02  2568   0.107E+00    0.587E-02
RMM:   2    -0.313662385198E+02   -0.11198E-02   -0.49096E-03  1562   0.299E-01
   1685 T=   782. E= -.25964338E+02 F= -.31366239E+02 E0= -.31315754E+02  EK= 0.26286E+01 SP= 0.27E+01 SK= 0.86E-01 mag=     -0.143
       N       E                     dE             d eps       ncg     rms          rms(c)
DAV:   1    -0.313855496590E+02   -0.20431E-01   -0.29242E-02  2800   0.106E+00    0.634E-02
RMM:   2    -0.313868530604E+02   -0.13034E-02   -0.48122E-03  1546   0.283E-01
   1686 T=   759. E= -.25960208E+02 F= -.31386853E+02 E0= -.31336848E+02  EK= 0.25512E+01 SP= 0.28E+01 SK= 0.82E-01 mag=     -0.294
       N       E                     dE             d eps       ncg     rms          rms(c)
DAV:   1    -0.314118578107E+02   -0.26308E-01   -0.15357E-02  2544   0.101E+00    0.548E-02
RMM:   2    -0.314129318138E+02   -0.10740E-02   -0.46489E-03  1532   0.292E-01
   1687 T=   739. E= -.25957411E+02 F= -.31412932E+02 E0= -.31362712E+02  EK= 0.24840E+01 SP= 0.29E+01 SK= 0.75E-01 mag=     -0.274
       N       E                     dE             d eps       ncg     rms          rms(c)
DAV:   1    -0.314418350036E+02   -0.29977E-01   -0.18717E-02  2552   0.107E+00    0.427E-02
RMM:   2    -0.314429136065E+02   -0.10786E-02   -0.48601E-03  1554   0.276E-01
   1688 T=   723. E= -.25953268E+02 F= -.31442914E+02 E0= -.31392336E+02  EK= 0.24290E+01 SP= 0.30E+01 SK= 0.67E-01 mag=     -0.052
       N       E                     dE             d eps       ncg     rms          rms(c)
DAV:   1    -0.314743644493E+02   -0.32529E-01   -0.11077E-02  2432   0.962E-01    0.620E-02
RMM:   2    -0.314757034719E+02   -0.13390E-02   -0.48834E-03  1577   0.282E-01
   1689 T=   710. E= -.25948238E+02 F= -.31475703E+02 E0= -.31425585E+02  EK= 0.23852E+01 SP= 0.31E+01 SK= 0.58E-01 mag=      0.251
       N       E                     dE             d eps       ncg     rms          rms(c)
DAV:   1    -0.315106297240E+02   -0.36265E-01   -0.15079E-02  2648   0.101E+00    0.746E-02
RMM:   2    -0.315120744989E+02   -0.14448E-02   -0.45167E-03  1524   0.273E-01    0.599E-02
RMM:   3    -0.315128256480E+02   -0.75115E-03   -0.13305E-03  1469   0.107E-01
   1690 T=   700. E= -.25944467E+02 F= -.31512826E+02 E0= -.31462895E+02  EK= 0.23523E+01 SP= 0.32E+01 SK= 0.48E-01 mag=      0.161
       N       E                     dE             d eps       ncg     rms          rms(c)
DAV:   1    -0.315511350838E+02   -0.39061E-01   -0.24101E-02  2520   0.960E-01    0.659E-02
RMM:   2    -0.315524997126E+02   -0.13646E-02   -0.42225E-03  1467   0.245E-01    0.527E-02
RMM:   3    -0.315529693135E+02   -0.46960E-03   -0.10930E-03  1374   0.883E-02
   1691 T=   693. E= -.25941837E+02 F= -.31552969E+02 E0= -.31502514E+02  EK= 0.23295E+01 SP= 0.32E+01 SK= 0.38E-01 mag=     -0.129
       N       E                     dE             d eps       ncg     rms          rms(c)
DAV:   1    -0.315922063489E+02   -0.39707E-01   -0.33070E-02  2504   0.979E-01    0.817E-02
RMM:   2    -0.315936181979E+02   -0.14118E-02   -0.48147E-03  1556   0.272E-01    0.602E-02
RMM:   3    -0.315944869975E+02   -0.86880E-03   -0.13936E-03  1489   0.114E-01
   1692 T=   689. E= -.25938112E+02 F= -.31594487E+02 E0= -.31544417E+02  EK= 0.23172E+01 SP= 0.33E+01 SK= 0.29E-01 mag=     -0.220
       N       E                     dE             d eps       ncg     rms          rms(c)
DAV:   1    -0.316381799330E+02   -0.44562E-01   -0.17798E-02  2560   0.973E-01    0.511E-02
RMM:   2    -0.316389359696E+02   -0.75604E-03   -0.37999E-03  1549   0.258E-01
   1693 T=   689. E= -.25934594E+02 F= -.31638936E+02 E0= -.31588120E+02  EK= 0.23158E+01 SP= 0.34E+01 SK= 0.21E-01 mag=     -0.078
       N       E                     dE             d eps       ncg     rms          rms(c)
DAV:   1    -0.316814119325E+02   -0.43232E-01   -0.20859E-02  2824   0.979E-01    0.632E-02
RMM:   2    -0.316826692223E+02   -0.12573E-02   -0.45795E-03  1537   0.253E-01
   1694 T=   691. E= -.25930300E+02 F= -.31682669E+02 E0= -.31632168E+02  EK= 0.23223E+01 SP= 0.34E+01 SK= 0.14E-01 mag=      0.174
       N       E                     dE             d eps       ncg     rms          rms(c)
DAV:   1    -0.317268832542E+02   -0.45471E-01   -0.13395E-02  2504   0.961E-01    0.740E-02
RMM:   2    -0.317280618041E+02   -0.11785E-02   -0.40315E-03  1526   0.271E-01
   1695 T=   695. E= -.25927335E+02 F= -.31728062E+02 E0= -.31677889E+02  EK= 0.23368E+01 SP= 0.35E+01 SK= 0.91E-02 mag=      0.350
       N       E                     dE             d eps       ncg     rms          rms(c)
DAV:   1    -0.317729183795E+02   -0.46035E-01   -0.19391E-02  2568   0.102E+00    0.588E-02
RMM:   2    -0.317742111108E+02   -0.12927E-02   -0.49090E-03  1557   0.274E-01
   1696 T=   702. E= -.25923562E+02 F= -.31774211E+02 E0= -.31723692E+02  EK= 0.23602E+01 SP= 0.35E+01 SK= 0.52E-02 mag=      0.337
       N       E                     dE             d eps       ncg     rms          rms(c)
DAV:   1    -0.318184520560E+02   -0.45534E-01   -0.13114E-02  2384   0.963E-01    0.579E-02
RMM:   2    -0.318197593287E+02   -0.13073E-02   -0.51449E-03  1573   0.287E-01
   1697 T=   711. E= -.25919816E+02 F= -.31819759E+02 E0= -.31768668E+02  EK= 0.23898E+01 SP= 0.35E+01 SK= 0.26E-02 mag=      0.096
       N       E                     dE             d eps       ncg     rms          rms(c)
DAV:   1    -0.318622846584E+02   -0.43833E-01   -0.12182E-02  2776   0.102E+00    0.660E-02
RMM:   2    -0.318638060724E+02   -0.15214E-02   -0.56576E-03  1606   0.280E-01    0.522E-02
RMM:   3    -0.318644345374E+02   -0.62847E-03   -0.15504E-03  1467   0.114E-01
   1698 T=   721. E= -.25917036E+02 F= -.31864435E+02 E0= -.31813392E+02  EK= 0.24239E+01 SP= 0.35E+01 SK= 0.10E-02 mag=     -0.125
       N       E                     dE             d eps       ncg     rms          rms(c)
DAV:   1    -0.319048251433E+02   -0.41019E-01   -0.37376E-02  2520   0.989E-01    0.784E-02
RMM:   2    -0.319065565258E+02   -0.17314E-02   -0.45899E-03  1425   0.245E-01    0.604E-02
RMM:   3    -0.319072389300E+02   -0.68240E-03   -0.12674E-03  1397   0.910E-02
   1699 T=   732. E= -.25914396E+02 F= -.31907239E+02 E0= -.31855948E+02  EK= 0.24618E+01 SP= 0.35E+01 SK= 0.23E-03 mag=     -0.115
       N       E                     dE             d eps       ncg     rms          rms(c)
DAV:   1    -0.319475011801E+02   -0.40945E-01   -0.37298E-02  2624   0.101E+00    0.554E-02
RMM:   2    -0.319484870595E+02   -0.98588E-03   -0.46439E-03  1565   0.275E-01
   1700 T=   745. E= -.25911145E+02 F= -.31948487E+02 E0= -.31896795E+02  EK= 0.25037E+01 SP= 0.35E+01 SK= 0.19E-05 mag=      0.092
       N       E                     dE             d eps       ncg     rms          rms(c)
DAV:   1    -0.319847405133E+02   -0.37239E-01   -0.29000E-02  2688   0.103E+00    0.630E-02
RMM:   2    -0.319859571726E+02   -0.12167E-02   -0.47998E-03  1564   0.278E-01
   1701 T=   757. E= -.25908400E+02 F= -.31985957E+02 E0= -.31934706E+02  EK= 0.25456E+01 SP= 0.35E+01 SK= 0.95E-04 mag=      0.301
       N       E                     dE             d eps       ncg     rms          rms(c)
DAV:   1    -0.320194662529E+02   -0.34726E-01   -0.16466E-02  2576   0.101E+00    0.736E-02
RMM:   2    -0.320208445564E+02   -0.13783E-02   -0.48477E-03  1549   0.298E-01    0.536E-02
RMM:   3    -0.320215312107E+02   -0.68665E-03   -0.15571E-03  1483   0.120E-01
   1702 T=   770. E= -.25907419E+02 F= -.32021531E+02 E0= -.31969852E+02  EK= 0.25872E+01 SP= 0.35E+01 SK= 0.32E-03 mag=      0.188
       N       E                     dE             d eps       ncg     rms          rms(c)
DAV:   1    -0.320528103925E+02   -0.31966E-01   -0.17780E-02  2560   0.111E+00    0.469E-02
RMM:   2    -0.320537282016E+02   -0.91781E-03   -0.34345E-03  1449   0.261E-01
   1703 T=   783. E= -.25902387E+02 F= -.32053728E+02 E0= -.32001546E+02  EK= 0.26321E+01 SP= 0.35E+01 SK= 0.55E-03 mag=     -0.171
       N       E                     dE             d eps       ncg     rms          rms(c)
DAV:   1    -0.320778565858E+02   -0.25046E-01   -0.19020E-02  3000   0.111E+00    0.905E-02
RMM:   2    -0.320796953308E+02   -0.18387E-02   -0.42615E-03  1496   0.234E-01    0.718E-02
RMM:   3    -0.320812902829E+02   -0.15950E-02   -0.19817E-03  1400   0.107E-01    0.496E-02
RMM:   4    -0.320821810206E+02   -0.89074E-03   -0.13174E-03  1394   0.786E-02
   1704 T=   795. E= -.25898496E+02 F= -.32082181E+02 E0= -.32029800E+02  EK= 0.26735E+01 SP= 0.35E+01 SK= 0.66E-03 mag=     -0.064
       N       E                     dE             d eps       ncg     rms          rms(c)
DAV:   1    -0.321034620560E+02   -0.22172E-01   -0.12157E-02  2152   0.990E-01    0.844E-02
RMM:   2    -0.321050715039E+02   -0.16094E-02   -0.44749E-03  1550   0.253E-01    0.638E-02
RMM:   3    -0.321058701077E+02   -0.79860E-03   -0.14883E-03  1400   0.981E-02
   1705 T=   806. E= -.25896516E+02 F= -.32105870E+02 E0= -.32053565E+02  EK= 0.27088E+01 SP= 0.35E+01 SK= 0.66E-03 mag=      0.185
       N       E                     dE             d eps       ncg     rms          rms(c)
DAV:   1    -0.321233867468E+02   -0.18315E-01   -0.27523E-02  2728   0.109E+00    0.821E-02
RMM:   2    -0.321248516190E+02   -0.14649E-02   -0.45873E-03  1521   0.278E-01    0.611E-02
RMM:   3    -0.321256415360E+02   -0.78992E-03   -0.15186E-03  1416   0.119E-01
   1706 T=   815. E= -.25893789E+02 F= -.32125642E+02 E0= -.32073253E+02  EK= 0.27405E+01 SP= 0.35E+01 SK= 0.54E-03 mag=      0.240
       N       E                     dE             d eps       ncg     rms          rms(c)
DAV:   1    -0.321409591927E+02   -0.16108E-01   -0.14787E-02  2592   0.105E+00    0.544E-02
RMM:   2    -0.321418694856E+02   -0.91029E-03   -0.37326E-03  1521   0.263E-01
   1707 T=   824. E= -.25890570E+02 F= -.32141869E+02 E0= -.32088770E+02  EK= 0.27679E+01 SP= 0.35E+01 SK= 0.35E-03 mag=      0.066
       N       E                     dE             d eps       ncg     rms          rms(c)
DAV:   1    -0.321513802983E+02   -0.10421E-01   -0.18217E-02  2960   0.112E+00    0.513E-02
RMM:   2    -0.321525227870E+02   -0.11425E-02   -0.44661E-03  1578   0.256E-01
   1708 T=   830. E= -.25887052E+02 F= -.32152523E+02 E0= -.32099601E+02  EK= 0.27881E+01 SP= 0.35E+01 SK= 0.16E-03 mag=     -0.222
       N       E                     dE             d eps       ncg     rms          rms(c)
DAV:   1    -0.321566574879E+02   -0.52772E-02   -0.13236E-02  2224   0.109E+00    0.747E-02
RMM:   2    -0.321583175788E+02   -0.16601E-02   -0.44117E-03  1533   0.282E-01    0.593E-02
RMM:   3    -0.321594817298E+02   -0.11642E-02   -0.21904E-03  1420   0.125E-01
   1709 T=   833. E= -.25885147E+02 F= -.32159482E+02 E0= -.32106588E+02  EK= 0.28005E+01 SP= 0.35E+01 SK= 0.31E-04 mag=     -0.198
       N       E                     dE             d eps       ncg     rms          rms(c)
DAV:   1    -0.321616091128E+02   -0.32915E-02   -0.21147E-02  2744   0.110E+00    0.523E-02
RMM:   2    -0.321626487000E+02   -0.10396E-02   -0.34252E-03  1511   0.272E-01
   1710 T=   836. E= -.25880295E+02 F= -.32162649E+02 E0= -.32109158E+02  EK= 0.28092E+01 SP= 0.35E+01 SK= 0.55E-05 mag=      0.102
       N       E                     dE             d eps       ncg     rms          rms(c)
DAV:   1    -0.321570156597E+02    0.45935E-02   -0.26600E-02  3016   0.113E+00    0.901E-02
RMM:   2    -0.321590464491E+02   -0.20308E-02   -0.48718E-03  1541   0.246E-01    0.700E-02
RMM:   3    -0.321605479133E+02   -0.15015E-02   -0.19865E-03  1402   0.111E-01    0.508E-02
RMM:   4    -0.321615125033E+02   -0.96459E-03   -0.15425E-03  1402   0.840E-02
   1711 T=   836. E= -.25876621E+02 F= -.32161513E+02 E0= -.32107924E+02  EK= 0.28093E+01 SP= 0.35E+01 SK= 0.11E-03 mag=      0.059
       N       E                     dE             d eps       ncg     rms          rms(c)
DAV:   1    -0.321533285935E+02    0.72193E-02   -0.23622E-02  2440   0.103E+00    0.861E-02
RMM:   2    -0.321551393881E+02   -0.18108E-02   -0.42319E-03  1499   0.240E-01    0.625E-02
RMM:   3    -0.321560752435E+02   -0.93586E-03   -0.15745E-03  1403   0.996E-02
   1712 T=   833. E= -.25874290E+02 F= -.32156075E+02 E0= -.32102528E+02  EK= 0.28006E+01 SP= 0.35E+01 SK= 0.34E-03 mag=     -0.120
       N       E                     dE             d eps       ncg     rms          rms(c)
DAV:   1    -0.321461238278E+02    0.90156E-02   -0.32945E-02  2792   0.110E+00    0.735E-02
RMM:   2    -0.321475195408E+02   -0.13957E-02   -0.44913E-03  1527   0.277E-01    0.532E-02
RMM:   3    -0.321480314566E+02   -0.51192E-03   -0.12502E-03  1404   0.108E-01
   1713 T=   829. E= -.25871436E+02 F= -.32148031E+02 E0= -.32094475E+02  EK= 0.27870E+01 SP= 0.35E+01 SK= 0.65E-03 mag=     -0.204
       N       E                     dE             d eps       ncg     rms          rms(c)
DAV:   1    -0.321360853738E+02    0.11434E-01   -0.20424E-02  2728   0.105E+00    0.531E-02
RMM:   2    -0.321371352116E+02   -0.10498E-02   -0.39715E-03  1557   0.251E-01
   1714 T=   824. E= -.25867980E+02 F= -.32137135E+02 E0= -.32083237E+02  EK= 0.27687E+01 SP= 0.35E+01 SK= 0.10E-02 mag=     -0.124
       N       E                     dE             d eps       ncg     rms          rms(c)
DAV:   1    -0.321217044417E+02    0.14381E-01   -0.21516E-02  2760   0.108E+00    0.472E-02
RMM:   2    -0.321229578283E+02   -0.12534E-02   -0.44307E-03  1552   0.257E-01
   1715 T=   817. E= -.25864498E+02 F= -.32122958E+02 E0= -.32069104E+02  EK= 0.27452E+01 SP= 0.35E+01 SK= 0.13E-02 mag=      0.087
       N       E                     dE             d eps       ncg     rms          rms(c)
DAV:   1    -0.321049253381E+02    0.16779E-01   -0.16231E-02  2360   0.109E+00    0.630E-02
RMM:   2    -0.321064222245E+02   -0.14969E-02   -0.41998E-03  1544   0.280E-01    0.483E-02
RMM:   3    -0.321071939133E+02   -0.77169E-03   -0.16260E-03  1473   0.118E-01
   1716 T=   809. E= -.25862105E+02 F= -.32107194E+02 E0= -.32053447E+02  EK= 0.27178E+01 SP= 0.35E+01 SK= 0.15E-02 mag=      0.148
       N       E                     dE             d eps       ncg     rms          rms(c)
DAV:   1    -0.320883866699E+02    0.18036E-01   -0.25341E-02  2600   0.104E+00    0.502E-02
RMM:   2    -0.320895853236E+02   -0.11987E-02   -0.32749E-03  1472   0.260E-01
   1717 T=   801. E= -.25856529E+02 F= -.32089585E+02 E0= -.32035642E+02  EK= 0.26911E+01 SP= 0.35E+01 SK= 0.16E-02 mag=      0.038
       N       E                     dE             d eps       ncg     rms          rms(c)
DAV:   1    -0.320675663513E+02    0.20820E-01   -0.28740E-02  2952   0.112E+00    0.755E-02
RMM:   2    -0.320694584876E+02   -0.18921E-02   -0.45582E-03  1501   0.238E-01    0.593E-02
RMM:   3    -0.320705654098E+02   -0.11069E-02   -0.16747E-03  1400   0.101E-01
   1718 T=   792. E= -.25852098E+02 F= -.32070565E+02 E0= -.32016850E+02  EK= 0.26619E+01 SP= 0.36E+01 SK= 0.15E-02 mag=     -0.082
       N       E                     dE             d eps       ncg     rms          rms(c)
DAV:   1    -0.320491369002E+02    0.20322E-01   -0.35047E-02  2616   0.988E-01    0.716E-02
RMM:   2    -0.320508304597E+02   -0.16936E-02   -0.39936E-03  1476   0.241E-01    0.524E-02
RMM:   3    -0.320512485358E+02   -0.41808E-03   -0.10016E-03  1325   0.922E-02
   1719 T=   783. E= -.25850388E+02 F= -.32051249E+02 E0= -.31997416E+02  EK= 0.26305E+01 SP= 0.36E+01 SK= 0.13E-02 mag=     -0.079
       N       E                     dE             d eps       ncg     rms          rms(c)
DAV:   1    -0.320297142948E+02    0.21116E-01   -0.44165E-02  2856   0.106E+00    0.663E-02
RMM:   2    -0.320309959378E+02   -0.12816E-02   -0.44533E-03  1555   0.275E-01
   1720 T=   774. E= -.25846623E+02 F= -.32030996E+02 E0= -.31977239E+02  EK= 0.26018E+01 SP= 0.36E+01 SK= 0.10E-02 mag=      0.043
       N       E                     dE             d eps       ncg     rms          rms(c)
DAV:   1    -0.320091938671E+02    0.20520E-01   -0.26718E-02  2816   0.105E+00    0.572E-02
RMM:   2    -0.320104823711E+02   -0.12885E-02   -0.41230E-03  1554   0.256E-01
   1721 T=   766. E= -.25844038E+02 F= -.32010482E+02 E0= -.31957008E+02  EK= 0.25738E+01 SP= 0.36E+01 SK= 0.61E-03 mag=      0.198
       N       E                     dE             d eps       ncg     rms          rms(c)
DAV:   1    -0.319889877164E+02    0.20206E-01   -0.17031E-02  2584   0.100E+00    0.510E-02
RMM:   2    -0.319902789639E+02   -0.12912E-02   -0.46066E-03  1554   0.264E-01
   1722 T=   759. E= -.25841007E+02 F= -.31990279E+02 E0= -.31936915E+02  EK= 0.25494E+01 SP= 0.36E+01 SK= 0.26E-03 mag=      0.239
       N       E                     dE             d eps       ncg     rms          rms(c)
DAV:   1    -0.319688166882E+02    0.20171E-01   -0.24121E-02  2432   0.108E+00    0.522E-02
RMM:   2    -0.319701869238E+02   -0.13702E-02   -0.46906E-03  1545   0.273E-01    0.381E-02
RMM:   3    -0.319705235457E+02   -0.33662E-03   -0.13169E-03  1472   0.104E-01
   1723 T=   753. E= -.25837216E+02 F= -.31970524E+02 E0= -.31917025E+02  EK= 0.25295E+01 SP= 0.36E+01 SK= 0.36E-04 mag=      0.062
       N       E                     dE             d eps       ncg     rms          rms(c)
DAV:   1    -0.319497190950E+02    0.20468E-01   -0.18180E-02  2568   0.988E-01    0.520E-02
RMM:   2    -0.319508012707E+02   -0.10822E-02   -0.26487E-03  1496   0.223E-01
   1724 T=   748. E= -.25832315E+02 F= -.31950801E+02 E0= -.31897663E+02  EK= 0.25145E+01 SP= 0.36E+01 SK= 0.28E-04 mag=     -0.238
       N       E                     dE             d eps       ncg     rms          rms(c)
DAV:   1    -0.319287705386E+02    0.20949E-01   -0.23491E-02  2896   0.109E+00    0.800E-02
RMM:   2    -0.319304201290E+02   -0.16496E-02   -0.40632E-03  1552   0.243E-01    0.616E-02
RMM:   3    -0.319312626536E+02   -0.84252E-03   -0.12191E-03  1441   0.101E-01
   1725 T=   745. E= -.25827668E+02 F= -.31931263E+02 E0= -.31878614E+02  EK= 0.25034E+01 SP= 0.36E+01 SK= 0.30E-03 mag=     -0.179
       N       E                     dE             d eps       ncg     rms          rms(c)
DAV:   1    -0.319120792052E+02    0.18341E-01   -0.15922E-02  2432   0.967E-01    0.586E-02
RMM:   2    -0.319132118476E+02   -0.11326E-02   -0.32476E-03  1537   0.241E-01
   1726 T=   743. E= -.25824638E+02 F= -.31913212E+02 E0= -.31860242E+02  EK= 0.24964E+01 SP= 0.36E+01 SK= 0.91E-03 mag=      0.168
       N       E                     dE             d eps       ncg     rms          rms(c)
DAV:   1    -0.318901120396E+02    0.21967E-01   -0.29276E-02  2776   0.107E+00    0.985E-02
RMM:   2    -0.318923379230E+02   -0.22259E-02   -0.48967E-03  1542   0.257E-01    0.774E-02
RMM:   3    -0.318943279486E+02   -0.19900E-02   -0.25956E-03  1428   0.120E-01    0.499E-02
RMM:   4    -0.318952221504E+02   -0.89420E-03   -0.16500E-03  1401   0.887E-02
   1727 T=   742. E= -.25821813E+02 F= -.31895222E+02 E0= -.31842403E+02  EK= 0.24936E+01 SP= 0.36E+01 SK= 0.19E-02 mag=      0.067
       N       E                     dE             d eps       ncg     rms          rms(c)
DAV:   1    -0.318740358974E+02    0.20292E-01   -0.15765E-02  2448   0.994E-01    0.931E-02
RMM:   2    -0.318756984152E+02   -0.16625E-02   -0.42516E-03  1445   0.250E-01    0.653E-02
RMM:   3    -0.318766337221E+02   -0.93531E-03   -0.17370E-03  1400   0.105E-01
   1728 T=   742. E= -.25819061E+02 F= -.31876634E+02 E0= -.31824237E+02  EK= 0.24947E+01 SP= 0.36E+01 SK= 0.32E-02 mag=     -0.170
       N       E                     dE             d eps       ncg     rms          rms(c)
DAV:   1    -0.318559485128E+02    0.19750E-01   -0.25354E-02  2824   0.105E+00    0.846E-02
RMM:   2    -0.318574260999E+02   -0.14776E-02   -0.38999E-03  1447   0.253E-01    0.623E-02
RMM:   3    -0.318582603833E+02   -0.83428E-03   -0.12281E-03  1379   0.106E-01
   1729 T=   744. E= -.25815758E+02 F= -.31858260E+02 E0= -.31806251E+02  EK= 0.25010E+01 SP= 0.35E+01 SK= 0.48E-02 mag=     -0.190
       N       E                     dE             d eps       ncg     rms          rms(c)
DAV:   1    -0.318396660289E+02    0.17760E-01   -0.15085E-02  2616   0.100E+00    0.575E-02
RMM:   2    -0.318405365062E+02   -0.87048E-03   -0.33317E-03  1525   0.250E-01
   1730 T=   747. E= -.25813621E+02 F= -.31840537E+02 E0= -.31788423E+02  EK= 0.25111E+01 SP= 0.35E+01 SK= 0.67E-02 mag=      0.006
       N       E                     dE             d eps       ncg     rms          rms(c)
DAV:   1    -0.318195502173E+02    0.20116E-01   -0.20938E-02  2856   0.109E+00    0.601E-02
RMM:   2    -0.318208640866E+02   -0.13139E-02   -0.41043E-03  1538   0.252E-01
   1731 T=   751. E= -.25810352E+02 F= -.31820864E+02 E0= -.31769533E+02  EK= 0.25247E+01 SP= 0.35E+01 SK= 0.87E-02 mag=      0.286
       N       E                     dE             d eps       ncg     rms          rms(c)
DAV:   1    -0.317982860798E+02    0.21264E-01   -0.12893E-02  2096   0.105E+00    0.888E-02
RMM:   2    -0.318002425660E+02   -0.19565E-02   -0.46283E-03  1534   0.291E-01    0.686E-02
RMM:   3    -0.318016217517E+02   -0.13792E-02   -0.23684E-03  1402   0.128E-01    0.431E-02
RMM:   4    -0.318023785740E+02   -0.75682E-03   -0.14225E-03  1399   0.928E-02
   1732 T=   756. E= -.25809849E+02 F= -.31802379E+02 E0= -.31750969E+02  EK= 0.25407E+01 SP= 0.34E+01 SK= 0.11E-01 mag=      0.071
       N       E                     dE             d eps       ncg     rms          rms(c)
DAV:   1    -0.317775247549E+02    0.24097E-01   -0.20992E-02  2680   0.111E+00    0.980E-02
RMM:   2    -0.317796153543E+02   -0.20906E-02   -0.39558E-03  1468   0.255E-01    0.738E-02
RMM:   3    -0.317807155483E+02   -0.11002E-02   -0.13248E-03  1395   0.947E-02
   1733 T=   762. E= -.25805799E+02 F= -.31780716E+02 E0= -.31730158E+02  EK= 0.25607E+01 SP= 0.34E+01 SK= 0.13E-01 mag=     -0.167
       N       E                     dE             d eps       ncg     rms          rms(c)
DAV:   1    -0.317579724609E+02    0.21643E-01   -0.34494E-02  2720   0.107E+00    0.782E-02
RMM:   2    -0.317592247111E+02   -0.12523E-02   -0.40470E-03  1533   0.279E-01
   1734 T=   769. E= -.25802592E+02 F= -.31759225E+02 E0= -.31708870E+02  EK= 0.25835E+01 SP= 0.34E+01 SK= 0.15E-01 mag=     -0.294
       N       E                     dE             d eps       ncg     rms          rms(c)
DAV:   1    -0.317352649954E+02    0.22707E-01   -0.28082E-02  2776   0.115E+00    0.495E-02
RMM:   2    -0.317364604820E+02   -0.11955E-02   -0.43797E-03  1555   0.276E-01
   1735 T=   775. E= -.25801214E+02 F= -.31736460E+02 E0= -.31686228E+02  EK= 0.26059E+01 SP= 0.33E+01 SK= 0.16E-01 mag=     -0.211
       N       E                     dE             d eps       ncg     rms          rms(c)
DAV:   1    -0.317109417725E+02    0.24323E-01   -0.16848E-02  2728   0.112E+00    0.449E-02
RMM:   2    -0.317119807918E+02   -0.10390E-02   -0.45064E-03  1581   0.317E-01
   1736 T=   783. E= -.25798216E+02 F= -.31711981E+02 E0= -.31661957E+02  EK= 0.26307E+01 SP= 0.33E+01 SK= 0.18E-01 mag=      0.055
       N       E                     dE             d eps       ncg     rms          rms(c)
DAV:   1    -0.316821966164E+02    0.28745E-01   -0.20359E-02  2408   0.115E+00    0.725E-02
RMM:   2    -0.316838960124E+02   -0.16994E-02   -0.47527E-03  1547   0.288E-01    0.571E-02
RMM:   3    -0.316847406924E+02   -0.84468E-03   -0.17184E-03  1449   0.114E-01
   1737 T=   790. E= -.25793861E+02 F= -.31684741E+02 E0= -.31635362E+02  EK= 0.26559E+01 SP= 0.32E+01 SK= 0.18E-01 mag=      0.121
       N       E                     dE             d eps       ncg     rms          rms(c)
DAV:   1    -0.316557657892E+02    0.28130E-01   -0.17989E-02  2520   0.104E+00    0.644E-02
RMM:   2    -0.316567188539E+02   -0.95306E-03   -0.30233E-03  1495   0.263E-01
   1738 T=   798. E= -.25789693E+02 F= -.31656719E+02 E0= -.31607453E+02  EK= 0.26814E+01 SP= 0.32E+01 SK= 0.19E-01 mag=     -0.011
       N       E                     dE             d eps       ncg     rms          rms(c)
DAV:   1    -0.316239907952E+02    0.31775E-01   -0.29282E-02  3072   0.119E+00    0.656E-02
RMM:   2    -0.316253555305E+02   -0.13647E-02   -0.43139E-03  1557   0.256E-01    0.475E-02
RMM:   3    -0.316258735890E+02   -0.51806E-03   -0.13175E-03  1437   0.101E-01
   1739 T=   805. E= -.25785012E+02 F= -.31625874E+02 E0= -.31577120E+02  EK= 0.27052E+01 SP= 0.31E+01 SK= 0.19E-01 mag=     -0.106
       N       E                     dE             d eps       ncg     rms          rms(c)
DAV:   1    -0.315929994134E+02    0.32356E-01   -0.12571E-02  2504   0.107E+00    0.681E-02
RMM:   2    -0.315939696693E+02   -0.97026E-03   -0.36404E-03  1555   0.289E-01
   1740 T=   811. E= -.25781697E+02 F= -.31593970E+02 E0= -.31545456E+02  EK= 0.27266E+01 SP= 0.31E+01 SK= 0.18E-01 mag=     -0.109
       N       E                     dE             d eps       ncg     rms          rms(c)
DAV:   1    -0.315589936731E+02    0.34006E-01   -0.25672E-02  2984   0.120E+00    0.484E-02
RMM:   2    -0.315601291043E+02   -0.11354E-02   -0.47041E-03  1567   0.275E-01
   1741 T=   817. E= -.25778176E+02 F= -.31560129E+02 E0= -.31511952E+02  EK= 0.27457E+01 SP= 0.30E+01 SK= 0.17E-01 mag=     -0.014
       N       E                     dE             d eps       ncg     rms          rms(c)
DAV:   1    -0.315238879547E+02    0.35106E-01   -0.12113E-02  2168   0.103E+00    0.546E-02
RMM:   2    -0.315251824648E+02   -0.12945E-02   -0.47534E-03  1561   0.312E-01
   1742 T=   822. E= -.25775685E+02 F= -.31525182E+02 E0= -.31477398E+02  EK= 0.27615E+01 SP= 0.30E+01 SK= 0.16E-01 mag=      0.105
       N       E                     dE             d eps       ncg     rms          rms(c)
DAV:   1    -0.314886324116E+02    0.35256E-01   -0.22050E-02  2848   0.124E+00    0.527E-02
RMM:   2    -0.314898600877E+02   -0.12277E-02   -0.48758E-03  1558   0.300E-01
   1743 T=   826. E= -.25771815E+02 F= -.31489860E+02 E0= -.31442384E+02  EK= 0.27768E+01 SP= 0.29E+01 SK= 0.15E-01 mag=      0.167
       N       E                     dE             d eps       ncg     rms          rms(c)
DAV:   1    -0.314530274877E+02    0.35605E-01   -0.14389E-02  2456   0.107E+00    0.478E-02
RMM:   2    -0.314543184429E+02   -0.12910E-02   -0.52015E-03  1575   0.310E-01
   1744 T=   830. E= -.25767295E+02 F= -.31454318E+02 E0= -.31407106E+02  EK= 0.27905E+01 SP= 0.29E+01 SK= 0.13E-01 mag=      0.092
       N       E                     dE             d eps       ncg     rms          rms(c)
DAV:   1    -0.314181365543E+02    0.34891E-01   -0.19379E-02  2728   0.118E+00    0.577E-02
RMM:   2    -0.314194318560E+02   -0.12953E-02   -0.52026E-03  1579   0.309E-01
   1745 T=   834. E= -.25762477E+02 F= -.31419432E+02 E0= -.31372448E+02  EK= 0.28027E+01 SP= 0.28E+01 SK= 0.12E-01 mag=     -0.080
       N       E                     dE             d eps       ncg     rms          rms(c)
DAV:   1    -0.313837290933E+02    0.34407E-01   -0.17283E-02  2640   0.108E+00    0.644E-02
RMM:   2    -0.313853593372E+02   -0.16302E-02   -0.52328E-03  1556   0.309E-01    0.504E-02
RMM:   3    -0.313860405849E+02   -0.68125E-03   -0.16675E-03  1481   0.119E-01
   1746 T=   837. E= -.25759281E+02 F= -.31386041E+02 E0= -.31339299E+02  EK= 0.28120E+01 SP= 0.28E+01 SK= 0.99E-02 mag=     -0.071
       N       E                     dE             d eps       ncg     rms          rms(c)
DAV:   1    -0.313526489578E+02    0.32710E-01   -0.21014E-02  2576   0.111E+00    0.690E-02
RMM:   2    -0.313541372930E+02   -0.14883E-02   -0.46121E-03  1528   0.281E-01    0.499E-02
RMM:   3    -0.313546668852E+02   -0.52959E-03   -0.11310E-03  1337   0.108E-01
   1747 T=   839. E= -.25755471E+02 F= -.31354667E+02 E0= -.31308066E+02  EK= 0.28209E+01 SP= 0.28E+01 SK= 0.83E-02 mag=      0.025
       N       E                     dE             d eps       ncg     rms          rms(c)
DAV:   1    -0.313244952478E+02    0.29642E-01   -0.25581E-02  2696   0.110E+00    0.590E-02
RMM:   2    -0.313255358483E+02   -0.10406E-02   -0.39743E-03  1564   0.266E-01
   1748 T=   842. E= -.25749573E+02 F= -.31325536E+02 E0= -.31279183E+02  EK= 0.28308E+01 SP= 0.27E+01 SK= 0.67E-02 mag=      0.119
       N       E                     dE             d eps       ncg     rms          rms(c)
DAV:   1    -0.312994829870E+02    0.25012E-01   -0.18513E-02  2816   0.113E+00    0.465E-02
RMM:   2    -0.313004970684E+02   -0.10141E-02   -0.42219E-03  1549   0.275E-01
   1749 T=   845. E= -.25746468E+02 F= -.31300497E+02 E0= -.31254270E+02  EK= 0.28384E+01 SP= 0.27E+01 SK= 0.52E-02 mag=      0.133
       N       E                     dE             d eps       ncg     rms          rms(c)
DAV:   1    -0.312786191887E+02    0.20864E-01   -0.16566E-02  2448   0.112E+00    0.417E-02
RMM:   2    -0.312796590692E+02   -0.10399E-02   -0.40308E-03  1533   0.285E-01
   1750 T=   847. E= -.25743231E+02 F= -.31279659E+02 E0= -.31233537E+02  EK= 0.28465E+01 SP= 0.27E+01 SK= 0.38E-02 mag=      0.042
       N       E                     dE             d eps       ncg     rms          rms(c)
DAV:   1    -0.312623676061E+02    0.16252E-01   -0.18970E-02  2824   0.116E+00    0.527E-02
RMM:   2    -0.312635807830E+02   -0.12132E-02   -0.45383E-03  1548   0.288E-01
   1751 T=   850. E= -.25737918E+02 F= -.31263581E+02 E0= -.31217678E+02  EK= 0.28575E+01 SP= 0.27E+01 SK= 0.25E-02 mag=     -0.096
       N       E                     dE             d eps       ncg     rms          rms(c)
DAV:   1    -0.312518441455E+02    0.10523E-01   -0.10542E-02  2240   0.106E+00    0.550E-02
RMM:   2    -0.312531730112E+02   -0.13289E-02   -0.47420E-03  1554   0.309E-01
   1752 T=   854. E= -.25732452E+02 F= -.31253173E+02 E0= -.31207458E+02  EK= 0.28698E+01 SP= 0.26E+01 SK= 0.15E-02 mag=     -0.149
       N       E                     dE             d eps       ncg     rms          rms(c)
DAV:   1    -0.312479982311E+02    0.38459E-02   -0.17731E-02  2568   0.115E+00    0.402E-02
RMM:   2    -0.312491284813E+02   -0.11303E-02   -0.53950E-03  1572   0.304E-01
   1753 T=   858. E= -.25727631E+02 F= -.31249128E+02 E0= -.31203352E+02  EK= 0.28832E+01 SP= 0.26E+01 SK= 0.67E-03 mag=     -0.081
       N       E                     dE             d eps       ncg     rms          rms(c)
DAV:   1    -0.312481982082E+02   -0.19998E-03   -0.17814E-02  2584   0.109E+00    0.569E-02
RMM:   2    -0.312497066364E+02   -0.15084E-02   -0.55825E-03  1542   0.315E-01    0.442E-02
RMM:   3    -0.312503988878E+02   -0.69225E-03   -0.18339E-03  1469   0.120E-01
   1754 T=   862. E= -.25723821E+02 F= -.31250399E+02 E0= -.31204702E+02  EK= 0.28958E+01 SP= 0.26E+01 SK= 0.15E-03 mag=      0.012
       N       E                     dE             d eps       ncg     rms          rms(c)
DAV:   1    -0.312562106326E+02   -0.65040E-02   -0.18998E-02  2616   0.110E+00    0.503E-02
RMM:   2    -0.312573401008E+02   -0.11295E-02   -0.38820E-03  1458   0.270E-01
   1755 T=   866. E= -.25717728E+02 F= -.31257340E+02 E0= -.31211732E+02  EK= 0.29109E+01 SP= 0.26E+01 SK= 0.55E-05 mag=      0.086
       N       E                     dE             d eps       ncg     rms          rms(c)
DAV:   1    -0.312671006107E+02   -0.10890E-01   -0.27188E-02  2952   0.117E+00    0.730E-02
RMM:   2    -0.312687776551E+02   -0.16770E-02   -0.49081E-03  1547   0.261E-01    0.559E-02
RMM:   3    -0.312698405193E+02   -0.10629E-02   -0.19036E-03  1401   0.108E-01
   1756 T=   870. E= -.25713057E+02 F= -.31269841E+02 E0= -.31224333E+02  EK= 0.29242E+01 SP= 0.26E+01 SK= 0.32E-03 mag=      0.031
       N       E                     dE             d eps       ncg     rms          rms(c)
DAV:   1    -0.312858107871E+02   -0.17033E-01   -0.20205E-02  2488   0.105E+00    0.733E-02
RMM:   2    -0.312873725283E+02   -0.15617E-02   -0.41860E-03  1498   0.271E-01    0.540E-02
RMM:   3    -0.312877628598E+02   -0.39033E-03   -0.98634E-04  1230   0.101E-01
   1757 T=   873. E= -.25710989E+02 F= -.31287763E+02 E0= -.31242261E+02  EK= 0.29339E+01 SP= 0.26E+01 SK= 0.12E-02 mag=     -0.053
       N       E                     dE             d eps       ncg     rms          rms(c)
DAV:   1    -0.313084728270E+02   -0.21100E-01   -0.37167E-02  2720   0.114E+00    0.642E-02
RMM:   2    -0.313097024886E+02   -0.12297E-02   -0.47393E-03  1554   0.296E-01
   1758 T=   876. E= -.25706072E+02 F= -.31309702E+02 E0= -.31264287E+02  EK= 0.29439E+01 SP= 0.27E+01 SK= 0.26E-02 mag=     -0.107
       N       E                     dE             d eps       ncg     rms          rms(c)
DAV:   1    -0.313344603705E+02   -0.25988E-01   -0.22961E-02  2824   0.116E+00    0.546E-02
RMM:   2    -0.313355557318E+02   -0.10954E-02   -0.44459E-03  1545   0.279E-01
   1759 T=   877. E= -.25703471E+02 F= -.31335556E+02 E0= -.31290101E+02  EK= 0.29485E+01 SP= 0.27E+01 SK= 0.47E-02 mag=     -0.085
       N       E                     dE             d eps       ncg     rms          rms(c)
DAV:   1    -0.313633100374E+02   -0.28850E-01   -0.14236E-02  2512   0.108E+00    0.283E-02
RMM:   2    -0.313642184184E+02   -0.90838E-03   -0.46541E-03  1539   0.304E-01
   1760 T=   878. E= -.25699878E+02 F= -.31364218E+02 E0= -.31318643E+02  EK= 0.29499E+01 SP= 0.27E+01 SK= 0.74E-02 mag=      0.006
       N       E                     dE             d eps       ncg     rms          rms(c)
DAV:   1    -0.313923290217E+02   -0.29019E-01   -0.20672E-02  2616   0.121E+00    0.512E-02
RMM:   2    -0.313935423341E+02   -0.12133E-02   -0.50824E-03  1560   0.288E-01
   1761 T=   877. E= -.25693980E+02 F= -.31393542E+02 E0= -.31348127E+02  EK= 0.29471E+01 SP= 0.27E+01 SK= 0.11E-01 mag=      0.106
       N       E                     dE             d eps       ncg     rms          rms(c)
DAV:   1    -0.314220290756E+02   -0.29700E-01   -0.10528E-02  2512   0.109E+00    0.629E-02
RMM:   2    -0.314235078168E+02   -0.14787E-02   -0.50794E-03  1562   0.310E-01    0.489E-02
RMM:   3    -0.314242157636E+02   -0.70795E-03   -0.18042E-03  1407   0.123E-01
   1762 T=   874. E= -.25690564E+02 F= -.31424216E+02 E0= -.31378754E+02  EK= 0.29364E+01 SP= 0.28E+01 SK= 0.15E-01 mag=      0.046
       N       E                     dE             d eps       ncg     rms          rms(c)
DAV:   1    -0.314522717420E+02   -0.28764E-01   -0.25556E-02  2648   0.114E+00    0.612E-02
RMM:   2    -0.314537296811E+02   -0.14579E-02   -0.42846E-03  1503   0.293E-01    0.474E-02
RMM:   3    -0.314540442890E+02   -0.31461E-03   -0.92096E-04  1214   0.102E-01
   1763 T=   869. E= -.25685719E+02 F= -.31454044E+02 E0= -.31408491E+02  EK= 0.29198E+01 SP= 0.28E+01 SK= 0.19E-01 mag=     -0.048
       N       E                     dE             d eps       ncg     rms          rms(c)
DAV:   1    -0.314808551391E+02   -0.27125E-01   -0.33119E-02  2552   0.113E+00    0.579E-02
RMM:   2    -0.314819519144E+02   -0.10968E-02   -0.47520E-03  1553   0.295E-01
   1764 T=   862. E= -.25679143E+02 F= -.31481952E+02 E0= -.31436337E+02  EK= 0.28972E+01 SP= 0.29E+01 SK= 0.23E-01 mag=     -0.120
       N       E                     dE             d eps       ncg     rms          rms(c)
DAV:   1    -0.315069161615E+02   -0.26061E-01   -0.22503E-02  2888   0.117E+00    0.446E-02
RMM:   2    -0.315079713659E+02   -0.10552E-02   -0.44693E-03  1568   0.272E-01
   1765 T=   853. E= -.25675101E+02 F= -.31507971E+02 E0= -.31462213E+02  EK= 0.28651E+01 SP= 0.29E+01 SK= 0.27E-01 mag=     -0.103
       N       E                     dE             d eps       ncg     rms          rms(c)
DAV:   1    -0.315300469853E+02   -0.23131E-01   -0.14100E-02  2680   0.116E+00    0.288E-02
RMM:   2    -0.315308969585E+02   -0.84997E-03   -0.47994E-03  1539   0.321E-01
   1766 T=   841. E= -.25671046E+02 F= -.31530897E+02 E0= -.31484876E+02  EK= 0.28262E+01 SP= 0.30E+01 SK= 0.31E-01 mag=     -0.001
       N       E                     dE             d eps       ncg     rms          rms(c)
DAV:   1    -0.315474380511E+02   -0.17391E-01   -0.19130E-02  2488   0.119E+00    0.471E-02
RMM:   2    -0.315487167312E+02   -0.12787E-02   -0.60224E-03  1602   0.294E-01
   1767 T=   828. E= -.25664506E+02 F= -.31548717E+02 E0= -.31502752E+02  EK= 0.27821E+01 SP= 0.31E+01 SK= 0.34E-01 mag=      0.115
       N       E                     dE             d eps       ncg     rms          rms(c)
DAV:   1    -0.315616548386E+02   -0.14217E-01   -0.13533E-02  2584   0.110E+00    0.596E-02
RMM:   2    -0.315629343132E+02   -0.12795E-02   -0.47658E-03  1591   0.303E-01
   1768 T=   813. E= -.25658701E+02 F= -.31562934E+02 E0= -.31516907E+02  EK= 0.27324E+01 SP= 0.31E+01 SK= 0.35E-01 mag=      0.160
       N       E                     dE             d eps       ncg     rms          rms(c)
DAV:   1    -0.315726535651E+02   -0.10999E-01   -0.16046E-02  2552   0.113E+00    0.320E-02
RMM:   2    -0.315736033359E+02   -0.94977E-03   -0.49159E-03  1591   0.289E-01
   1769 T=   797. E= -.25653362E+02 F= -.31573603E+02 E0= -.31527161E+02  EK= 0.26789E+01 SP= 0.32E+01 SK= 0.36E-01 mag=      0.087
       N       E                     dE             d eps       ncg     rms          rms(c)
DAV:   1    -0.315776193928E+02   -0.49658E-02   -0.14004E-02  2312   0.108E+00    0.328E-02
RMM:   2    -0.315785955268E+02   -0.97613E-03   -0.55432E-03  1589   0.310E-01
   1770 T=   780. E= -.25647404E+02 F= -.31578596E+02 E0= -.31531978E+02  EK= 0.26220E+01 SP= 0.33E+01 SK= 0.35E-01 mag=     -0.075
       N       E                     dE             d eps       ncg     rms          rms(c)
DAV:   1    -0.315757491605E+02    0.18702E-02   -0.18816E-02  2760   0.111E+00    0.721E-02
RMM:   2    -0.315774790940E+02   -0.17299E-02   -0.56417E-03  1533   0.297E-01    0.594E-02
RMM:   3    -0.315788740956E+02   -0.13950E-02   -0.31595E-03  1401   0.127E-01    0.354E-02
RMM:   4    -0.315795010688E+02   -0.62697E-03   -0.18987E-03  1400   0.931E-02
   1771 T=   762. E= -.25643468E+02 F= -.31579501E+02 E0= -.31532632E+02  EK= 0.25621E+01 SP= 0.33E+01 SK= 0.32E-01 mag=     -0.024
       N       E                     dE             d eps       ncg     rms          rms(c)
DAV:   1    -0.315722495891E+02    0.66245E-02   -0.19061E-02  2512   0.107E+00    0.725E-02
RMM:   2    -0.315737787740E+02   -0.15292E-02   -0.51031E-03  1452   0.250E-01    0.566E-02
RMM:   3    -0.315748128718E+02   -0.10341E-02   -0.23065E-03  1400   0.102E-01
   1772 T=   744. E= -.25638959E+02 F= -.31574813E+02 E0= -.31527981E+02  EK= 0.25015E+01 SP= 0.34E+01 SK= 0.29E-01 mag=      0.075
       N       E                     dE             d eps       ncg     rms          rms(c)
DAV:   1    -0.315659878252E+02    0.77909E-02   -0.23015E-02  2672   0.102E+00    0.601E-02
RMM:   2    -0.315668266138E+02   -0.83879E-03   -0.36859E-03  1498   0.258E-01
   1773 T=   727. E= -.25633962E+02 F= -.31566827E+02 E0= -.31519822E+02  EK= 0.24438E+01 SP= 0.35E+01 SK= 0.24E-01 mag=      0.145
       N       E                     dE             d eps       ncg     rms          rms(c)
DAV:   1    -0.315544993084E+02    0.11489E-01   -0.19182E-02  2744   0.107E+00    0.363E-02
RMM:   2    -0.315552593024E+02   -0.75999E-03   -0.37806E-03  1536   0.251E-01
   1774 T=   710. E= -.25631411E+02 F= -.31555259E+02 E0= -.31508032E+02  EK= 0.23868E+01 SP= 0.35E+01 SK= 0.19E-01 mag=      0.126
       N       E                     dE             d eps       ncg     rms          rms(c)
DAV:   1    -0.315398761475E+02    0.14623E-01   -0.10073E-02  2248   0.998E-01    0.321E-02
RMM:   2    -0.315404794646E+02   -0.60332E-03   -0.35417E-03  1519   0.261E-01
   1775 T=   695. E= -.25627684E+02 F= -.31540479E+02 E0= -.31493062E+02  EK= 0.23354E+01 SP= 0.36E+01 SK= 0.13E-01 mag=      0.010
       N       E                     dE             d eps       ncg     rms          rms(c)
DAV:   1    -0.315214569282E+02    0.18419E-01   -0.13381E-02  2480   0.108E+00    0.469E-02
RMM:   2    -0.315223501291E+02   -0.89320E-03   -0.42463E-03  1521   0.264E-01
   1776 T=   682. E= -.25621501E+02 F= -.31522350E+02 E0= -.31475098E+02  EK= 0.22913E+01 SP= 0.36E+01 SK= 0.79E-02 mag=     -0.131
       N       E                     dE             d eps       ncg     rms          rms(c)
DAV:   1    -0.315016657731E+02    0.19791E-01   -0.91249E-03  2448   0.959E-01    0.536E-02
RMM:   2    -0.315026291913E+02   -0.96342E-03   -0.41858E-03  1567   0.284E-01
   1777 T=   671. E= -.25616034E+02 F= -.31502629E+02 E0= -.31455477E+02  EK= 0.22539E+01 SP= 0.36E+01 SK= 0.37E-02 mag=     -0.189
       N       E                     dE             d eps       ncg     rms          rms(c)
DAV:   1    -0.314816571199E+02    0.20009E-01   -0.13697E-02  2360   0.105E+00    0.302E-02
RMM:   2    -0.314823140585E+02   -0.65694E-03   -0.41235E-03  1561   0.272E-01
   1778 T=   662. E= -.25610999E+02 F= -.31482314E+02 E0= -.31434903E+02  EK= 0.22246E+01 SP= 0.36E+01 SK= 0.90E-03 mag=     -0.104
       N       E                     dE             d eps       ncg     rms          rms(c)
DAV:   1    -0.314594356978E+02    0.22221E-01   -0.12977E-02  2352   0.957E-01    0.401E-02
RMM:   2    -0.314602614499E+02   -0.82575E-03   -0.47413E-03  1567   0.279E-01
   1779 T=   656. E= -.25605391E+02 F= -.31460261E+02 E0= -.31412973E+02  EK= 0.22039E+01 SP= 0.37E+01 SK= 0.41E-05 mag=      0.089
       N       E                     dE             d eps       ncg     rms          rms(c)
DAV:   1    -0.314358575663E+02    0.23578E-01   -0.14426E-02  2592   0.100E+00    0.744E-02
RMM:   2    -0.314373308596E+02   -0.14733E-02   -0.46768E-03  1530   0.267E-01    0.594E-02
RMM:   3    -0.314385824313E+02   -0.12516E-02   -0.25490E-03  1400   0.117E-01
   1780 T=   652. E= -.25601232E+02 F= -.31438582E+02 E0= -.31391509E+02  EK= 0.21918E+01 SP= 0.36E+01 SK= 0.12E-02 mag=      0.081
       N       E                     dE             d eps       ncg     rms          rms(c)
DAV:   1    -0.314166585417E+02    0.20672E-01   -0.18807E-02  2560   0.950E-01    0.619E-02
RMM:   2    -0.314176430707E+02   -0.98453E-03   -0.36278E-03  1446   0.240E-01
   1781 T=   652. E= -.25596543E+02 F= -.31417643E+02 E0= -.31370628E+02  EK= 0.21911E+01 SP= 0.36E+01 SK= 0.48E-02 mag=     -0.081
       N       E                     dE             d eps       ncg     rms          rms(c)
DAV:   1    -0.313932111934E+02    0.23447E-01   -0.31389E-02  2720   0.102E+00    0.970E-02
RMM:   2    -0.313954223382E+02   -0.22111E-02   -0.51654E-03  1513   0.250E-01    0.781E-02
RMM:   3    -0.313970883108E+02   -0.16660E-02   -0.23434E-03  1403   0.106E-01    0.566E-02
RMM:   4    -0.313984403245E+02   -0.13520E-02   -0.26474E-03  1427   0.931E-02    0.194E-02
RMM:   5    -0.313985936924E+02   -0.15337E-03   -0.60066E-04  1301   0.565E-02
   1782 T=   655. E= -.25593714E+02 F= -.31398594E+02 E0= -.31351555E+02  EK= 0.22004E+01 SP= 0.36E+01 SK= 0.10E-01 mag=     -0.014
       N       E                     dE             d eps       ncg     rms          rms(c)
DAV:   1    -0.313754679581E+02    0.22972E-01   -0.22460E-02  2552   0.923E-01    0.995E-02
RMM:   2    -0.313777134256E+02   -0.22455E-02   -0.68215E-03  1440   0.226E-01    0.791E-02
RMM:   3    -0.313793002968E+02   -0.15869E-02   -0.22740E-03  1400   0.942E-02    0.562E-02
RMM:   4    -0.313805215963E+02   -0.12213E-02   -0.23398E-03  1401   0.780E-02
   1783 T=   660. E= -.25592792E+02 F= -.31380522E+02 E0= -.31333733E+02  EK= 0.22189E+01 SP= 0.36E+01 SK= 0.18E-01 mag=      0.040
       N       E                     dE             d eps       ncg     rms          rms(c)
DAV:   1    -0.313647048615E+02    0.14595E-01   -0.14217E-02  2616   0.967E-01    0.471E-02
RMM:   2    -0.313652107500E+02   -0.50589E-03   -0.30402E-03  1531   0.220E-01
   1784 T=   670. E= -.25590130E+02 F= -.31365211E+02 E0= -.31318599E+02  EK= 0.22519E+01 SP= 0.35E+01 SK= 0.27E-01 mag=      0.049
       N       E                     dE             d eps       ncg     rms          rms(c)
DAV:   1    -0.313521904231E+02    0.12514E-01   -0.14111E-02  2656   0.934E-01    0.316E-02
RMM:   2    -0.313527755700E+02   -0.58515E-03   -0.34303E-03  1525   0.249E-01
   1785 T=   684. E= -.25587513E+02 F= -.31352776E+02 E0= -.31306379E+02  EK= 0.22978E+01 SP= 0.34E+01 SK= 0.37E-01 mag=      0.007
       N       E                     dE             d eps       ncg     rms          rms(c)
DAV:   1    -0.313427642052E+02    0.94262E-02   -0.10045E-02  2464   0.994E-01    0.460E-02
RMM:   2    -0.313435579619E+02   -0.79376E-03   -0.36638E-03  1528   0.249E-01
   1786 T=   701. E= -.25585034E+02 F= -.31343558E+02 E0= -.31297467E+02  EK= 0.23563E+01 SP= 0.34E+01 SK= 0.48E-01 mag=     -0.053
       N       E                     dE             d eps       ncg     rms          rms(c)
DAV:   1    -0.313382520627E+02    0.45121E-02   -0.12119E-02  2464   0.101E+00    0.410E-02
RMM:   2    -0.313389363932E+02   -0.68433E-03   -0.38099E-03  1536   0.266E-01
   1787 T=   723. E= -.25581431E+02 F= -.31338936E+02 E0= -.31293021E+02  EK= 0.24297E+01 SP= 0.33E+01 SK= 0.57E-01 mag=     -0.088
       N       E                     dE             d eps       ncg     rms          rms(c)
DAV:   1    -0.313377212668E+02    0.53080E-03   -0.10272E-02  2376   0.987E-01    0.313E-02
RMM:   2    -0.313383901839E+02   -0.66892E-03   -0.42452E-03  1557   0.282E-01
   1788 T=   749. E= -.25577455E+02 F= -.31338390E+02 E0= -.31292608E+02  EK= 0.25159E+01 SP= 0.32E+01 SK= 0.64E-01 mag=     -0.065
       N       E                     dE             d eps       ncg     rms          rms(c)
DAV:   1    -0.313406520942E+02   -0.29308E-02   -0.12780E-02  2432   0.103E+00    0.418E-02
RMM:   2    -0.313415082317E+02   -0.85614E-03   -0.44302E-03  1539   0.277E-01
   1789 T=   778. E= -.25572825E+02 F= -.31341508E+02 E0= -.31295993E+02  EK= 0.26135E+01 SP= 0.31E+01 SK= 0.68E-01 mag=      0.013
       N       E                     dE             d eps       ncg     rms          rms(c)
DAV:   1    -0.313479468190E+02   -0.72947E-02   -0.12620E-02  2472   0.105E+00    0.571E-02
RMM:   2    -0.313491110914E+02   -0.11643E-02   -0.47494E-03  1565   0.284E-01
   1790 T=   810. E= -.25567868E+02 F= -.31349111E+02 E0= -.31303869E+02  EK= 0.27213E+01 SP= 0.30E+01 SK= 0.69E-01 mag=      0.073
       N       E                     dE             d eps       ncg     rms          rms(c)
DAV:   1    -0.313614317688E+02   -0.13485E-01   -0.18115E-02  2672   0.108E+00    0.379E-02
RMM:   2    -0.313622624215E+02   -0.83065E-03   -0.53591E-03  1587   0.317E-01
   1791 T=   844. E= -.25563817E+02 F= -.31362262E+02 E0= -.31316981E+02  EK= 0.28370E+01 SP= 0.29E+01 SK= 0.66E-01 mag=      0.080
       N       E                     dE             d eps       ncg     rms          rms(c)
DAV:   1    -0.313767711765E+02   -0.15339E-01   -0.23558E-02  2632   0.108E+00    0.580E-02
RMM:   2    -0.313781041646E+02   -0.13330E-02   -0.61293E-03  1567   0.316E-01
   1792 T=   880. E= -.25558631E+02 F= -.31378104E+02 E0= -.31333075E+02  EK= 0.29566E+01 SP= 0.28E+01 SK= 0.59E-01 mag=      0.022
       N       E                     dE             d eps       ncg     rms          rms(c)
DAV:   1    -0.313970765169E+02   -0.20305E-01   -0.17533E-02  2544   0.114E+00    0.653E-02
RMM:   2    -0.313986223326E+02   -0.15458E-02   -0.59838E-03  1596   0.322E-01    0.508E-02
RMM:   3    -0.313992102013E+02   -0.58787E-03   -0.15835E-03  1493   0.125E-01
   1793 T=   915. E= -.25555521E+02 F= -.31399210E+02 E0= -.31354271E+02  EK= 0.30760E+01 SP= 0.27E+01 SK= 0.49E-01 mag=     -0.021
       N       E                     dE             d eps       ncg     rms          rms(c)
DAV:   1    -0.314215186738E+02   -0.22896E-01   -0.35774E-02  2536   0.116E+00    0.625E-02
RMM:   2    -0.314231277259E+02   -0.16091E-02   -0.51646E-03  1473   0.291E-01    0.507E-02
RMM:   3    -0.314236084103E+02   -0.48068E-03   -0.12806E-03  1343   0.106E-01
   1794 T=   950. E= -.25551648E+02 F= -.31423608E+02 E0= -.31378738E+02  EK= 0.31921E+01 SP= 0.26E+01 SK= 0.36E-01 mag=     -0.022
       N       E                     dE             d eps       ncg     rms          rms(c)
DAV:   1    -0.314496280048E+02   -0.26500E-01   -0.42928E-02  2592   0.116E+00    0.571E-02
RMM:   2    -0.314507953998E+02   -0.11674E-02   -0.55725E-03  1603   0.316E-01
   1795 T=   982. E= -.25545851E+02 F= -.31450795E+02 E0= -.31406034E+02  EK= 0.33011E+01 SP= 0.26E+01 SK= 0.23E-01 mag=      0.015
       N       E                     dE             d eps       ncg     rms          rms(c)
DAV:   1    -0.314796499068E+02   -0.30022E-01   -0.29977E-02  2840   0.118E+00    0.421E-02
RMM:   2    -0.314807894372E+02   -0.11395E-02   -0.53108E-03  1600   0.300E-01
   1796 T=  1010. E= -.25543323E+02 F= -.31480789E+02 E0= -.31436093E+02  EK= 0.33931E+01 SP= 0.25E+01 SK= 0.12E-01 mag=      0.059
       N       E                     dE             d eps       ncg     rms          rms(c)
DAV:   1    -0.315116053032E+02   -0.31955E-01   -0.19684E-02  2704   0.117E+00    0.319E-02
RMM:   2    -0.315126352822E+02   -0.10300E-02   -0.51975E-03  1572   0.326E-01
   1797 T=  1032. E= -.25540253E+02 F= -.31512635E+02 E0= -.31468028E+02  EK= 0.34669E+01 SP= 0.25E+01 SK= 0.33E-02 mag=      0.075
       N       E                     dE             d eps       ncg     rms          rms(c)
DAV:   1    -0.315434818685E+02   -0.31877E-01   -0.27386E-02  2592   0.128E+00    0.532E-02
RMM:   2    -0.315449767221E+02   -0.14949E-02   -0.57380E-03  1592   0.313E-01    0.410E-02
RMM:   3    -0.315456230326E+02   -0.64631E-03   -0.19533E-03  1472   0.125E-01
   1798 T=  1047. E= -.25535337E+02 F= -.31545623E+02 E0= -.31501235E+02  EK= 0.35195E+01 SP= 0.25E+01 SK= 0.95E-05 mag=      0.014
       N       E                     dE             d eps       ncg     rms          rms(c)
DAV:   1    -0.315782219982E+02   -0.33245E-01   -0.25873E-02  2560   0.117E+00    0.463E-02
RMM:   2    -0.315793204340E+02   -0.10984E-02   -0.39418E-03  1555   0.288E-01
   1799 T=  1056. E= -.25527760E+02 F= -.31579320E+02 E0= -.31535090E+02  EK= 0.35487E+01 SP= 0.25E+01 SK= 0.29E-02 mag=     -0.078
       N       E                     dE             d eps       ncg     rms          rms(c)
DAV:   1    -0.316103042018E+02   -0.32082E-01   -0.37407E-02  2968   0.131E+00    0.622E-02
RMM:   2    -0.316118250742E+02   -0.15209E-02   -0.56692E-03  1613   0.288E-01    0.445E-02
RMM:   3    -0.316124767057E+02   -0.65163E-03   -0.15679E-03  1461   0.115E-01
   1800 T=  1056. E= -.25520222E+02 F= -.31612477E+02 E0= -.31568585E+02  EK= 0.35493E+01 SP= 0.25E+01 SK= 0.13E-01 mag=     -0.069
       N       E                     dE             d eps       ncg     rms          rms(c)
DAV:   1    -0.316444553703E+02   -0.32630E-01   -0.18231E-02  2360   0.116E+00    0.438E-02
RMM:   2    -0.316454553761E+02   -0.10000E-02   -0.41320E-03  1570   0.290E-01
   1801 T=  1048. E= -.25514301E+02 F= -.31645455E+02 E0= -.31601723E+02  EK= 0.35205E+01 SP= 0.26E+01 SK= 0.29E-01 mag=      0.024
       N       E                     dE             d eps       ncg     rms          rms(c)
DAV:   1    -0.316750877123E+02   -0.30632E-01   -0.33383E-02  3128   0.132E+00    0.528E-02
RMM:   2    -0.316763492816E+02   -0.12616E-02   -0.54146E-03  1612   0.292E-01
   1802 T=  1031. E= -.25507643E+02 F= -.31676349E+02 E0= -.31633084E+02  EK= 0.34645E+01 SP= 0.27E+01 SK= 0.50E-01 mag=      0.120
       N       E                     dE             d eps       ncg     rms          rms(c)
DAV:   1    -0.317049758921E+02   -0.29888E-01   -0.14725E-02  2432   0.113E+00    0.537E-02
RMM:   2    -0.317064332370E+02   -0.14573E-02   -0.59637E-03  1607   0.348E-01    0.375E-02
RMM:   3    -0.317068998379E+02   -0.46660E-03   -0.16376E-03  1477   0.132E-01
   1803 T=  1006. E= -.25505048E+02 F= -.31706900E+02 E0= -.31664010E+02  EK= 0.33817E+01 SP= 0.27E+01 SK= 0.75E-01 mag=      0.088
       N       E                     dE             d eps       ncg     rms          rms(c)
DAV:   1    -0.317347498472E+02   -0.28317E-01   -0.27467E-02  2464   0.124E+00    0.334E-02
RMM:   2    -0.317356943409E+02   -0.94449E-03   -0.38831E-03  1523   0.282E-01
   1804 T=   977. E= -.25497272E+02 F= -.31735694E+02 E0= -.31693087E+02  EK= 0.32841E+01 SP= 0.29E+01 SK= 0.10E+00 mag=     -0.042
       N       E                     dE             d eps       ncg     rms          rms(c)
DAV:   1    -0.317598676423E+02   -0.25118E-01   -0.27326E-02  2912   0.129E+00    0.617E-02
RMM:   2    -0.317613180836E+02   -0.14504E-02   -0.52114E-03  1530   0.277E-01    0.461E-02
RMM:   3    -0.317620683230E+02   -0.75024E-03   -0.15842E-03  1400   0.111E-01
   1805 T=   943. E= -.25490133E+02 F= -.31762068E+02 E0= -.31720025E+02  EK= 0.31702E+01 SP= 0.30E+01 SK= 0.13E+00 mag=     -0.081
       N       E                     dE             d eps       ncg     rms          rms(c)
DAV:   1    -0.317864518706E+02   -0.25134E-01   -0.16677E-02  2376   0.110E+00    0.422E-02
RMM:   2    -0.317874350061E+02   -0.98314E-03   -0.43473E-03  1524   0.276E-01
   1806 T=   906. E= -.25484444E+02 F= -.31787435E+02 E0= -.31745715E+02  EK= 0.30455E+01 SP= 0.31E+01 SK= 0.15E+00 mag=     -0.025
       N       E                     dE             d eps       ncg     rms          rms(c)
DAV:   1    -0.318091664184E+02   -0.22715E-01   -0.28663E-02  3008   0.123E+00    0.544E-02
RMM:   2    -0.318103435676E+02   -0.11771E-02   -0.46056E-03  1547   0.261E-01
   1807 T=   868. E= -.25478237E+02 F= -.31810344E+02 E0= -.31769142E+02  EK= 0.29156E+01 SP= 0.33E+01 SK= 0.16E+00 mag=      0.060
       N       E                     dE             d eps       ncg     rms          rms(c)
DAV:   1    -0.318315750445E+02   -0.22409E-01   -0.10765E-02  2328   0.106E+00    0.473E-02
RMM:   2    -0.318326225546E+02   -0.10475E-02   -0.49809E-03  1574   0.315E-01
   1808 T=   828. E= -.25473835E+02 F= -.31832623E+02 E0= -.31791963E+02  EK= 0.27842E+01 SP= 0.34E+01 SK= 0.17E+00 mag=      0.116
       N       E                     dE             d eps       ncg     rms          rms(c)
DAV:   1    -0.318525665921E+02   -0.20992E-01   -0.23210E-02  2816   0.116E+00    0.414E-02
RMM:   2    -0.318535877229E+02   -0.10211E-02   -0.51210E-03  1545   0.297E-01
   1809 T=   791. E= -.25467739E+02 F= -.31853588E+02 E0= -.31813320E+02  EK= 0.26579E+01 SP= 0.36E+01 SK= 0.17E+00 mag=      0.096
       N       E                     dE             d eps       ncg     rms          rms(c)
DAV:   1    -0.318725245506E+02   -0.19958E-01   -0.12598E-02  2568   0.104E+00    0.378E-02
RMM:   2    -0.318734617286E+02   -0.93718E-03   -0.50190E-03  1562   0.302E-01
   1810 T=   755. E= -.25462080E+02 F= -.31873462E+02 E0= -.31833618E+02  EK= 0.25378E+01 SP= 0.37E+01 SK= 0.17E+00 mag=      0.000
       N       E                     dE             d eps       ncg     rms          rms(c)
DAV:   1    -0.318911382677E+02   -0.18614E-01   -0.14643E-02  2536   0.106E+00    0.480E-02
RMM:   2    -0.318922486099E+02   -0.11103E-02   -0.46235E-03  1526   0.284E-01
   1811 T=   722. E= -.25456184E+02 F= -.31892249E+02 E0= -.31852998E+02  EK= 0.24267E+01 SP= 0.39E+01 SK= 0.16E+00 mag=     -0.108
       N       E                     dE             d eps       ncg     rms          rms(c)
DAV:   1    -0.319101260160E+02   -0.18988E-01   -0.11265E-02  2648   0.103E+00    0.514E-02
RMM:   2    -0.319111597573E+02   -0.10337E-02   -0.53185E-03  1594   0.297E-01
   1812 T=   692. E= -.25450957E+02 F= -.31911160E+02 E0= -.31872357E+02  EK= 0.23265E+01 SP= 0.40E+01 SK= 0.14E+00 mag=     -0.162
       N       E                     dE             d eps       ncg     rms          rms(c)
DAV:   1    -0.319288856590E+02   -0.18760E-01   -0.15465E-02  2656   0.999E-01    0.479E-02
RMM:   2    -0.319298542365E+02   -0.96858E-03   -0.46552E-03  1525   0.291E-01
   1813 T=   666. E= -.25445857E+02 F= -.31929854E+02 E0= -.31891377E+02  EK= 0.22384E+01 SP= 0.41E+01 SK= 0.12E+00 mag=     -0.104
       N       E                     dE             d eps       ncg     rms          rms(c)
DAV:   1    -0.319473474776E+02   -0.18462E-01   -0.12169E-02  2504   0.100E+00    0.481E-02
RMM:   2    -0.319483463893E+02   -0.99891E-03   -0.46137E-03  1527   0.278E-01
   1814 T=   644. E= -.25440771E+02 F= -.31948346E+02 E0= -.31910303E+02  EK= 0.21632E+01 SP= 0.42E+01 SK= 0.98E-01 mag=      0.045
       N       E                     dE             d eps       ncg     rms          rms(c)
DAV:   1    -0.319654591098E+02   -0.18112E-01   -0.11600E-02  2528   0.974E-01    0.612E-02
RMM:   2    -0.319667210938E+02   -0.12620E-02   -0.50079E-03  1536   0.287E-01
   1815 T=   625. E= -.25434965E+02 F= -.31966721E+02 E0= -.31929284E+02  EK= 0.21019E+01 SP= 0.44E+01 SK= 0.76E-01 mag=      0.149
       N       E                     dE             d eps       ncg     rms          rms(c)
DAV:   1    -0.319857996352E+02   -0.20341E-01   -0.18035E-02  2544   0.978E-01    0.605E-02
RMM:   2    -0.319867708817E+02   -0.97125E-03   -0.51964E-03  1551   0.299E-01
   1816 T=   611. E= -.25430444E+02 F= -.31986771E+02 E0= -.31949554E+02  EK= 0.20544E+01 SP= 0.44E+01 SK= 0.55E-01 mag=      0.143
       N       E                     dE             d eps       ncg     rms          rms(c)
DAV:   1    -0.320049290368E+02   -0.19129E-01   -0.22255E-02  2440   0.918E-01    0.655E-02
RMM:   2    -0.320062900378E+02   -0.13610E-02   -0.50766E-03  1520   0.280E-01    0.484E-02
RMM:   3    -0.320069380440E+02   -0.64801E-03   -0.17248E-03  1475   0.107E-01
   1817 T=   601. E= -.25426721E+02 F= -.32006938E+02 E0= -.31970020E+02  EK= 0.20195E+01 SP= 0.45E+01 SK= 0.36E-01 mag=      0.006
       N       E                     dE             d eps       ncg     rms          rms(c)
DAV:   1    -0.320261470896E+02   -0.19857E-01   -0.15990E-02  2368   0.922E-01    0.640E-02
RMM:   2    -0.320273240110E+02   -0.11769E-02   -0.33345E-03  1460   0.226E-01
   1818 T=   595. E= -.25422389E+02 F= -.32027324E+02 E0= -.31990880E+02  EK= 0.19987E+01 SP= 0.46E+01 SK= 0.21E-01 mag=     -0.152
       N       E                     dE             d eps       ncg     rms          rms(c)
DAV:   1    -0.320462191035E+02   -0.20072E-01   -0.30557E-02  2600   0.990E-01    0.791E-02
RMM:   2    -0.320479692257E+02   -0.17501E-02   -0.47174E-03  1532   0.255E-01    0.626E-02
RMM:   3    -0.320491506678E+02   -0.11814E-02   -0.19257E-03  1416   0.106E-01
   1819 T=   592. E= -.25419124E+02 F= -.32049151E+02 E0= -.32013025E+02  EK= 0.19911E+01 SP= 0.46E+01 SK= 0.94E-02 mag=     -0.051
       N       E                     dE             d eps       ncg     rms          rms(c)
DAV:   1    -0.320690897562E+02   -0.21121E-01   -0.15243E-02  2456   0.894E-01    0.795E-02
RMM:   2    -0.320707973995E+02   -0.17076E-02   -0.47420E-03  1433   0.238E-01    0.632E-02
RMM:   3    -0.320714583890E+02   -0.66099E-03   -0.11604E-03  1357   0.954E-02
   1820 T=   594. E= -.25417016E+02 F= -.32071458E+02 E0= -.32035676E+02  EK= 0.19957E+01 SP= 0.47E+01 SK= 0.25E-02 mag=      0.072
       N       E                     dE             d eps       ncg     rms          rms(c)
DAV:   1    -0.320942437544E+02   -0.23446E-01   -0.47850E-02  2440   0.988E-01    0.608E-02
RMM:   2    -0.320951541375E+02   -0.91038E-03   -0.46787E-03  1524   0.286E-01
   1821 T=   600. E= -.25414097E+02 F= -.32095154E+02 E0= -.32059691E+02  EK= 0.20152E+01 SP= 0.47E+01 SK= 0.12E-04 mag=      0.141
       N       E                     dE             d eps       ncg     rms          rms(c)
DAV:   1    -0.321192464865E+02   -0.25003E-01   -0.28554E-02  2520   0.937E-01    0.411E-02
RMM:   2    -0.321199410036E+02   -0.69452E-03   -0.42201E-03  1521   0.264E-01
   1822 T=   609. E= -.25411357E+02 F= -.32119941E+02 E0= -.32084708E+02  EK= 0.20482E+01 SP= 0.47E+01 SK= 0.17E-02 mag=      0.095
       N       E                     dE             d eps       ncg     rms          rms(c)
DAV:   1    -0.321448839552E+02   -0.25637E-01   -0.12027E-02  2408   0.899E-01    0.322E-02
RMM:   2    -0.321454853726E+02   -0.60142E-03   -0.40088E-03  1523   0.269E-01
   1823 T=   623. E= -.25408326E+02 F= -.32145485E+02 E0= -.32110506E+02  EK= 0.20944E+01 SP= 0.46E+01 SK= 0.69E-02 mag=     -0.038
       N       E                     dE             d eps       ncg     rms          rms(c)
DAV:   1    -0.321701771079E+02   -0.25293E-01   -0.11650E-02  2432   0.996E-01    0.549E-02
RMM:   2    -0.321711321844E+02   -0.95508E-03   -0.44321E-03  1562   0.260E-01
   1824 T=   641. E= -.25403970E+02 F= -.32171132E+02 E0= -.32136663E+02  EK= 0.21542E+01 SP= 0.46E+01 SK= 0.15E-01 mag=     -0.164
       N       E                     dE             d eps       ncg     rms          rms(c)
DAV:   1    -0.321970391480E+02   -0.26862E-01   -0.91270E-03  2320   0.933E-01    0.538E-02
RMM:   2    -0.321980310394E+02   -0.99189E-03   -0.40530E-03  1546   0.270E-01
   1825 T=   663. E= -.25399754E+02 F= -.32198031E+02 E0= -.32163918E+02  EK= 0.22267E+01 SP= 0.45E+01 SK= 0.24E-01 mag=     -0.166
       N       E                     dE             d eps       ncg     rms          rms(c)
DAV:   1    -0.322259459377E+02   -0.28907E-01   -0.11006E-02  2416   0.101E+00    0.307E-02
RMM:   2    -0.322265371241E+02   -0.59119E-03   -0.39201E-03  1529   0.264E-01
   1826 T=   688. E= -.25396116E+02 F= -.32226537E+02 E0= -.32192483E+02  EK= 0.23114E+01 SP= 0.45E+01 SK= 0.34E-01 mag=     -0.030
       N       E                     dE             d eps       ncg     rms          rms(c)
DAV:   1    -0.322534503215E+02   -0.27504E-01   -0.11518E-02  2448   0.959E-01    0.516E-02
RMM:   2    -0.322544502982E+02   -0.99998E-03   -0.46868E-03  1544   0.280E-01
   1827 T=   716. E= -.25391814E+02 F= -.32254450E+02 E0= -.32220850E+02  EK= 0.24063E+01 SP= 0.44E+01 SK= 0.42E-01 mag=      0.150
       N       E                     dE             d eps       ncg     rms          rms(c)
DAV:   1    -0.322808495579E+02   -0.27399E-01   -0.16497E-02  2592   0.104E+00    0.738E-02
RMM:   2    -0.322823789674E+02   -0.15294E-02   -0.50995E-03  1567   0.275E-01    0.562E-02
RMM:   3    -0.322831830497E+02   -0.80408E-03   -0.18873E-03  1412   0.113E-01
   1828 T=   747. E= -.25388998E+02 F= -.32283183E+02 E0= -.32249949E+02  EK= 0.25096E+01 SP= 0.43E+01 SK= 0.49E-01 mag=      0.075
       N       E                     dE             d eps       ncg     rms          rms(c)
DAV:   1    -0.323106099813E+02   -0.28231E-01   -0.19061E-02  2488   0.102E+00    0.695E-02
RMM:   2    -0.323119212947E+02   -0.13113E-02   -0.41983E-03  1476   0.254E-01
   1829 T=   780. E= -.25384543E+02 F= -.32311921E+02 E0= -.32278889E+02  EK= 0.26219E+01 SP= 0.43E+01 SK= 0.53E-01 mag=     -0.155
       N       E                     dE             d eps       ncg     rms          rms(c)
DAV:   1    -0.323358638352E+02   -0.25254E-01   -0.38122E-02  2824   0.112E+00    0.110E-01
RMM:   2    -0.323385424856E+02   -0.26787E-02   -0.59422E-03  1554   0.269E-01    0.837E-02
RMM:   3    -0.323405372568E+02   -0.19948E-02   -0.31202E-03  1402   0.120E-01    0.552E-02
RMM:   4    -0.323415848163E+02   -0.10476E-02   -0.24468E-03  1403   0.930E-02
   1830 T=   815. E= -.25381796E+02 F= -.32341585E+02 E0= -.32308715E+02  EK= 0.27385E+01 SP= 0.42E+01 SK= 0.53E-01 mag=     -0.021
       N       E                     dE             d eps       ncg     rms          rms(c)
DAV:   1    -0.323648178953E+02   -0.24281E-01   -0.17036E-02  2448   0.102E+00    0.118E-01
RMM:   2    -0.323673929841E+02   -0.25751E-02   -0.63367E-03  1450   0.254E-01    0.865E-02
RMM:   3    -0.323690689856E+02   -0.16760E-02   -0.28061E-03  1400   0.107E-01    0.572E-02
RMM:   4    -0.323700196825E+02   -0.95070E-03   -0.17464E-03  1400   0.800E-02
   1831 T=   849. E= -.25380882E+02 F= -.32370020E+02 E0= -.32337457E+02  EK= 0.28544E+01 SP= 0.41E+01 SK= 0.50E-01 mag=      0.048
       N       E                     dE             d eps       ncg     rms          rms(c)
DAV:   1    -0.323970397747E+02   -0.27971E-01   -0.23893E-02  2728   0.113E+00    0.613E-02
RMM:   2    -0.323978894483E+02   -0.84967E-03   -0.41464E-03  1545   0.255E-01
   1832 T=   884. E= -.25378027E+02 F= -.32397889E+02 E0= -.32365564E+02  EK= 0.29708E+01 SP= 0.40E+01 SK= 0.43E-01 mag=      0.041
       N       E                     dE             d eps       ncg     rms          rms(c)
DAV:   1    -0.324238237270E+02   -0.26784E-01   -0.19956E-02  2832   0.110E+00    0.430E-02
RMM:   2    -0.324247947224E+02   -0.97100E-03   -0.46212E-03  1567   0.277E-01
   1833 T=   916. E= -.25376935E+02 F= -.32424795E+02 E0= -.32392681E+02  EK= 0.30799E+01 SP= 0.39E+01 SK= 0.34E-01 mag=     -0.021
       N       E                     dE             d eps       ncg     rms          rms(c)
DAV:   1    -0.324491281239E+02   -0.25304E-01   -0.14786E-02  2408   0.112E+00    0.491E-02
RMM:   2    -0.324502539524E+02   -0.11258E-02   -0.45502E-03  1556   0.279E-01
   1834 T=   946. E= -.25375036E+02 F= -.32450254E+02 E0= -.32418439E+02  EK= 0.31800E+01 SP= 0.39E+01 SK= 0.24E-01 mag=     -0.090
       N       E                     dE             d eps       ncg     rms          rms(c)
DAV:   1    -0.324732366876E+02   -0.24109E-01   -0.20016E-02  2720   0.119E+00    0.450E-02
RMM:   2    -0.324744927060E+02   -0.12560E-02   -0.54572E-03  1604   0.302E-01
   1835 T=   973. E= -.25370474E+02 F= -.32474493E+02 E0= -.32442944E+02  EK= 0.32692E+01 SP= 0.38E+01 SK= 0.14E-01 mag=     -0.111
       N       E                     dE             d eps       ncg     rms          rms(c)
DAV:   1    -0.324957346220E+02   -0.22498E-01   -0.15591E-02  2632   0.114E+00    0.381E-02
RMM:   2    -0.324969352740E+02   -0.12007E-02   -0.52154E-03  1603   0.308E-01
   1836 T=   994. E= -.25366820E+02 F= -.32496935E+02 E0= -.32465489E+02  EK= 0.33396E+01 SP= 0.38E+01 SK= 0.60E-02 mag=     -0.056
       N       E                     dE             d eps       ncg     rms          rms(c)
DAV:   1    -0.325158822923E+02   -0.20148E-01   -0.18339E-02  2680   0.117E+00    0.408E-02
RMM:   2    -0.325170844020E+02   -0.12021E-02   -0.49381E-03  1574   0.299E-01
   1837 T=  1008. E= -.25362742E+02 F= -.32517084E+02 E0= -.32485759E+02  EK= 0.33889E+01 SP= 0.38E+01 SK= 0.99E-03 mag=      0.051
       N       E                     dE             d eps       ncg     rms          rms(c)
DAV:   1    -0.325327850127E+02   -0.16903E-01   -0.19505E-02  2904   0.117E+00    0.532E-02
RMM:   2    -0.325343413927E+02   -0.15564E-02   -0.54329E-03  1589   0.293E-01    0.396E-02
RMM:   3    -0.325349344059E+02   -0.59301E-03   -0.19652E-03  1425   0.117E-01
   1838 T=  1016. E= -.25359298E+02 F= -.32534934E+02 E0= -.32503758E+02  EK= 0.34137E+01 SP= 0.38E+01 SK= 0.28E-03 mag=      0.047
       N       E                     dE             d eps       ncg     rms          rms(c)
DAV:   1    -0.325482783427E+02   -0.13937E-01   -0.20746E-02  2560   0.115E+00    0.469E-02
RMM:   2    -0.325495949573E+02   -0.13166E-02   -0.41576E-03  1574   0.283E-01
   1839 T=  1017. E= -.25351836E+02 F= -.32549595E+02 E0= -.32518467E+02  EK= 0.34166E+01 SP= 0.38E+01 SK= 0.44E-02 mag=     -0.036
       N       E                     dE             d eps       ncg     rms          rms(c)
DAV:   1    -0.325594727013E+02   -0.11194E-01   -0.33744E-02  2968   0.126E+00    0.598E-02
RMM:   2    -0.325610870256E+02   -0.16143E-02   -0.49963E-03  1579   0.264E-01    0.457E-02
RMM:   3    -0.325616798812E+02   -0.59286E-03   -0.14217E-03  1428   0.104E-01
   1840 T=  1010. E= -.25345640E+02 F= -.32561680E+02 E0= -.32530624E+02  EK= 0.33931E+01 SP= 0.38E+01 SK= 0.13E-01 mag=     -0.027
       N       E                     dE             d eps       ncg     rms          rms(c)
DAV:   1    -0.325689466374E+02   -0.78596E-02   -0.20438E-02  2400   0.110E+00    0.568E-02
RMM:   2    -0.325705498035E+02   -0.16032E-02   -0.49218E-03  1587   0.274E-01    0.419E-02
RMM:   3    -0.325708515959E+02   -0.30179E-03   -0.11071E-03  1240   0.105E-01
   1841 T=   995. E= -.25342570E+02 F= -.32570852E+02 E0= -.32539751E+02  EK= 0.33423E+01 SP= 0.39E+01 SK= 0.26E-01 mag=      0.015
       N       E                     dE             d eps       ncg     rms          rms(c)
DAV:   1    -0.325754418936E+02   -0.48921E-02   -0.35244E-02  2568   0.119E+00    0.472E-02
RMM:   2    -0.325765853286E+02   -0.11434E-02   -0.46864E-03  1600   0.299E-01
   1842 T=   974. E= -.25335170E+02 F= -.32576585E+02 E0= -.32545454E+02  EK= 0.32737E+01 SP= 0.39E+01 SK= 0.41E-01 mag=      0.058
       N       E                     dE             d eps       ncg     rms          rms(c)
DAV:   1    -0.325786657194E+02   -0.32238E-02   -0.21683E-02  2928   0.118E+00    0.387E-02
RMM:   2    -0.325798102460E+02   -0.11445E-02   -0.48519E-03  1612   0.269E-01
   1843 T=   947. E= -.25330977E+02 F= -.32579810E+02 E0= -.32548596E+02  EK= 0.31840E+01 SP= 0.40E+01 SK= 0.57E-01 mag=      0.053
       N       E                     dE             d eps       ncg     rms          rms(c)
DAV:   1    -0.325789844854E+02   -0.31877E-03   -0.15374E-02  2560   0.111E+00    0.312E-02
RMM:   2    -0.325800669328E+02   -0.10824E-02   -0.49845E-03  1616   0.302E-01
   1844 T=   916. E= -.25327005E+02 F= -.32580067E+02 E0= -.32548712E+02  EK= 0.30798E+01 SP= 0.41E+01 SK= 0.72E-01 mag=      0.002
       N       E                     dE             d eps       ncg     rms          rms(c)
DAV:   1    -0.325758723753E+02    0.31121E-02   -0.24184E-02  2824   0.117E+00    0.441E-02
RMM:   2    -0.325771036579E+02   -0.12313E-02   -0.45906E-03  1567   0.276E-01
   1845 T=   883. E= -.25320461E+02 F= -.32577104E+02 E0= -.32545657E+02  EK= 0.29679E+01 SP= 0.42E+01 SK= 0.85E-01 mag=     -0.045
       N       E                     dE             d eps       ncg     rms          rms(c)
DAV:   1    -0.325714165123E+02    0.44559E-02   -0.13022E-02  2664   0.108E+00    0.393E-02
RMM:   2    -0.325724560902E+02   -0.10396E-02   -0.48525E-03  1618   0.294E-01
   1846 T=   848. E= -.25314637E+02 F= -.32572456E+02 E0= -.32540805E+02  EK= 0.28505E+01 SP= 0.43E+01 SK= 0.94E-01 mag=     -0.056
       N       E                     dE             d eps       ncg     rms          rms(c)
DAV:   1    -0.325645224222E+02    0.68941E-02   -0.18583E-02  2688   0.109E+00    0.302E-02
RMM:   2    -0.325654183419E+02   -0.89592E-03   -0.43216E-03  1565   0.280E-01
   1847 T=   813. E= -.25308525E+02 F= -.32565418E+02 E0= -.32533540E+02  EK= 0.27316E+01 SP= 0.44E+01 SK= 0.98E-01 mag=     -0.020
       N       E                     dE             d eps       ncg     rms          rms(c)
DAV:   1    -0.325549407403E+02    0.95817E-02   -0.13116E-02  2216   0.106E+00    0.397E-02
RMM:   2    -0.325560375634E+02   -0.10968E-02   -0.50063E-03  1564   0.293E-01
   1848 T=   778. E= -.25302696E+02 F= -.32556038E+02 E0= -.32523960E+02  EK= 0.26140E+01 SP= 0.45E+01 SK= 0.98E-01 mag=      0.038
       N       E                     dE             d eps       ncg     rms          rms(c)
DAV:   1    -0.325440501164E+02    0.10891E-01   -0.16194E-02  2600   0.106E+00    0.477E-02
RMM:   2    -0.325452152699E+02   -0.11652E-02   -0.49284E-03  1593   0.293E-01
   1849 T=   744. E= -.25296642E+02 F= -.32545215E+02 E0= -.32512904E+02  EK= 0.25019E+01 SP= 0.47E+01 SK= 0.92E-01 mag=      0.054
       N       E                     dE             d eps       ncg     rms          rms(c)
DAV:   1    -0.325327246812E+02    0.11325E-01   -0.18431E-02  2536   0.103E+00    0.310E-02
RMM:   2    -0.325335758474E+02   -0.85117E-03   -0.51012E-03  1595   0.307E-01
   1850 T=   713. E= -.25291280E+02 F= -.32533576E+02 E0= -.32500904E+02  EK= 0.23969E+01 SP= 0.48E+01 SK= 0.83E-01 mag=      0.021
       N       E                     dE             d eps       ncg     rms          rms(c)
DAV:   1    -0.325187904066E+02    0.13934E-01   -0.21041E-02  2560   0.100E+00    0.544E-02
RMM:   2    -0.325200317390E+02   -0.12413E-02   -0.53580E-03  1562   0.293E-01
   1851 T=   685. E= -.25284793E+02 F= -.32520032E+02 E0= -.32487109E+02  EK= 0.23015E+01 SP= 0.49E+01 SK= 0.70E-01 mag=     -0.033
       N       E                     dE             d eps       ncg     rms          rms(c)
DAV:   1    -0.325054154554E+02    0.13375E-01   -0.13439E-02  2512   0.100E+00    0.549E-02
RMM:   2    -0.325065499429E+02   -0.11345E-02   -0.43782E-03  1559   0.280E-01
   1852 T=   660. E= -.25279350E+02 F= -.32506550E+02 E0= -.32473302E+02  EK= 0.22164E+01 SP= 0.50E+01 SK= 0.55E-01 mag=     -0.067
       N       E                     dE             d eps       ncg     rms          rms(c)
DAV:   1    -0.324926028974E+02    0.12813E-01   -0.12153E-02  2400   0.973E-01    0.317E-02
RMM:   2    -0.324932463419E+02   -0.64344E-03   -0.36745E-03  1532   0.268E-01
   1853 T=   638. E= -.25274870E+02 F= -.32493246E+02 E0= -.32459572E+02  EK= 0.21428E+01 SP= 0.50E+01 SK= 0.40E-01 mag=     -0.049
       N       E                     dE             d eps       ncg     rms          rms(c)
DAV:   1    -0.324779325364E+02    0.14670E-01   -0.12079E-02  2360   0.953E-01    0.451E-02
RMM:   2    -0.324789240163E+02   -0.99148E-03   -0.51056E-03  1576   0.275E-01
   1854 T=   619. E= -.25269220E+02 F= -.32478924E+02 E0= -.32444887E+02  EK= 0.20818E+01 SP= 0.51E+01 SK= 0.26E-01 mag=      0.011
       N       E                     dE             d eps       ncg     rms          rms(c)
DAV:   1    -0.324631191009E+02    0.14813E-01   -0.13975E-02  2584   0.946E-01    0.709E-02
RMM:   2    -0.324645921545E+02   -0.14731E-02   -0.44450E-03  1535   0.262E-01    0.539E-02
RMM:   3    -0.324657905228E+02   -0.11984E-02   -0.29968E-03  1400   0.117E-01
   1855 T=   605. E= -.25265569E+02 F= -.32465791E+02 E0= -.32431320E+02  EK= 0.20329E+01 SP= 0.52E+01 SK= 0.14E-01 mag=      0.009
       N       E                     dE             d eps       ncg     rms          rms(c)
DAV:   1    -0.324502953379E+02    0.14297E-01   -0.21780E-02  2392   0.895E-01    0.717E-02
RMM:   2    -0.324516912039E+02   -0.13959E-02   -0.31739E-03  1453   0.216E-01    0.546E-02
RMM:   3    -0.324526701146E+02   -0.97891E-03   -0.19197E-03  1400   0.880E-02
   1856 T=   594. E= -.25262583E+02 F= -.32452670E+02 E0= -.32417758E+02  EK= 0.19963E+01 SP= 0.52E+01 SK= 0.53E-02 mag=     -0.002
       N       E                     dE             d eps       ncg     rms          rms(c)
DAV:   1    -0.324397968549E+02    0.11894E-01   -0.22988E-02  2416   0.901E-01    0.461E-02
RMM:   2    -0.324402927642E+02   -0.49591E-03   -0.28024E-03  1523   0.217E-01
   1857 T=   587. E= -.25258711E+02 F= -.32440293E+02 E0= -.32404900E+02  EK= 0.19744E+01 SP= 0.52E+01 SK= 0.65E-03 mag=     -0.012
       N       E                     dE             d eps       ncg     rms          rms(c)
DAV:   1    -0.324283186131E+02    0.11478E-01   -0.16884E-02  2536   0.931E-01    0.263E-02
RMM:   2    -0.324287930648E+02   -0.47445E-03   -0.29543E-03  1533   0.227E-01
   1858 T=   585. E= -.25255605E+02 F= -.32428793E+02 E0= -.32392900E+02  EK= 0.19656E+01 SP= 0.52E+01 SK= 0.53E-03 mag=     -0.011
       N       E                     dE             d eps       ncg     rms          rms(c)
DAV:   1    -0.324178229521E+02    0.10496E-01   -0.80376E-03  2040   0.891E-01    0.367E-02
RMM:   2    -0.324183514509E+02   -0.52850E-03   -0.30367E-03  1526   0.238E-01
   1859 T=   586. E= -.25252846E+02 F= -.32418351E+02 E0= -.32381962E+02  EK= 0.19707E+01 SP= 0.52E+01 SK= 0.52E-02 mag=     -0.000
       N       E                     dE             d eps       ncg     rms          rms(c)
DAV:   1    -0.324083359521E+02    0.94870E-02   -0.10052E-02  2432   0.952E-01    0.402E-02
RMM:   2    -0.324089428222E+02   -0.60687E-03   -0.31167E-03  1526   0.239E-01
   1860 T=   592. E= -.25249191E+02 F= -.32408943E+02 E0= -.32372048E+02  EK= 0.19908E+01 SP= 0.52E+01 SK= 0.14E-01 mag=      0.009
       N       E                     dE             d eps       ncg     rms          rms(c)
DAV:   1    -0.324004873854E+02    0.78486E-02   -0.76908E-03  2280   0.906E-01    0.266E-02
RMM:   2    -0.324010160053E+02   -0.52862E-03   -0.32184E-03  1530   0.246E-01
   1861 T=   603. E= -.25245375E+02 F= -.32401016E+02 E0= -.32363547E+02  EK= 0.20259E+01 SP= 0.51E+01 SK= 0.28E-01 mag=      0.007
       N       E                     dE             d eps       ncg     rms          rms(c)
DAV:   1    -0.323939774898E+02    0.65099E-02   -0.98171E-03  2304   0.964E-01    0.314E-02
RMM:   2    -0.323944797354E+02   -0.50225E-03   -0.32969E-03  1532   0.247E-01
   1862 T=   618. E= -.25241347E+02 F= -.32394480E+02 E0= -.32356424E+02  EK= 0.20758E+01 SP= 0.50E+01 SK= 0.44E-01 mag=     -0.003
       N       E                     dE             d eps       ncg     rms          rms(c)
DAV:   1    -0.323884109020E+02    0.55666E-02   -0.98494E-03  2280   0.947E-01    0.371E-02
RMM:   2    -0.323891039329E+02   -0.69303E-03   -0.37251E-03  1524   0.253E-01
   1863 T=   637. E= -.25237426E+02 F= -.32389104E+02 E0= -.32350509E+02  EK= 0.21402E+01 SP= 0.49E+01 SK= 0.62E-01 mag=     -0.011
       N       E                     dE             d eps       ncg     rms          rms(c)
DAV:   1    -0.323847171999E+02    0.36937E-02   -0.10968E-02  2360   0.996E-01    0.430E-02
RMM:   2    -0.323854730161E+02   -0.75582E-03   -0.38596E-03  1538   0.265E-01
   1864 T=   660. E= -.25233586E+02 F= -.32385473E+02 E0= -.32346289E+02  EK= 0.22195E+01 SP= 0.49E+01 SK= 0.80E-01 mag=     -0.003
       N       E                     dE             d eps       ncg     rms          rms(c)
DAV:   1    -0.323830393164E+02    0.16779E-02   -0.12391E-02  2368   0.101E+00    0.299E-02
RMM:   2    -0.323836854666E+02   -0.64615E-03   -0.46121E-03  1602   0.292E-01
   1865 T=   688. E= -.25229542E+02 F= -.32383685E+02 E0= -.32343838E+02  EK= 0.23136E+01 SP= 0.47E+01 SK= 0.97E-01 mag=      0.014
       N       E                     dE             d eps       ncg     rms          rms(c)
DAV:   1    -0.323815695280E+02    0.14698E-02   -0.17058E-02  2440   0.102E+00    0.509E-02
RMM:   2    -0.323825446583E+02   -0.97513E-03   -0.49846E-03  1596   0.290E-01
   1866 T=   720. E= -.25224741E+02 F= -.32382545E+02 E0= -.32342146E+02  EK= 0.24214E+01 SP= 0.46E+01 SK= 0.11E+00 mag=      0.019
       N       E                     dE             d eps       ncg     rms          rms(c)
DAV:   1    -0.323824531478E+02   -0.88362E-03   -0.13256E-02  2416   0.105E+00    0.516E-02
RMM:   2    -0.323834318100E+02   -0.97866E-03   -0.46386E-03  1590   0.288E-01
   1867 T=   756. E= -.25221035E+02 F= -.32383432E+02 E0= -.32342445E+02  EK= 0.25412E+01 SP= 0.45E+01 SK= 0.12E+00 mag=      0.002
       N       E                     dE             d eps       ncg     rms          rms(c)
DAV:   1    -0.323853990743E+02   -0.29459E-02   -0.13181E-02  2320   0.107E+00    0.423E-02
RMM:   2    -0.323861877427E+02   -0.78867E-03   -0.46254E-03  1592   0.297E-01
   1868 T=   795. E= -.25217232E+02 F= -.32386188E+02 E0= -.32344543E+02  EK= 0.26722E+01 SP= 0.44E+01 SK= 0.12E+00 mag=     -0.028
       N       E                     dE             d eps       ncg     rms          rms(c)
DAV:   1    -0.323887949522E+02   -0.33959E-02   -0.16885E-02  2424   0.109E+00    0.442E-02
RMM:   2    -0.323897816261E+02   -0.98667E-03   -0.53730E-03  1586   0.300E-01
   1869 T=   837. E= -.25212626E+02 F= -.32389782E+02 E0= -.32347560E+02  EK= 0.28117E+01 SP= 0.42E+01 SK= 0.12E+00 mag=     -0.047
       N       E                     dE             d eps       ncg     rms          rms(c)
DAV:   1    -0.323922772482E+02   -0.34823E-02   -0.17908E-02  2424   0.113E+00    0.730E-02
RMM:   2    -0.323938410699E+02   -0.15638E-02   -0.59187E-03  1590   0.309E-01    0.535E-02
RMM:   3    -0.323946640098E+02   -0.82294E-03   -0.22495E-03  1413   0.126E-01
   1870 T=   879. E= -.25209257E+02 F= -.32394664E+02 E0= -.32351928E+02  EK= 0.29548E+01 SP= 0.41E+01 SK= 0.11E+00 mag=     -0.002
       N       E                     dE             d eps       ncg     rms          rms(c)
DAV:   1    -0.323995365385E+02   -0.56955E-02   -0.26363E-02  2488   0.114E+00    0.610E-02
RMM:   2    -0.324006584003E+02   -0.11219E-02   -0.46436E-03  1527   0.274E-01
   1871 T=   922. E= -.25203994E+02 F= -.32400658E+02 E0= -.32357351E+02  EK= 0.31001E+01 SP= 0.40E+01 SK= 0.98E-01 mag=      0.054
       N       E                     dE             d eps       ncg     rms          rms(c)
DAV:   1    -0.324046078393E+02   -0.50713E-02   -0.40801E-02  2776   0.125E+00    0.630E-02
RMM:   2    -0.324063093231E+02   -0.17015E-02   -0.60517E-03  1592   0.296E-01    0.504E-02
RMM:   3    -0.324069719583E+02   -0.66264E-03   -0.17115E-03  1483   0.114E-01
   1872 T=   964. E= -.25199317E+02 F= -.32406972E+02 E0= -.32363205E+02  EK= 0.32396E+01 SP= 0.39E+01 SK= 0.79E-01 mag=      0.022
       N       E                     dE             d eps       ncg     rms          rms(c)
DAV:   1    -0.324129167632E+02   -0.66074E-02   -0.24383E-02  2432   0.117E+00    0.463E-02
RMM:   2    -0.324141172275E+02   -0.12005E-02   -0.53776E-03  1500   0.276E-01
   1873 T=  1002. E= -.25195218E+02 F= -.32414117E+02 E0= -.32369838E+02  EK= 0.33680E+01 SP= 0.38E+01 SK= 0.57E-01 mag=     -0.068
       N       E                     dE             d eps       ncg     rms          rms(c)
DAV:   1    -0.324180247617E+02   -0.51080E-02   -0.43061E-02  2848   0.130E+00    0.697E-02
RMM:   2    -0.324198178757E+02   -0.17931E-02   -0.64932E-03  1599   0.309E-01    0.493E-02
RMM:   3    -0.324208574233E+02   -0.10395E-02   -0.26431E-03  1440   0.129E-01
   1874 T=  1035. E= -.25190553E+02 F= -.32420857E+02 E0= -.32376206E+02  EK= 0.34795E+01 SP= 0.37E+01 SK= 0.36E-01 mag=     -0.040
       N       E                     dE             d eps       ncg     rms          rms(c)
DAV:   1    -0.324253788337E+02   -0.55610E-02   -0.22959E-02  2280   0.121E+00    0.583E-02
RMM:   2    -0.324269902233E+02   -0.16114E-02   -0.53831E-03  1585   0.307E-01    0.384E-02
RMM:   3    -0.324274418790E+02   -0.45166E-03   -0.16089E-03  1401   0.120E-01
   1875 T=  1061. E= -.25187874E+02 F= -.32427442E+02 E0= -.32382369E+02  EK= 0.35663E+01 SP= 0.37E+01 SK= 0.18E-01 mag=      0.030
       N       E                     dE             d eps       ncg     rms          rms(c)
DAV:   1    -0.324309007344E+02   -0.39105E-02   -0.38783E-02  2568   0.125E+00    0.467E-02
RMM:   2    -0.324321007751E+02   -0.12000E-02   -0.51860E-03  1627   0.304E-01
   1876 T=  1080. E= -.25180807E+02 F= -.32432101E+02 E0= -.32386762E+02  EK= 0.36283E+01 SP= 0.36E+01 SK= 0.51E-02 mag=      0.089
       N       E                     dE             d eps       ncg     rms          rms(c)
DAV:   1    -0.324337770758E+02   -0.28763E-02   -0.31102E-02  2976   0.131E+00    0.389E-02
RMM:   2    -0.324350301826E+02   -0.12531E-02   -0.53268E-03  1608   0.295E-01
   1877 T=  1087. E= -.25177204E+02 F= -.32435030E+02 E0= -.32389424E+02  EK= 0.36544E+01 SP= 0.36E+01 SK= 0.49E-04 mag=      0.091
       N       E                     dE             d eps       ncg     rms          rms(c)
DAV:   1    -0.324345326798E+02   -0.75560E-03   -0.17988E-02  2312   0.122E+00    0.294E-02
RMM:   2    -0.324358067352E+02   -0.12741E-02   -0.57558E-03  1624   0.321E-01
   1878 T=  1085. E= -.25173889E+02 F= -.32435807E+02 E0= -.32389885E+02  EK= 0.36458E+01 SP= 0.36E+01 SK= 0.34E-02 mag=      0.029
       N       E                     dE             d eps       ncg     rms          rms(c)
DAV:   1    -0.324319387771E+02    0.25939E-02   -0.32452E-02  3024   0.134E+00    0.325E-02
RMM:   2    -0.324332726985E+02   -0.13339E-02   -0.57887E-03  1629   0.315E-01
   1879 T=  1073. E= -.25167885E+02 F= -.32433273E+02 E0= -.32387161E+02  EK= 0.36049E+01 SP= 0.36E+01 SK= 0.15E-01 mag=     -0.062
       N       E                     dE             d eps       ncg     rms          rms(c)
DAV:   1    -0.324256115003E+02    0.63273E-02   -0.18062E-02  2512   0.121E+00    0.421E-02
RMM:   2    -0.324270188561E+02   -0.14074E-02   -0.53953E-03  1597   0.320E-01    0.322E-02
RMM:   3    -0.324273809385E+02   -0.36208E-03   -0.15559E-03  1464   0.121E-01
   1880 T=  1050. E= -.25164113E+02 F= -.32427381E+02 E0= -.32381134E+02  EK= 0.35292E+01 SP= 0.37E+01 SK= 0.33E-01 mag=     -0.064
       N       E                     dE             d eps       ncg     rms          rms(c)
DAV:   1    -0.324166963506E+02    0.10323E-01   -0.25176E-02  2272   0.122E+00    0.341E-02
RMM:   2    -0.324178948062E+02   -0.11985E-02   -0.39783E-03  1574   0.288E-01
   1881 T=  1021. E= -.25155475E+02 F= -.32417895E+02 E0= -.32371380E+02  EK= 0.34298E+01 SP= 0.38E+01 SK= 0.55E-01 mag=      0.016
       N       E                     dE             d eps       ncg     rms          rms(c)
DAV:   1    -0.324025327095E+02    0.14164E-01   -0.33371E-02  3056   0.127E+00    0.550E-02
RMM:   2    -0.324039317843E+02   -0.13991E-02   -0.48186E-03  1599   0.263E-01    0.385E-02
RMM:   3    -0.324045501916E+02   -0.61841E-03   -0.15900E-03  1420   0.109E-01
   1882 T=   984. E= -.25148192E+02 F= -.32404550E+02 E0= -.32357906E+02  EK= 0.33055E+01 SP= 0.39E+01 SK= 0.79E-01 mag=      0.045
       N       E                     dE             d eps       ncg     rms          rms(c)
DAV:   1    -0.323861920580E+02    0.17740E-01   -0.17498E-02  2280   0.114E+00    0.446E-02
RMM:   2    -0.323874385336E+02   -0.12465E-02   -0.40440E-03  1555   0.266E-01
   1883 T=   941. E= -.25142399E+02 F= -.32387439E+02 E0= -.32340588E+02  EK= 0.31624E+01 SP= 0.40E+01 SK= 0.10E+00 mag=      0.021
       N       E                     dE             d eps       ncg     rms          rms(c)
DAV:   1    -0.323650775063E+02    0.21115E-01   -0.35197E-02  2976   0.125E+00    0.518E-02
RMM:   2    -0.323664266312E+02   -0.13491E-02   -0.49163E-03  1609   0.265E-01
   1884 T=   895. E= -.25136072E+02 F= -.32366427E+02 E0= -.32319473E+02  EK= 0.30086E+01 SP= 0.41E+01 SK= 0.12E+00 mag=     -0.031
       N       E                     dE             d eps       ncg     rms          rms(c)
DAV:   1    -0.323416630258E+02    0.23414E-01   -0.14221E-02  2248   0.105E+00    0.434E-02
RMM:   2    -0.323429504524E+02   -0.12874E-02   -0.50919E-03  1591   0.312E-01
   1885 T=   848. E= -.25131781E+02 F= -.32342950E+02 E0= -.32295820E+02  EK= 0.28487E+01 SP= 0.42E+01 SK= 0.13E+00 mag=     -0.064
       N       E                     dE             d eps       ncg     rms          rms(c)
DAV:   1    -0.323158366561E+02    0.25826E-01   -0.24676E-02  2680   0.115E+00    0.327E-02
RMM:   2    -0.323169202634E+02   -0.10836E-02   -0.54664E-03  1614   0.291E-01
   1886 T=   801. E= -.25125853E+02 F= -.32316920E+02 E0= -.32269543E+02  EK= 0.26914E+01 SP= 0.44E+01 SK= 0.13E+00 mag=     -0.057
       N       E                     dE             d eps       ncg     rms          rms(c)
DAV:   1    -0.322865812908E+02    0.29255E-01   -0.20813E-02  2616   0.103E+00    0.482E-02
RMM:   2    -0.322879918888E+02   -0.14106E-02   -0.60497E-03  1627   0.313E-01    0.360E-02
RMM:   3    -0.322884840775E+02   -0.49219E-03   -0.17302E-03  1498   0.118E-01
   1887 T=   755. E= -.25121355E+02 F= -.32288484E+02 E0= -.32240955E+02  EK= 0.25379E+01 SP= 0.45E+01 SK= 0.13E+00 mag=     -0.013
       N       E                     dE             d eps       ncg     rms          rms(c)
DAV:   1    -0.322579473187E+02    0.30045E-01   -0.18410E-02  2496   0.104E+00    0.388E-02
RMM:   2    -0.322587517328E+02   -0.80441E-03   -0.28235E-03  1496   0.233E-01
   1888 T=   713. E= -.25115547E+02 F= -.32258752E+02 E0= -.32211023E+02  EK= 0.23950E+01 SP= 0.46E+01 SK= 0.12E+00 mag=      0.051
       N       E                     dE             d eps       ncg     rms          rms(c)
DAV:   1    -0.322263773948E+02    0.31570E-01   -0.21939E-02  2928   0.106E+00    0.497E-02
RMM:   2    -0.322274675316E+02   -0.10901E-02   -0.43380E-03  1590   0.240E-01
   1889 T=   673. E= -.25110425E+02 F= -.32227468E+02 E0= -.32179649E+02  EK= 0.22628E+01 SP= 0.48E+01 SK= 0.10E+00 mag=      0.089
       N       E                     dE             d eps       ncg     rms          rms(c)
DAV:   1    -0.321956225503E+02    0.30755E-01   -0.11865E-02  2216   0.948E-01    0.412E-02
RMM:   2    -0.321965525144E+02   -0.92996E-03   -0.45926E-03  1584   0.284E-01
   1890 T=   638. E= -.25107398E+02 F= -.32196553E+02 E0= -.32148521E+02  EK= 0.21432E+01 SP= 0.49E+01 SK= 0.83E-01 mag=      0.069
       N       E                     dE             d eps       ncg     rms          rms(c)
DAV:   1    -0.321648540295E+02    0.30769E-01   -0.19513E-02  2792   0.103E+00    0.374E-02
RMM:   2    -0.321657291698E+02   -0.87514E-03   -0.41584E-03  1544   0.253E-01
   1891 T=   607. E= -.25103427E+02 F= -.32165729E+02 E0= -.32117469E+02  EK= 0.20397E+01 SP= 0.50E+01 SK= 0.61E-01 mag=     -0.006
       N       E                     dE             d eps       ncg     rms          rms(c)
DAV:   1    -0.321344598537E+02    0.30394E-01   -0.12028E-02  2392   0.896E-01    0.401E-02
RMM:   2    -0.321354108278E+02   -0.95097E-03   -0.47502E-03  1574   0.278E-01
   1892 T=   581. E= -.25099173E+02 F= -.32135411E+02 E0= -.32087044E+02  EK= 0.19523E+01 SP= 0.50E+01 SK= 0.40E-01 mag=     -0.093
       N       E                     dE             d eps       ncg     rms          rms(c)
DAV:   1    -0.321053781304E+02    0.29082E-01   -0.15195E-02  2528   0.925E-01    0.462E-02
RMM:   2    -0.321063059743E+02   -0.92784E-03   -0.39633E-03  1545   0.250E-01
   1893 T=   560. E= -.25094745E+02 F= -.32106306E+02 E0= -.32057885E+02  EK= 0.18817E+01 SP= 0.51E+01 SK= 0.22E-01 mag=     -0.124
       N       E                     dE             d eps       ncg     rms          rms(c)
DAV:   1    -0.320784930853E+02    0.26885E-01   -0.11110E-02  2488   0.893E-01    0.434E-02
RMM:   2    -0.320793939160E+02   -0.90083E-03   -0.43694E-03  1569   0.259E-01
   1894 T=   544. E= -.25091362E+02 F= -.32079394E+02 E0= -.32030708E+02  EK= 0.18275E+01 SP= 0.52E+01 SK= 0.85E-02 mag=     -0.072
       N       E                     dE             d eps       ncg     rms          rms(c)
DAV:   1    -0.320535157511E+02    0.24977E-01   -0.13332E-02  2544   0.889E-01    0.437E-02
RMM:   2    -0.320544226720E+02   -0.90692E-03   -0.40986E-03  1541   0.254E-01
   1895 T=   533. E= -.25088017E+02 F= -.32054423E+02 E0= -.32005543E+02  EK= 0.17903E+01 SP= 0.52E+01 SK= 0.11E-02 mag=      0.044
       N       E                     dE             d eps       ncg     rms          rms(c)
DAV:   1    -0.320305557307E+02    0.22960E-01   -0.13326E-02  2352   0.878E-01    0.522E-02
RMM:   2    -0.320314868271E+02   -0.93110E-03   -0.41711E-03  1559   0.257E-01
   1896 T=   527. E= -.25084471E+02 F= -.32031487E+02 E0= -.31982659E+02  EK= 0.17704E+01 SP= 0.52E+01 SK= 0.84E-03 mag=      0.164
       N       E                     dE             d eps       ncg     rms          rms(c)
DAV:   1    -0.320095676022E+02    0.20988E-01   -0.14945E-02  2608   0.878E-01    0.653E-02
RMM:   2    -0.320109414151E+02   -0.13738E-02   -0.49015E-03  1571   0.257E-01    0.518E-02
RMM:   3    -0.320117346106E+02   -0.79320E-03   -0.18142E-03  1433   0.103E-01
   1897 T=   526. E= -.25081929E+02 F= -.32011735E+02 E0= -.31962757E+02  EK= 0.17676E+01 SP= 0.52E+01 SK= 0.83E-02 mag=      0.073
       N       E                     dE             d eps       ncg     rms          rms(c)
DAV:   1    -0.319930181619E+02    0.17923E-01   -0.27925E-02  2424   0.869E-01    0.696E-02
RMM:   2    -0.319944030153E+02   -0.13849E-02   -0.33598E-03  1426   0.220E-01    0.540E-02
RMM:   3    -0.319950352456E+02   -0.63223E-03   -0.10457E-03  1376   0.809E-02
   1898 T=   530. E= -.25080008E+02 F= -.31995035E+02 E0= -.31945896E+02  EK= 0.17824E+01 SP= 0.51E+01 SK= 0.23E-01 mag=     -0.083
       N       E                     dE             d eps       ncg     rms          rms(c)
DAV:   1    -0.319804612911E+02    0.13942E-01   -0.38894E-02  2440   0.865E-01    0.618E-02
RMM:   2    -0.319812973347E+02   -0.83604E-03   -0.38170E-03  1541   0.244E-01
   1899 T=   540. E= -.25077200E+02 F= -.31981297E+02 E0= -.31932178E+02  EK= 0.18164E+01 SP= 0.50E+01 SK= 0.45E-01 mag=     -0.196
       N       E                     dE             d eps       ncg     rms          rms(c)
DAV:   1    -0.319707154229E+02    0.97459E-02   -0.22323E-02  2544   0.886E-01    0.441E-02
RMM:   2    -0.319714503008E+02   -0.73488E-03   -0.36268E-03  1557   0.242E-01
   1900 T=   556. E= -.25075880E+02 F= -.31971450E+02 E0= -.31922118E+02  EK= 0.18688E+01 SP= 0.50E+01 SK= 0.73E-01 mag=     -0.172
       N       E                     dE             d eps       ncg     rms          rms(c)
DAV:   1    -0.319644922017E+02    0.62232E-02   -0.13884E-02  2552   0.892E-01    0.345E-02
RMM:   2    -0.319651132888E+02   -0.62109E-03   -0.35331E-03  1550   0.247E-01
   1901 T=   578. E= -.25074693E+02 F= -.31965113E+02 E0= -.31915562E+02  EK= 0.19409E+01 SP= 0.48E+01 SK= 0.10E+00 mag=     -0.005
       N       E                     dE             d eps       ncg     rms          rms(c)
DAV:   1    -0.319603768732E+02    0.41153E-02   -0.14689E-02  2432   0.953E-01    0.539E-02
RMM:   2    -0.319613694508E+02   -0.99258E-03   -0.39078E-03  1549   0.250E-01
   1902 T=   605. E= -.25071497E+02 F= -.31961369E+02 E0= -.31912130E+02  EK= 0.20346E+01 SP= 0.47E+01 SK= 0.14E+00 mag=      0.207
       N       E                     dE             d eps       ncg     rms          rms(c)
DAV:   1    -0.319602253814E+02    0.15149E-03   -0.10413E-02  2464   0.909E-01    0.669E-02
RMM:   2    -0.319615002987E+02   -0.12749E-02   -0.40822E-03  1547   0.264E-01
   1903 T=   640. E= -.25068303E+02 F= -.31961500E+02 E0= -.31912531E+02  EK= 0.21497E+01 SP= 0.46E+01 SK= 0.17E+00 mag=      0.280
       N       E                     dE             d eps       ncg     rms          rms(c)
DAV:   1    -0.319656963025E+02   -0.54709E-02   -0.14507E-02  2392   0.997E-01    0.352E-02
RMM:   2    -0.319665158459E+02   -0.81954E-03   -0.41912E-03  1530   0.274E-01
   1904 T=   680. E= -.25066327E+02 F= -.31966516E+02 E0= -.31917054E+02  EK= 0.22860E+01 SP= 0.44E+01 SK= 0.20E+00 mag=      0.150
       N       E                     dE             d eps       ncg     rms          rms(c)
DAV:   1    -0.319719020531E+02   -0.62058E-02   -0.17415E-02  2432   0.984E-01    0.509E-02
RMM:   2    -0.319731265703E+02   -0.12245E-02   -0.52625E-03  1551   0.287E-01
   1905 T=   727. E= -.25063080E+02 F= -.31973127E+02 E0= -.31923837E+02  EK= 0.24425E+01 SP= 0.43E+01 SK= 0.22E+00 mag=     -0.127
       N       E                     dE             d eps       ncg     rms          rms(c)
DAV:   1    -0.319789794344E+02   -0.70774E-02   -0.18069E-02  2528   0.106E+00    0.860E-02
RMM:   2    -0.319811857558E+02   -0.22063E-02   -0.55015E-03  1562   0.294E-01    0.700E-02
RMM:   3    -0.319826173847E+02   -0.14316E-02   -0.24968E-03  1402   0.124E-01    0.478E-02
RMM:   4    -0.319836816161E+02   -0.10642E-02   -0.27312E-03  1400   0.100E-01
   1906 T=   778. E= -.25062249E+02 F= -.31983682E+02 E0= -.31934301E+02  EK= 0.26163E+01 SP= 0.41E+01 SK= 0.23E+00 mag=     -0.037
       N       E                     dE             d eps       ncg     rms          rms(c)
DAV:   1    -0.319895677438E+02   -0.69504E-02   -0.34444E-02  2408   0.108E+00    0.104E-01
RMM:   2    -0.319923388967E+02   -0.27712E-02   -0.61817E-03  1481   0.265E-01    0.800E-02
RMM:   3    -0.319942187551E+02   -0.18799E-02   -0.29793E-03  1400   0.109E-01    0.549E-02
RMM:   4    -0.319954301596E+02   -0.12114E-02   -0.26509E-03  1400   0.912E-02
   1907 T=   835. E= -.25060875E+02 F= -.31995430E+02 E0= -.31946201E+02  EK= 0.28052E+01 SP= 0.39E+01 SK= 0.23E+00 mag=      0.052
       N       E                     dE             d eps       ncg     rms          rms(c)
DAV:   1    -0.320073145281E+02   -0.13096E-01   -0.26149E-02  2560   0.113E+00    0.513E-02
RMM:   2    -0.320084984460E+02   -0.11839E-02   -0.46623E-03  1612   0.281E-01
   1908 T=   895. E= -.25057730E+02 F= -.32008498E+02 E0= -.31959475E+02  EK= 0.30067E+01 SP= 0.37E+01 SK= 0.21E+00 mag=      0.089
       N       E                     dE             d eps       ncg     rms          rms(c)
DAV:   1    -0.320205137313E+02   -0.13199E-01   -0.32141E-02  2832   0.117E+00    0.508E-02
RMM:   2    -0.320220174001E+02   -0.15037E-02   -0.54075E-03  1637   0.301E-01    0.369E-02
RMM:   3    -0.320223735880E+02   -0.35619E-03   -0.15260E-03  1407   0.115E-01
   1909 T=   955. E= -.25056797E+02 F= -.32022374E+02 E0= -.31973595E+02  EK= 0.32106E+01 SP= 0.36E+01 SK= 0.19E+00 mag=      0.029
       N       E                     dE             d eps       ncg     rms          rms(c)
DAV:   1    -0.320341003636E+02   -0.12083E-01   -0.26113E-02  2520   0.127E+00    0.505E-02
RMM:   2    -0.320354950247E+02   -0.13947E-02   -0.38269E-03  1529   0.280E-01    0.315E-02
RMM:   3    -0.320357054483E+02   -0.21042E-03   -0.96257E-04  1170   0.104E-01
   1910 T=  1015. E= -.25055775E+02 F= -.32035705E+02 E0= -.31987149E+02  EK= 0.34105E+01 SP= 0.34E+01 SK= 0.15E+00 mag=     -0.067
       N       E                     dE             d eps       ncg     rms          rms(c)
DAV:   1    -0.320453514010E+02   -0.98564E-02   -0.30710E-02  2896   0.124E+00    0.419E-02
RMM:   2    -0.320468127884E+02   -0.14614E-02   -0.45051E-03  1629   0.285E-01    0.272E-02
RMM:   3    -0.320470677070E+02   -0.25492E-03   -0.10336E-03  1253   0.105E-01
   1911 T=  1071. E= -.25052718E+02 F= -.32047068E+02 E0= -.31998849E+02  EK= 0.35981E+01 SP= 0.33E+01 SK= 0.11E+00 mag=     -0.075
       N       E                     dE             d eps       ncg     rms          rms(c)
DAV:   1    -0.320541814811E+02   -0.73687E-02   -0.24076E-02  2072   0.131E+00    0.276E-02
RMM:   2    -0.320556838271E+02   -0.15023E-02   -0.41056E-03  1650   0.306E-01    0.168E-02
RMM:   3    -0.320558439791E+02   -0.16015E-03   -0.92951E-04  1203   0.115E-01
   1912 T=  1119. E= -.25050397E+02 F= -.32055844E+02 E0= -.32007900E+02  EK= 0.37605E+01 SP= 0.32E+01 SK= 0.72E-01 mag=      0.005
       N       E                     dE             d eps       ncg     rms          rms(c)
DAV:   1    -0.320582482262E+02   -0.25644E-02   -0.28750E-02  2368   0.132E+00    0.313E-02
RMM:   2    -0.320599134677E+02   -0.16652E-02   -0.40235E-03  1619   0.291E-01    0.202E-02
RMM:   3    -0.320601131622E+02   -0.19969E-03   -0.88414E-04  1175   0.110E-01
   1913 T=  1157. E= -.25047028E+02 F= -.32060113E+02 E0= -.32012587E+02  EK= 0.38878E+01 SP= 0.31E+01 SK= 0.37E-01 mag=      0.079
       N       E                     dE             d eps       ncg     rms          rms(c)
DAV:   1    -0.320574643619E+02    0.24491E-02   -0.27035E-02  2248   0.134E+00    0.333E-02
RMM:   2    -0.320591850631E+02   -0.17207E-02   -0.34590E-03  1539   0.290E-01    0.198E-02
RMM:   3    -0.320593708797E+02   -0.18582E-03   -0.80446E-04  1160   0.110E-01
   1914 T=  1181. E= -.25043582E+02 F= -.32059371E+02 E0= -.32012234E+02  EK= 0.39704E+01 SP= 0.30E+01 SK= 0.12E-01 mag=      0.060
       N       E                     dE             d eps       ncg     rms          rms(c)
DAV:   1    -0.320506820832E+02    0.85030E-02   -0.28874E-02  2304   0.136E+00    0.204E-02
RMM:   2    -0.320524576899E+02   -0.17756E-02   -0.34295E-03  1525   0.285E-01    0.123E-02
RMM:   3    -0.320525859181E+02   -0.12823E-03   -0.68265E-04  1141   0.106E-01
   1915 T=  1191. E= -.25039784E+02 F= -.32052586E+02 E0= -.32005844E+02  EK= 0.40017E+01 SP= 0.30E+01 SK= 0.37E-03 mag=     -0.030
       N       E                     dE             d eps       ncg     rms          rms(c)
DAV:   1    -0.320368317198E+02    0.15626E-01   -0.26595E-02  2264   0.132E+00    0.322E-02
RMM:   2    -0.320387190296E+02   -0.18873E-02   -0.31586E-03  1527   0.279E-01    0.210E-02
RMM:   3    -0.320389226513E+02   -0.20362E-03   -0.73162E-04  1158   0.105E-01
   1916 T=  1184. E= -.25035705E+02 F= -.32038923E+02 E0= -.31992678E+02  EK= 0.39786E+01 SP= 0.30E+01 SK= 0.48E-02 mag=     -0.073
       N       E                     dE             d eps       ncg     rms          rms(c)
DAV:   1    -0.320165385719E+02    0.22180E-01   -0.27766E-02  2320   0.133E+00    0.274E-02
RMM:   2    -0.320184013841E+02   -0.18628E-02   -0.33092E-03  1520   0.283E-01    0.121E-02
RMM:   3    -0.320185496533E+02   -0.14827E-03   -0.70016E-04  1141   0.105E-01
   1917 T=  1161. E= -.25031456E+02 F= -.32018550E+02 E0= -.31972739E+02  EK= 0.39026E+01 SP= 0.31E+01 SK= 0.24E-01 mag=     -0.036
       N       E                     dE             d eps       ncg     rms          rms(c)
DAV:   1    -0.319892842829E+02    0.29117E-01   -0.26647E-02  2232   0.128E+00    0.230E-02
RMM:   2    -0.319911209037E+02   -0.18366E-02   -0.31767E-03  1526   0.276E-01    0.133E-02
RMM:   3    -0.319912596269E+02   -0.13872E-03   -0.62621E-04  1141   0.101E-01
   1918 T=  1124. E= -.25026654E+02 F= -.31991260E+02 E0= -.31945934E+02  EK= 0.37791E+01 SP= 0.31E+01 SK= 0.54E-01 mag=      0.042
       N       E                     dE             d eps       ncg     rms          rms(c)
DAV:   1    -0.319557445194E+02    0.35376E-01   -0.25703E-02  2264   0.126E+00    0.273E-02
RMM:   2    -0.319575609116E+02   -0.18164E-02   -0.33357E-03  1465   0.278E-01    0.187E-02
RMM:   3    -0.319577273708E+02   -0.16646E-03   -0.68879E-04  1137   0.106E-01
   1919 T=  1076. E= -.25021162E+02 F= -.31957727E+02 E0= -.31912921E+02  EK= 0.36169E+01 SP= 0.32E+01 SK= 0.90E-01 mag=      0.057
       N       E                     dE             d eps       ncg     rms          rms(c)
DAV:   1    -0.319167726713E+02    0.40788E-01   -0.24898E-02  2248   0.123E+00    0.235E-02
RMM:   2    -0.319184492359E+02   -0.16766E-02   -0.32036E-03  1525   0.282E-01    0.120E-02
RMM:   3    -0.319185701857E+02   -0.12095E-03   -0.62758E-04  1132   0.103E-01
   1920 T=  1019. E= -.25015448E+02 F= -.31918570E+02 E0= -.31874234E+02  EK= 0.34258E+01 SP= 0.34E+01 SK= 0.13E+00 mag=      0.007
       N       E                     dE             d eps       ncg     rms          rms(c)
DAV:   1    -0.318731551024E+02    0.45294E-01   -0.22585E-02  2152   0.119E+00    0.249E-02
RMM:   2    -0.318746999815E+02   -0.15449E-02   -0.31303E-03  1514   0.277E-01    0.166E-02
RMM:   3    -0.318748332939E+02   -0.13331E-03   -0.61233E-04  1150   0.102E-01
   1921 T=   957. E= -.25009659E+02 F= -.31874833E+02 E0= -.31831003E+02  EK= 0.32167E+01 SP= 0.35E+01 SK= 0.16E+00 mag=     -0.050
       N       E                     dE             d eps       ncg     rms          rms(c)
DAV:   1    -0.318262991623E+02    0.48401E-01   -0.19787E-02  2248   0.115E+00    0.232E-02
RMM:   2    -0.318276880310E+02   -0.13889E-02   -0.29251E-03  1429   0.268E-01    0.153E-02
RMM:   3    -0.318278069854E+02   -0.11895E-03   -0.57231E-04  1143   0.980E-02
   1922 T=   893. E= -.25004133E+02 F= -.31827807E+02 E0= -.31784467E+02  EK= 0.30000E+01 SP= 0.36E+01 SK= 0.18E+00 mag=     -0.053
       N       E                     dE             d eps       ncg     rms          rms(c)
DAV:   1    -0.317773915538E+02    0.50296E-01   -0.17031E-02  2048   0.110E+00    0.180E-02
RMM:   2    -0.317785770061E+02   -0.11855E-02   -0.26478E-03  1405   0.264E-01
   1923 T=   829. E= -.24997846E+02 F= -.31778577E+02 E0= -.31735698E+02  EK= 0.27857E+01 SP= 0.38E+01 SK= 0.19E+00 mag=     -0.003
       N       E                     dE             d eps       ncg     rms          rms(c)
DAV:   1    -0.317270353850E+02    0.50356E-01   -0.18870E-02  2728   0.113E+00    0.265E-02
RMM:   2    -0.317281969290E+02   -0.11615E-02   -0.28872E-03  1546   0.236E-01
   1924 T=   767. E= -.24993207E+02 F= -.31728197E+02 E0= -.31685789E+02  EK= 0.25786E+01 SP= 0.40E+01 SK= 0.19E+00 mag=      0.057
       N       E                     dE             d eps       ncg     rms          rms(c)
DAV:   1    -0.316769875358E+02    0.50048E-01   -0.13058E-02  2320   0.101E+00    0.266E-02
RMM:   2    -0.316781240420E+02   -0.11365E-02   -0.32541E-03  1528   0.272E-01
   1925 T=   710. E= -.24989262E+02 F= -.31678124E+02 E0= -.31636154E+02  EK= 0.23856E+01 SP= 0.41E+01 SK= 0.18E+00 mag=      0.087
       N       E                     dE             d eps       ncg     rms          rms(c)
DAV:   1    -0.316286515686E+02    0.48336E-01   -0.17760E-02  2528   0.105E+00    0.199E-02
RMM:   2    -0.316296624913E+02   -0.10109E-02   -0.32705E-03  1535   0.244E-01
   1926 T=   658. E= -.24984672E+02 F= -.31629662E+02 E0= -.31588088E+02  EK= 0.22119E+01 SP= 0.43E+01 SK= 0.16E+00 mag=      0.064
       N       E                     dE             d eps       ncg     rms          rms(c)
DAV:   1    -0.315826263549E+02    0.46025E-01   -0.10927E-02  2304   0.925E-01    0.212E-02
RMM:   2    -0.315835516460E+02   -0.92529E-03   -0.33722E-03  1537   0.261E-01
   1927 T=   613. E= -.24980438E+02 F= -.31583552E+02 E0= -.31542352E+02  EK= 0.20588E+01 SP= 0.44E+01 SK= 0.13E+00 mag=     -0.006
       N       E                     dE             d eps       ncg     rms          rms(c)
DAV:   1    -0.315397054046E+02    0.42921E-01   -0.12208E-02  2512   0.955E-01    0.280E-02
RMM:   2    -0.315406272641E+02   -0.92186E-03   -0.35674E-03  1535   0.245E-01
   1928 T=   574. E= -.24976070E+02 F= -.31540627E+02 E0= -.31499800E+02  EK= 0.19278E+01 SP= 0.45E+01 SK= 0.99E-01 mag=     -0.069
       N       E                     dE             d eps       ncg     rms          rms(c)
DAV:   1    -0.315010476941E+02    0.38658E-01   -0.10251E-02  2328   0.871E-01    0.263E-02
RMM:   2    -0.315017770290E+02   -0.72933E-03   -0.31679E-03  1525   0.263E-01
   1929 T=   541. E= -.24972110E+02 F= -.31501777E+02 E0= -.31461269E+02  EK= 0.18191E+01 SP= 0.46E+01 SK= 0.68E-01 mag=     -0.087
       N       E                     dE             d eps       ncg     rms          rms(c)
DAV:   1    -0.314666125387E+02    0.34435E-01   -0.10679E-02  2432   0.879E-01    0.258E-02
RMM:   2    -0.314673127091E+02   -0.70017E-03   -0.31805E-03  1524   0.237E-01
   1930 T=   516. E= -.24968059E+02 F= -.31467313E+02 E0= -.31427098E+02  EK= 0.17329E+01 SP= 0.47E+01 SK= 0.39E-01 mag=     -0.040
       N       E                     dE             d eps       ncg     rms          rms(c)
DAV:   1    -0.314374707398E+02    0.29142E-01   -0.83915E-03  2328   0.834E-01    0.310E-02
RMM:   2    -0.314382008643E+02   -0.73012E-03   -0.33002E-03  1535   0.241E-01
   1931 T=   497. E= -.24964031E+02 F= -.31438201E+02 E0= -.31398260E+02  EK= 0.16693E+01 SP= 0.48E+01 SK= 0.17E-01 mag=      0.043
       N       E                     dE             d eps       ncg     rms          rms(c)
DAV:   1    -0.314142334186E+02    0.23237E-01   -0.10073E-02  2408   0.847E-01    0.321E-02
RMM:   2    -0.314149556239E+02   -0.72221E-03   -0.33998E-03  1538   0.241E-01
   1932 T=   484. E= -.24960210E+02 F= -.31414956E+02 E0= -.31375279E+02  EK= 0.16281E+01 SP= 0.48E+01 SK= 0.37E-02 mag=      0.088
       N       E                     dE             d eps       ncg     rms          rms(c)
DAV:   1    -0.313972943179E+02    0.16939E-01   -0.89064E-03  2344   0.799E-01    0.289E-02
RMM:   2    -0.313978944455E+02   -0.60013E-03   -0.32992E-03  1521   0.249E-01
   1933 T=   479. E= -.24957078E+02 F= -.31397894E+02 E0= -.31358415E+02  EK= 0.16086E+01 SP= 0.48E+01 SK= 0.13E-03 mag=      0.065
       N       E                     dE             d eps       ncg     rms          rms(c)
DAV:   1    -0.313861406645E+02    0.11154E-01   -0.10444E-02  2504   0.829E-01    0.385E-02
RMM:   2    -0.313869327760E+02   -0.79211E-03   -0.33836E-03  1528   0.231E-01
   1934 T=   480. E= -.24953675E+02 F= -.31386933E+02 E0= -.31347670E+02  EK= 0.16116E+01 SP= 0.48E+01 SK= 0.71E-02 mag=     -0.008
       N       E                     dE             d eps       ncg     rms          rms(c)
DAV:   1    -0.313825427988E+02    0.35979E-02   -0.95068E-03  2440   0.814E-01    0.354E-02
RMM:   2    -0.313831591354E+02   -0.61634E-03   -0.32851E-03  1528   0.248E-01
   1935 T=   487. E= -.24950709E+02 F= -.31383159E+02 E0= -.31344047E+02  EK= 0.16376E+01 SP= 0.48E+01 SK= 0.24E-01 mag=     -0.086
       N       E                     dE             d eps       ncg     rms          rms(c)
DAV:   1    -0.313850249778E+02   -0.24822E-02   -0.11186E-02  2416   0.827E-01    0.397E-02
RMM:   2    -0.313857713534E+02   -0.74638E-03   -0.33779E-03  1522   0.242E-01
   1936 T=   502. E= -.24947510E+02 F= -.31385771E+02 E0= -.31346835E+02  EK= 0.16869E+01 SP= 0.47E+01 SK= 0.51E-01 mag=     -0.105
       N       E                     dE             d eps       ncg     rms          rms(c)
DAV:   1    -0.313946646877E+02   -0.96397E-02   -0.82311E-03  2128   0.843E-01    0.445E-02
RMM:   2    -0.313954841097E+02   -0.81942E-03   -0.37882E-03  1553   0.247E-01
   1937 T=   524. E= -.24944454E+02 F= -.31395484E+02 E0= -.31356665E+02  EK= 0.17608E+01 SP= 0.46E+01 SK= 0.85E-01 mag=     -0.044
       N       E                     dE             d eps       ncg     rms          rms(c)
DAV:   1    -0.314116487482E+02   -0.16984E-01   -0.10195E-02  2480   0.877E-01    0.422E-02
RMM:   2    -0.314124787088E+02   -0.82996E-03   -0.37053E-03  1537   0.259E-01
   1938 T=   554. E= -.24941593E+02 F= -.31412479E+02 E0= -.31373782E+02  EK= 0.18602E+01 SP= 0.45E+01 SK= 0.12E+00 mag=      0.052
       N       E                     dE             d eps       ncg     rms          rms(c)
DAV:   1    -0.314358278728E+02   -0.24179E-01   -0.10213E-02  2408   0.899E-01    0.459E-02
RMM:   2    -0.314366223257E+02   -0.79445E-03   -0.40248E-03  1543   0.270E-01
   1939 T=   591. E= -.24939041E+02 F= -.31436622E+02 E0= -.31398008E+02  EK= 0.19860E+01 SP= 0.43E+01 SK= 0.16E+00 mag=      0.121
       N       E                     dE             d eps       ncg     rms          rms(c)
DAV:   1    -0.314656722698E+02   -0.29844E-01   -0.13526E-02  2520   0.940E-01    0.592E-02
RMM:   2    -0.314669199813E+02   -0.12477E-02   -0.46430E-03  1542   0.273E-01
   1940 T=   637. E= -.24935720E+02 F= -.31466920E+02 E0= -.31428433E+02  EK= 0.21392E+01 SP= 0.42E+01 SK= 0.20E+00 mag=      0.077
       N       E                     dE             d eps       ncg     rms          rms(c)
DAV:   1    -0.315042370615E+02   -0.38565E-01   -0.15406E-02  2512   0.987E-01    0.497E-02
RMM:   2    -0.315050898488E+02   -0.85279E-03   -0.46265E-03  1550   0.302E-01
   1941 T=   690. E= -.24933586E+02 F= -.31505090E+02 E0= -.31466586E+02  EK= 0.23198E+01 SP= 0.40E+01 SK= 0.23E+00 mag=     -0.054
       N       E                     dE             d eps       ncg     rms          rms(c)
DAV:   1    -0.315468137482E+02   -0.42577E-01   -0.21449E-02  2544   0.102E+00    0.642E-02
RMM:   2    -0.315482655118E+02   -0.14518E-02   -0.55244E-03  1560   0.307E-01    0.501E-02
RMM:   3    -0.315488676814E+02   -0.60217E-03   -0.15662E-03  1502   0.115E-01
   1942 T=   752. E= -.24931597E+02 F= -.31548868E+02 E0= -.31510449E+02  EK= 0.25261E+01 SP= 0.38E+01 SK= 0.24E+00 mag=     -0.044
       N       E                     dE             d eps       ncg     rms          rms(c)
DAV:   1    -0.315970393111E+02   -0.48774E-01   -0.25128E-02  2536   0.108E+00    0.578E-02
RMM:   2    -0.315982489616E+02   -0.12097E-02   -0.37372E-03  1516   0.268E-01
   1943 T=   821. E= -.24928181E+02 F= -.31598249E+02 E0= -.31559850E+02  EK= 0.27578E+01 SP= 0.37E+01 SK= 0.25E+00 mag=      0.061
       N       E                     dE             d eps       ncg     rms          rms(c)
DAV:   1    -0.316495994533E+02   -0.52560E-01   -0.40222E-02  2800   0.120E+00    0.739E-02
RMM:   2    -0.316515136950E+02   -0.19142E-02   -0.57857E-03  1570   0.298E-01    0.584E-02
RMM:   3    -0.316526834262E+02   -0.11697E-02   -0.21409E-03  1441   0.120E-01
   1944 T=   895. E= -.24925657E+02 F= -.31652683E+02 E0= -.31614321E+02  EK= 0.30081E+01 SP= 0.35E+01 SK= 0.24E+00 mag=      0.033
       N       E                     dE             d eps       ncg     rms          rms(c)
DAV:   1    -0.317088344621E+02   -0.57321E-01   -0.30532E-02  2576   0.116E+00    0.697E-02
RMM:   2    -0.317106618400E+02   -0.18274E-02   -0.56887E-03  1512   0.286E-01    0.534E-02
RMM:   3    -0.317112614189E+02   -0.59958E-03   -0.12508E-03  1374   0.112E-01
   1945 T=   972. E= -.24925170E+02 F= -.31711261E+02 E0= -.31672833E+02  EK= 0.32683E+01 SP= 0.33E+01 SK= 0.21E+00 mag=     -0.022
       N       E                     dE             d eps       ncg     rms          rms(c)
DAV:   1    -0.317711159001E+02   -0.60454E-01   -0.54868E-02  2632   0.129E+00    0.586E-02
RMM:   2    -0.317724539690E+02   -0.13381E-02   -0.61614E-03  1641   0.343E-01
   1946 T=  1051. E= -.24921722E+02 F= -.31772454E+02 E0= -.31734013E+02  EK= 0.35328E+01 SP= 0.32E+01 SK= 0.17E+00 mag=     -0.071
       N       E                     dE             d eps       ncg     rms          rms(c)
DAV:   1    -0.318338102449E+02   -0.62694E-01   -0.42573E-02  2904   0.133E+00    0.497E-02
RMM:   2    -0.318351790946E+02   -0.13688E-02   -0.61846E-03  1654   0.331E-01    0.334E-02
RMM:   3    -0.318354908299E+02   -0.31174E-03   -0.14259E-03  1506   0.124E-01
   1947 T=  1126. E= -.24920701E+02 F= -.31835491E+02 E0= -.31796963E+02  EK= 0.37835E+01 SP= 0.30E+01 SK= 0.12E+00 mag=     -0.044
       N       E                     dE             d eps       ncg     rms          rms(c)
DAV:   1    -0.318967742879E+02   -0.61595E-01   -0.32117E-02  2584   0.135E+00    0.560E-02
RMM:   2    -0.318980499902E+02   -0.12757E-02   -0.48056E-03  1645   0.298E-01
   1948 T=  1193. E= -.24916403E+02 F= -.31898050E+02 E0= -.31859454E+02  EK= 0.40102E+01 SP= 0.29E+01 SK= 0.67E-01 mag=      0.041
       N       E                     dE             d eps       ncg     rms          rms(c)
DAV:   1    -0.319560403624E+02   -0.59266E-01   -0.45788E-02  2880   0.148E+00    0.678E-02
RMM:   2    -0.319580527887E+02   -0.20124E-02   -0.70487E-03  1676   0.321E-01    0.518E-02
RMM:   3    -0.319588526035E+02   -0.79981E-03   -0.21635E-03  1425   0.129E-01
   1949 T=  1248. E= -.24911004E+02 F= -.31958853E+02 E0= -.31920288E+02  EK= 0.41951E+01 SP= 0.28E+01 SK= 0.27E-01 mag=      0.038
       N       E                     dE             d eps       ncg     rms          rms(c)
DAV:   1    -0.320151666860E+02   -0.57114E-01   -0.40869E-02  2568   0.134E+00    0.735E-02
RMM:   2    -0.320172222889E+02   -0.20556E-02   -0.56046E-03  1629   0.335E-01    0.497E-02
RMM:   3    -0.320175517030E+02   -0.32941E-03   -0.12936E-03  1313   0.123E-01
   1950 T=  1286. E= -.24908506E+02 F= -.32017552E+02 E0= -.31978754E+02  EK= 0.43207E+01 SP= 0.28E+01 SK= 0.33E-02 mag=     -0.028
       N       E                     dE             d eps       ncg     rms          rms(c)
DAV:   1    -0.320690816239E+02   -0.51859E-01   -0.62461E-02  2776   0.147E+00    0.668E-02
RMM:   2    -0.320709224189E+02   -0.18408E-02   -0.67931E-03  1730   0.359E-01    0.435E-02
RMM:   3    -0.320713953074E+02   -0.47289E-03   -0.16695E-03  1510   0.131E-01
   1951 T=  1304. E= -.24902893E+02 F= -.32071395E+02 E0= -.32032480E+02  EK= 0.43812E+01 SP= 0.28E+01 SK= 0.31E-02 mag=     -0.050
       N       E                     dE             d eps       ncg     rms          rms(c)
DAV:   1    -0.321192775994E+02   -0.48355E-01   -0.31883E-02  2808   0.139E+00    0.329E-02
RMM:   2    -0.321207781755E+02   -0.15006E-02   -0.60239E-03  1746   0.341E-01    0.179E-02
RMM:   3    -0.321209663130E+02   -0.18814E-03   -0.13878E-03  1206   0.128E-01
   1952 T=  1300. E= -.24899136E+02 F= -.32120966E+02 E0= -.32081765E+02  EK= 0.43678E+01 SP= 0.28E+01 SK= 0.29E-01 mag=     -0.017
       N       E                     dE             d eps       ncg     rms          rms(c)
DAV:   1    -0.321616689875E+02   -0.40891E-01   -0.34345E-02  2880   0.141E+00    0.430E-02
RMM:   2    -0.321631956102E+02   -0.15266E-02   -0.53687E-03  1719   0.321E-01    0.280E-02
RMM:   3    -0.321635528815E+02   -0.35727E-03   -0.15073E-03  1375   0.126E-01
   1953 T=  1274. E= -.24893903E+02 F= -.32163553E+02 E0= -.32124174E+02  EK= 0.42832E+01 SP= 0.29E+01 SK= 0.79E-01 mag=      0.030
       N       E                     dE             d eps       ncg     rms          rms(c)
DAV:   1    -0.321986230014E+02   -0.35427E-01   -0.25720E-02  2200   0.136E+00    0.367E-02
RMM:   2    -0.321999063722E+02   -0.12834E-02   -0.42493E-03  1685   0.317E-01
   1954 T=  1231. E= -.24886531E+02 F= -.32199906E+02 E0= -.32160264E+02  EK= 0.41368E+01 SP= 0.30E+01 SK= 0.15E+00 mag=      0.060
       N       E                     dE             d eps       ncg     rms          rms(c)
DAV:   1    -0.322285897672E+02   -0.29967E-01   -0.31130E-02  2536   0.139E+00    0.296E-02
RMM:   2    -0.322299258313E+02   -0.13361E-02   -0.47041E-03  1676   0.298E-01
   1955 T=  1171. E= -.24881964E+02 F= -.32229926E+02 E0= -.32189971E+02  EK= 0.39356E+01 SP= 0.32E+01 SK= 0.23E+00 mag=      0.049
       N       E                     dE             d eps       ncg     rms          rms(c)
DAV:   1    -0.322523101021E+02   -0.23720E-01   -0.19269E-02  2240   0.127E+00    0.304E-02
RMM:   2    -0.322536837230E+02   -0.13736E-02   -0.51544E-03  1650   0.325E-01    0.199E-02
RMM:   3    -0.322539221644E+02   -0.23844E-03   -0.14853E-03  1378   0.125E-01
   1956 T=  1100. E= -.24879088E+02 F= -.32253922E+02 E0= -.32213656E+02  EK= 0.36961E+01 SP= 0.34E+01 SK= 0.30E+00 mag=     -0.003
       N       E                     dE             d eps       ncg     rms          rms(c)
DAV:   1    -0.322707028498E+02   -0.17019E-01   -0.28339E-02  2344   0.128E+00    0.265E-02
RMM:   2    -0.322718717844E+02   -0.11689E-02   -0.41770E-03  1651   0.309E-01
   1957 T=  1024. E= -.24869292E+02 F= -.32271872E+02 E0= -.32231293E+02  EK= 0.34419E+01 SP= 0.36E+01 SK= 0.37E+00 mag=     -0.062
       N       E                     dE             d eps       ncg     rms          rms(c)
DAV:   1    -0.322839686297E+02   -0.13266E-01   -0.26624E-02  2832   0.129E+00    0.344E-02
RMM:   2    -0.322851342591E+02   -0.11656E-02   -0.54017E-03  1648   0.279E-01
   1958 T=   945. E= -.24863071E+02 F= -.32285134E+02 E0= -.32244214E+02  EK= 0.31771E+01 SP= 0.38E+01 SK= 0.43E+00 mag=     -0.083
       N       E                     dE             d eps       ncg     rms          rms(c)
DAV:   1    -0.322934644057E+02   -0.94958E-02   -0.14960E-02  2440   0.113E+00    0.301E-02
RMM:   2    -0.322944929794E+02   -0.10286E-02   -0.46166E-03  1639   0.309E-01
   1959 T=   867. E= -.24859826E+02 F= -.32294493E+02 E0= -.32253185E+02  EK= 0.29145E+01 SP= 0.41E+01 SK= 0.46E+00 mag=     -0.042
       N       E                     dE             d eps       ncg     rms          rms(c)
DAV:   1    -0.322996513436E+02   -0.61869E-02   -0.29501E-02  2800   0.119E+00    0.267E-02
RMM:   2    -0.323005910771E+02   -0.93973E-03   -0.44730E-03  1589   0.282E-01
   1960 T=   794. E= -.24854917E+02 F= -.32300591E+02 E0= -.32258939E+02  EK= 0.26674E+01 SP= 0.43E+01 SK= 0.47E+00 mag=      0.041
       N       E                     dE             d eps       ncg     rms          rms(c)
DAV:   1    -0.323031949891E+02   -0.35436E-02   -0.11285E-02  2392   0.102E+00    0.356E-02
RMM:   2    -0.323041556763E+02   -0.96069E-03   -0.47041E-03  1585   0.293E-01
   1961 T=   726. E= -.24849581E+02 F= -.32304156E+02 E0= -.32262196E+02  EK= 0.24406E+01 SP= 0.46E+01 SK= 0.45E+00 mag=      0.110
       N       E                     dE             d eps       ncg     rms          rms(c)
DAV:   1    -0.323056720952E+02   -0.24771E-02   -0.18203E-02  2664   0.106E+00    0.359E-02
RMM:   2    -0.323065148782E+02   -0.84278E-03   -0.39946E-03  1551   0.269E-01
   1962 T=   666. E= -.24844030E+02 F= -.32306515E+02 E0= -.32264172E+02  EK= 0.22378E+01 SP= 0.48E+01 SK= 0.42E+00 mag=      0.103
       N       E                     dE             d eps       ncg     rms          rms(c)
DAV:   1    -0.323075030972E+02   -0.18310E-02   -0.12399E-02  2520   0.960E-01    0.245E-02
RMM:   2    -0.323082125597E+02   -0.70946E-03   -0.43265E-03  1582   0.277E-01
   1963 T=   613. E= -.24839903E+02 F= -.32308213E+02 E0= -.32265459E+02  EK= 0.20589E+01 SP= 0.50E+01 SK= 0.38E+00 mag=      0.012
       N       E                     dE             d eps       ncg     rms          rms(c)
DAV:   1    -0.323083082122E+02   -0.80511E-03   -0.14151E-02  2576   0.937E-01    0.362E-02
RMM:   2    -0.323090947901E+02   -0.78658E-03   -0.40329E-03  1553   0.260E-01
   1964 T=   567. E= -.24835571E+02 F= -.32309095E+02 E0= -.32266087E+02  EK= 0.19050E+01 SP= 0.52E+01 SK= 0.32E+00 mag=     -0.100
       N       E                     dE             d eps       ncg     rms          rms(c)
DAV:   1    -0.323097464035E+02   -0.14382E-02   -0.10222E-02  2424   0.899E-01    0.437E-02
RMM:   2    -0.323104957068E+02   -0.74930E-03   -0.35964E-03  1532   0.256E-01
   1965 T=   528. E= -.24831248E+02 F= -.32310496E+02 E0= -.32267196E+02  EK= 0.17761E+01 SP= 0.54E+01 SK= 0.26E+00 mag=     -0.152
       N       E                     dE             d eps       ncg     rms          rms(c)
DAV:   1    -0.323123158045E+02   -0.25694E-02   -0.10611E-02  2384   0.865E-01    0.330E-02
RMM:   2    -0.323129407980E+02   -0.62499E-03   -0.33905E-03  1535   0.247E-01
   1966 T=   497. E= -.24826770E+02 F= -.32312941E+02 E0= -.32269206E+02  EK= 0.16714E+01 SP= 0.56E+01 SK= 0.20E+00 mag=     -0.088
       N       E                     dE             d eps       ncg     rms          rms(c)
DAV:   1    -0.323154504702E+02   -0.31347E-02   -0.92011E-03  2320   0.833E-01    0.296E-02
RMM:   2    -0.323160448949E+02   -0.59442E-03   -0.37737E-03  1553   0.246E-01
   1967 T=   473. E= -.24822248E+02 F= -.32316045E+02 E0= -.32271993E+02  EK= 0.15885E+01 SP= 0.58E+01 SK= 0.14E+00 mag=      0.066
       N       E                     dE             d eps       ncg     rms          rms(c)
DAV:   1    -0.323187371887E+02   -0.32867E-02   -0.10361E-02  2360   0.822E-01    0.526E-02
RMM:   2    -0.323196094921E+02   -0.87230E-03   -0.33589E-03  1513   0.239E-01
   1968 T=   454. E= -.24817359E+02 F= -.32319609E+02 E0= -.32275501E+02  EK= 0.15263E+01 SP= 0.59E+01 SK= 0.86E-01 mag=      0.174
       N       E                     dE             d eps       ncg     rms          rms(c)
DAV:   1    -0.323251526236E+02   -0.64154E-02   -0.10759E-02  2424   0.843E-01    0.465E-02
RMM:   2    -0.323257853132E+02   -0.63269E-03   -0.33301E-03  1525   0.248E-01
   1969 T=   442. E= -.24813649E+02 F= -.32325785E+02 E0= -.32281202E+02  EK= 0.14840E+01 SP= 0.60E+01 SK= 0.46E-01 mag=      0.162
       N       E                     dE             d eps       ncg     rms          rms(c)
DAV:   1    -0.323325601159E+02   -0.74075E-02   -0.12299E-02  2304   0.779E-01    0.337E-02
RMM:   2    -0.323331607490E+02   -0.60063E-03   -0.36061E-03  1545   0.243E-01
   1970 T=   435. E= -.24809572E+02 F= -.32333161E+02 E0= -.32288149E+02  EK= 0.14607E+01 SP= 0.60E+01 SK= 0.17E-01 mag=      0.016
       N       E                     dE             d eps       ncg     rms          rms(c)
DAV:   1    -0.323403501882E+02   -0.77901E-02   -0.86354E-03  2096   0.805E-01    0.507E-02
RMM:   2    -0.323411855136E+02   -0.83533E-03   -0.36742E-03  1558   0.233E-01
   1971 T=   433. E= -.24805094E+02 F= -.32341186E+02 E0= -.32296162E+02  EK= 0.14554E+01 SP= 0.61E+01 SK= 0.23E-02 mag=     -0.186
       N       E                     dE             d eps       ncg     rms          rms(c)
DAV:   1    -0.323494004554E+02   -0.90503E-02   -0.87577E-03  2424   0.802E-01    0.684E-02
RMM:   2    -0.323505157454E+02   -0.11153E-02   -0.33031E-03  1521   0.236E-01
   1972 T=   437. E= -.24801038E+02 F= -.32350516E+02 E0= -.32305516E+02  EK= 0.14676E+01 SP= 0.61E+01 SK= 0.12E-02 mag=     -0.203
       N       E                     dE             d eps       ncg     rms          rms(c)
DAV:   1    -0.323629115728E+02   -0.13511E-01   -0.16813E-02  2368   0.855E-01    0.418E-02
RMM:   2    -0.323634351558E+02   -0.52358E-03   -0.39330E-03  1527   0.260E-01
   1973 T=   446. E= -.24799239E+02 F= -.32363435E+02 E0= -.32317546E+02  EK= 0.14979E+01 SP= 0.61E+01 SK= 0.14E-01 mag=     -0.020
       N       E                     dE             d eps       ncg     rms          rms(c)
DAV:   1    -0.323734949033E+02   -0.10583E-01   -0.23069E-02  2336   0.801E-01    0.731E-02
RMM:   2    -0.323747752673E+02   -0.12804E-02   -0.44283E-03  1515   0.255E-01
   1974 T=   460. E= -.24794562E+02 F= -.32374775E+02 E0= -.32329215E+02  EK= 0.15466E+01 SP= 0.60E+01 SK= 0.38E-01 mag=      0.250
       N       E                     dE             d eps       ncg     rms          rms(c)
DAV:   1    -0.323856874620E+02   -0.12193E-01   -0.11307E-02  2448   0.852E-01    0.989E-02
RMM:   2    -0.323876392541E+02   -0.19518E-02   -0.41874E-03  1543   0.252E-01    0.802E-02
RMM:   3    -0.323886774322E+02   -0.10382E-02   -0.13607E-03  1471   0.108E-01
   1975 T=   480. E= -.24792336E+02 F= -.32388677E+02 E0= -.32343091E+02  EK= 0.16133E+01 SP= 0.59E+01 SK= 0.73E-01 mag=      0.102
       N       E                     dE             d eps       ncg     rms          rms(c)
DAV:   1    -0.324005639836E+02   -0.12925E-01   -0.51241E-02  2432   0.878E-01    0.984E-02
RMM:   2    -0.324031017174E+02   -0.25377E-02   -0.68105E-03  1475   0.262E-01    0.822E-02
RMM:   3    -0.324039423083E+02   -0.84059E-03   -0.16126E-03  1397   0.903E-02
   1976 T=   506. E= -.24791181E+02 F= -.32403942E+02 E0= -.32357928E+02  EK= 0.16991E+01 SP= 0.58E+01 SK= 0.12E+00 mag=     -0.153
       N       E                     dE             d eps       ncg     rms          rms(c)
DAV:   1    -0.324180103401E+02   -0.14909E-01   -0.96142E-02  2280   0.954E-01    0.913E-02
RMM:   2    -0.324197997215E+02   -0.17894E-02   -0.68895E-03  1529   0.306E-01    0.642E-02
RMM:   3    -0.324205501210E+02   -0.75040E-03   -0.14085E-03  1516   0.113E-01
   1977 T=   537. E= -.24790752E+02 F= -.32420550E+02 E0= -.32374160E+02  EK= 0.18055E+01 SP= 0.57E+01 SK= 0.16E+00 mag=     -0.196
       N       E                     dE             d eps       ncg     rms          rms(c)
DAV:   1    -0.324375344811E+02   -0.17735E-01   -0.38779E-02  2368   0.101E+00    0.605E-02
RMM:   2    -0.324383344943E+02   -0.80001E-03   -0.48274E-03  1529   0.275E-01
   1978 T=   576. E= -.24789971E+02 F= -.32438334E+02 E0= -.32391023E+02  EK= 0.19344E+01 SP= 0.55E+01 SK= 0.21E+00 mag=     -0.007
       N       E                     dE             d eps       ncg     rms          rms(c)
DAV:   1    -0.324516915371E+02   -0.14157E-01   -0.32584E-02  2504   0.962E-01    0.760E-02
RMM:   2    -0.324530598794E+02   -0.13683E-02   -0.53130E-03  1533   0.271E-01    0.581E-02
RMM:   3    -0.324540365467E+02   -0.97667E-03   -0.19899E-03  1445   0.117E-01
   1979 T=   620. E= -.24787288E+02 F= -.32454037E+02 E0= -.32406892E+02  EK= 0.20853E+01 SP= 0.53E+01 SK= 0.26E+00 mag=      0.127
       N       E                     dE             d eps       ncg     rms          rms(c)
DAV:   1    -0.324705673447E+02   -0.17507E-01   -0.16951E-02  2496   0.957E-01    0.531E-02
RMM:   2    -0.324710729328E+02   -0.50559E-03   -0.29415E-03  1509   0.228E-01
   1980 T=   672. E= -.24786394E+02 F= -.32471073E+02 E0= -.32423285E+02  EK= 0.22583E+01 SP= 0.51E+01 SK= 0.29E+00 mag=      0.120
       N       E                     dE             d eps       ncg     rms          rms(c)
DAV:   1    -0.324862060634E+02   -0.15639E-01   -0.21510E-02  2512   0.104E+00    0.293E-02
RMM:   2    -0.324868517420E+02   -0.64568E-03   -0.40997E-03  1536   0.255E-01
   1981 T=   730. E= -.24783529E+02 F= -.32486852E+02 E0= -.32438729E+02  EK= 0.24544E+01 SP= 0.49E+01 SK= 0.32E+00 mag=     -0.031
       N       E                     dE             d eps       ncg     rms          rms(c)
DAV:   1    -0.324992796796E+02   -0.13074E-01   -0.14996E-02  2288   0.102E+00    0.669E-02
RMM:   2    -0.325004370592E+02   -0.11574E-02   -0.49310E-03  1575   0.301E-01
   1982 T=   794. E= -.24779952E+02 F= -.32500437E+02 E0= -.32452505E+02  EK= 0.26698E+01 SP= 0.47E+01 SK= 0.33E+00 mag=     -0.204
       N       E                     dE             d eps       ncg     rms          rms(c)
DAV:   1    -0.325123439068E+02   -0.13064E-01   -0.17009E-02  2592   0.116E+00    0.619E-02
RMM:   2    -0.325135273000E+02   -0.11834E-02   -0.55478E-03  1586   0.326E-01
   1983 T=   863. E= -.24777444E+02 F= -.32513527E+02 E0= -.32465311E+02  EK= 0.29014E+01 SP= 0.45E+01 SK= 0.32E+00 mag=     -0.282
       N       E                     dE             d eps       ncg     rms          rms(c)
DAV:   1    -0.325241280040E+02   -0.11784E-01   -0.16923E-02  2448   0.112E+00    0.453E-02
RMM:   2    -0.325251142540E+02   -0.98625E-03   -0.53487E-03  1573   0.326E-01
   1984 T=   936. E= -.24774181E+02 F= -.32525114E+02 E0= -.32476186E+02  EK= 0.31447E+01 SP= 0.43E+01 SK= 0.30E+00 mag=     -0.172
       N       E                     dE             d eps       ncg     rms          rms(c)
DAV:   1    -0.325317432260E+02   -0.76152E-02   -0.21221E-02  2256   0.124E+00    0.453E-02
RMM:   2    -0.325329285598E+02   -0.11853E-02   -0.61659E-03  1595   0.323E-01
   1985 T=  1009. E= -.24768787E+02 F= -.32532929E+02 E0= -.32483714E+02  EK= 0.33912E+01 SP= 0.41E+01 SK= 0.26E+00 mag=      0.103
       N       E                     dE             d eps       ncg     rms          rms(c)
DAV:   1    -0.325335634070E+02   -0.18202E-02   -0.20874E-02  2584   0.124E+00    0.817E-02
RMM:   2    -0.325357135724E+02   -0.21502E-02   -0.75274E-03  1625   0.349E-01    0.667E-02
RMM:   3    -0.325372328763E+02   -0.15193E-02   -0.30868E-03  1403   0.148E-01    0.463E-02
RMM:   4    -0.325381757388E+02   -0.94286E-03   -0.20195E-03  1399   0.105E-01
   1986 T=  1079. E= -.24765889E+02 F= -.32538176E+02 E0= -.32488502E+02  EK= 0.36273E+01 SP= 0.39E+01 SK= 0.20E+00 mag=      0.049
       N       E                     dE             d eps       ncg     rms          rms(c)
DAV:   1    -0.325345346495E+02    0.26982E-02   -0.33258E-02  2576   0.128E+00    0.860E-02
RMM:   2    -0.325366783301E+02   -0.21437E-02   -0.71949E-03  1575   0.317E-01    0.646E-02
RMM:   3    -0.325378725627E+02   -0.11942E-02   -0.23805E-03  1400   0.123E-01
   1987 T=  1143. E= -.24761075E+02 F= -.32537873E+02 E0= -.32488228E+02  EK= 0.38423E+01 SP= 0.38E+01 SK= 0.14E+00 mag=     -0.120
       N       E                     dE             d eps       ncg     rms          rms(c)
DAV:   1    -0.325326388688E+02    0.40395E-02   -0.45777E-02  2608   0.137E+00    0.772E-02
RMM:   2    -0.325343014089E+02   -0.16625E-02   -0.66800E-03  1710   0.358E-01    0.556E-02
RMM:   3    -0.325348630900E+02   -0.56168E-03   -0.15575E-03  1449   0.137E-01
   1988 T=  1197. E= -.24756275E+02 F= -.32534863E+02 E0= -.32484763E+02  EK= 0.40243E+01 SP= 0.37E+01 SK= 0.87E-01 mag=     -0.176
       N       E                     dE             d eps       ncg     rms          rms(c)
DAV:   1    -0.325264359456E+02    0.78655E-02   -0.31179E-02  2608   0.134E+00    0.527E-02
RMM:   2    -0.325277351031E+02   -0.12992E-02   -0.62269E-03  1649   0.345E-01
   1989 T=  1238. E= -.24749597E+02 F= -.32527735E+02 E0= -.32476886E+02  EK= 0.41613E+01 SP= 0.36E+01 SK= 0.40E-01 mag=     -0.068
       N       E                     dE             d eps       ncg     rms          rms(c)
DAV:   1    -0.325132555179E+02    0.13180E-01   -0.34574E-02  3176   0.138E+00    0.557E-02
RMM:   2    -0.325148653824E+02   -0.16099E-02   -0.65994E-03  1620   0.325E-01    0.413E-02
RMM:   3    -0.325153324985E+02   -0.46712E-03   -0.18897E-03  1503   0.128E-01
   1990 T=  1261. E= -.24744571E+02 F= -.32515332E+02 E0= -.32464321E+02  EK= 0.42385E+01 SP= 0.35E+01 SK= 0.94E-02 mag=      0.101
       N       E                     dE             d eps       ncg     rms          rms(c)
DAV:   1    -0.324976520235E+02    0.17213E-01   -0.21413E-02  2520   0.136E+00    0.686E-02
RMM:   2    -0.324989162368E+02   -0.12642E-02   -0.39688E-03  1531   0.305E-01
   1991 T=  1266. E= -.24737335E+02 F= -.32498916E+02 E0= -.32447596E+02  EK= 0.42546E+01 SP= 0.35E+01 SK= 0.80E-04 mag=      0.220
       N       E                     dE             d eps       ncg     rms          rms(c)
DAV:   1    -0.324773261747E+02    0.20326E-01   -0.33067E-02  2656   0.146E+00    0.513E-02
RMM:   2    -0.324787624283E+02   -0.14363E-02   -0.57759E-03  1605   0.298E-01    0.348E-02
RMM:   3    -0.324790764383E+02   -0.31401E-03   -0.16015E-03  1398   0.116E-01
   1992 T=  1252. E= -.24729283E+02 F= -.32479076E+02 E0= -.32427215E+02  EK= 0.42075E+01 SP= 0.35E+01 SK= 0.13E-01 mag=      0.126
       N       E                     dE             d eps       ncg     rms          rms(c)
DAV:   1    -0.324542405127E+02    0.24522E-01   -0.15640E-02  2152   0.126E+00    0.677E-02
RMM:   2    -0.324555159946E+02   -0.12755E-02   -0.42862E-03  1561   0.323E-01
   1993 T=  1220. E= -.24720824E+02 F= -.32455516E+02 E0= -.32403340E+02  EK= 0.41000E+01 SP= 0.36E+01 SK= 0.45E-01 mag=     -0.133
       N       E                     dE             d eps       ncg     rms          rms(c)
DAV:   1    -0.324264255465E+02    0.27815E-01   -0.33532E-02  2992   0.145E+00    0.728E-02
RMM:   2    -0.324282578212E+02   -0.18323E-02   -0.57101E-03  1601   0.297E-01    0.564E-02
RMM:   3    -0.324292425726E+02   -0.98475E-03   -0.21206E-03  1400   0.131E-01
   1994 T=  1173. E= -.24712478E+02 F= -.32429243E+02 E0= -.32377101E+02  EK= 0.39407E+01 SP= 0.37E+01 SK= 0.92E-01 mag=     -0.176
       N       E                     dE             d eps       ncg     rms          rms(c)
DAV:   1    -0.324004992235E+02    0.27759E-01   -0.20001E-02  2352   0.124E+00    0.743E-02
RMM:   2    -0.324019377165E+02   -0.14385E-02   -0.59082E-03  1617   0.319E-01    0.445E-02
RMM:   3    -0.324021702052E+02   -0.23249E-03   -0.12492E-03  1338   0.120E-01
   1995 T=  1112. E= -.24708347E+02 F= -.32402170E+02 E0= -.32349293E+02  EK= 0.37388E+01 SP= 0.38E+01 SK= 0.15E+00 mag=     -0.009
       N       E                     dE             d eps       ncg     rms          rms(c)
DAV:   1    -0.323711931262E+02    0.30745E-01   -0.29085E-02  2680   0.126E+00    0.621E-02
RMM:   2    -0.323725420542E+02   -0.13489E-02   -0.52850E-03  1590   0.309E-01
   1996 T=  1046. E= -.24698399E+02 F= -.32372542E+02 E0= -.32319979E+02  EK= 0.35152E+01 SP= 0.40E+01 SK= 0.20E+00 mag=      0.256
       N       E                     dE             d eps       ncg     rms          rms(c)
DAV:   1    -0.323409202545E+02    0.30273E-01   -0.21529E-02  2864   0.125E+00    0.798E-02
RMM:   2    -0.323426383975E+02   -0.17181E-02   -0.57062E-03  1586   0.305E-01    0.610E-02
RMM:   3    -0.323434788699E+02   -0.84047E-03   -0.16086E-03  1433   0.123E-01
   1997 T=   975. E= -.24692564E+02 F= -.32343479E+02 E0= -.32291020E+02  EK= 0.32755E+01 SP= 0.41E+01 SK= 0.24E+00 mag=      0.208
       N       E                     dE             d eps       ncg     rms          rms(c)
DAV:   1    -0.323150066460E+02    0.27632E-01   -0.23468E-02  2568   0.118E+00    0.740E-02
RMM:   2    -0.323160313428E+02   -0.10247E-02   -0.36654E-03  1514   0.271E-01
   1998 T=   903. E= -.24687765E+02 F= -.32316031E+02 E0= -.32262756E+02  EK= 0.30346E+01 SP= 0.43E+01 SK= 0.27E+00 mag=     -0.103
       N       E                     dE             d eps       ncg     rms          rms(c)
DAV:   1    -0.322844720228E+02    0.30535E-01   -0.32553E-02  3104   0.120E+00    0.926E-02
RMM:   2    -0.322864479016E+02   -0.19759E-02   -0.51943E-03  1514   0.264E-01    0.731E-02
RMM:   3    -0.322876724217E+02   -0.12245E-02   -0.17972E-03  1435   0.109E-01
   1999 T=   834. E= -.24680589E+02 F= -.32287672E+02 E0= -.32235258E+02  EK= 0.28023E+01 SP= 0.45E+01 SK= 0.29E+00 mag=     -0.208
       N       E                     dE             d eps       ncg     rms          rms(c)
DAV:   1    -0.322629332061E+02    0.23515E-01   -0.26590E-02  2512   0.105E+00    0.801E-02
RMM:   2    -0.322639350889E+02   -0.10019E-02   -0.42543E-03  1472   0.285E-01
   2000 T=   769. E= -.24677096E+02 F= -.32263935E+02 E0= -.32210429E+02  EK= 0.25843E+01 SP= 0.47E+01 SK= 0.29E+00 mag=     -0.082
