Na27
1.0
  -5.5474353546226318    5.5474353546226318    8.2350362503776111
   5.5474353546226318   -5.5474353546226318    8.2350362503776111
   5.5474353546226318    5.5474353546226318   -8.2350362503776111
Na
27
direct
   0.0000000000000000    0.0000000000000000    0.0000000000000000 Na
   0.0000000000000000    0.0000000000000000    0.3333333333333333 Na
   0.0000000000000000    0.0000000000000000    0.6666666666666666 Na
   0.0000000000000000    0.3333333333333333    0.0000000000000000 Na
   0.0000000000000000    0.3333333333333333    0.3333333333333333 Na
   0.0000000000000000    0.3333333333333333    0.6666666666666666 Na
   0.0000000000000000    0.6666666666666666    0.0000000000000000 Na
   0.0000000000000000    0.6666666666666666    0.3333333333333334 Na
   0.0000000000000000    0.6666666666666666    0.6666666666666666 Na
   0.3333333333333333    0.0000000000000000    0.0000000000000000 Na
   0.3333333333333333    0.0000000000000000    0.3333333333333333 Na
   0.3333333333333333    0.0000000000000000    0.6666666666666666 Na
   0.3333333333333333    0.3333333333333333    0.0000000000000000 Na
   0.3333333333333333    0.3333333333333333    0.3333333333333333 Na
   0.3333333333333333    0.3333333333333333    0.6666666666666666 Na
   0.3333333333333334    0.6666666666666666    0.0000000000000000 Na
   0.3333333333333334    0.6666666666666667    0.3333333333333333 Na
   0.3333333333333334    0.6666666666666667    0.6666666666666666 Na
   0.6666666666666666    0.0000000000000000    0.0000000000000000 Na
   0.6666666666666666    0.0000000000000000    0.3333333333333334 Na
   0.6666666666666666    0.0000000000000000    0.6666666666666666 Na
   0.6666666666666666    0.3333333333333334    0.0000000000000000 Na
   0.6666666666666667    0.3333333333333334    0.3333333333333333 Na
   0.6666666666666667    0.3333333333333334    0.6666666666666666 Na
   0.6666666666666666    0.6666666666666666    0.0000000000000000 Na
   0.6666666666666666    0.6666666666666667    0.3333333333333333 Na
   0.6666666666666666    0.6666666666666666    0.6666666666666666 Na
