Li72 Ga36
1.0
  12.9300578699999988    0.0000000000000000    0.0000000000000008
  -0.0000000000000007   12.1347818769087841   -5.8297415206299714
   0.0000000000000000    0.0000000000000000   10.3628865000000001
Li Ga
72 36
direct
   0.0833333333333333    0.1939699533333334    0.0819083650000000 Li
   0.0833333333333333    0.1939699533333334    0.5819083650000000 Li
   0.0833333333333333    0.5273032866666667    0.0819083650000001 Li
   0.0833333333333333    0.5273032866666667    0.5819083650000001 Li
   0.0833333333333333    0.8606366200000001    0.0819083650000000 Li
   0.0833333333333333    0.8606366200000001    0.5819083650000000 Li
   0.4166666666666666    0.1939699533333334    0.0819083650000000 Li
   0.4166666666666666    0.1939699533333334    0.5819083650000000 Li
   0.4166666666666667    0.5273032866666667    0.0819083650000000 Li
   0.4166666666666667    0.5273032866666667    0.5819083650000000 Li
   0.4166666666666666    0.8606366200000001    0.0819083650000000 Li
   0.4166666666666666    0.8606366200000001    0.5819083650000000 Li
   0.7500000000000000    0.1939699533333334    0.0819083650000000 Li
   0.7500000000000000    0.1939699533333334    0.5819083650000000 Li
   0.7500000000000000    0.5273032866666667    0.0819083650000001 Li
   0.7500000000000000    0.5273032866666667    0.5819083650000000 Li
   0.7500000000000000    0.8606366200000001    0.0819083650000001 Li
   0.7500000000000000    0.8606366200000001    0.5819083650000001 Li
   0.2500000000000000    0.1393637133333334    0.4180916350000000 Li
   0.2500000000000000    0.1393637133333334    0.9180916350000000 Li
   0.2500000000000000    0.4726970466666667    0.4180916350000000 Li
   0.2500000000000000    0.4726970466666667    0.9180916350000000 Li
   0.2500000000000000    0.8060303800000000    0.4180916350000001 Li
   0.2500000000000000    0.8060303800000000    0.9180916350000000 Li
   0.5833333333333334    0.1393637133333334    0.4180916350000000 Li
   0.5833333333333334    0.1393637133333334    0.9180916350000000 Li
   0.5833333333333334    0.4726970466666667    0.4180916350000000 Li
   0.5833333333333334    0.4726970466666667    0.9180916350000000 Li
   0.5833333333333333    0.8060303800000000    0.4180916350000000 Li
   0.5833333333333333    0.8060303800000000    0.9180916350000000 Li
   0.9166666666666666    0.1393637133333334    0.4180916350000000 Li
   0.9166666666666666    0.1393637133333334    0.9180916349999999 Li
   0.9166666666666666    0.4726970466666667    0.4180916350000000 Li
   0.9166666666666666    0.4726970466666667    0.9180916350000000 Li
   0.9166666666666666    0.8060303800000000    0.4180916350000001 Li
   0.9166666666666666    0.8060303800000000    0.9180916350000001 Li
   0.2500000000000000    0.2531498033333333    0.2594494100000000 Li
   0.2500000000000000    0.2531498033333333    0.7594494100000000 Li
   0.2500000000000000    0.5864831366666666    0.2594494100000000 Li
   0.2500000000000000    0.5864831366666666    0.7594494099999999 Li
   0.2500000000000000    0.9198164700000000    0.2594494100000000 Li
   0.2500000000000000    0.9198164700000000    0.7594494100000000 Li
   0.5833333333333334    0.2531498033333333    0.2594494100000000 Li
   0.5833333333333334    0.2531498033333333    0.7594494100000000 Li
   0.5833333333333334    0.5864831366666666    0.2594494100000000 Li
   0.5833333333333334    0.5864831366666666    0.7594494100000000 Li
   0.5833333333333333    0.9198164700000000    0.2594494100000000 Li
   0.5833333333333333    0.9198164700000000    0.7594494100000000 Li
   0.9166666666666666    0.2531498033333333    0.2594494100000000 Li
   0.9166666666666666    0.2531498033333333    0.7594494100000000 Li
   0.9166666666666666    0.5864831366666666    0.2594494099999999 Li
   0.9166666666666666    0.5864831366666666    0.7594494100000000 Li
   0.9166666666666666    0.9198164700000000    0.2594494099999999 Li
   0.9166666666666666    0.9198164700000000    0.7594494099999999 Li
   0.0833333333333333    0.0801835300000000    0.2405505900000000 Li
   0.0833333333333333    0.0801835300000000    0.7405505900000000 Li
   0.0833333333333333    0.4135168633333333    0.2405505900000000 Li
   0.0833333333333333    0.4135168633333333    0.7405505900000000 Li
   0.0833333333333333    0.7468501966666667    0.2405505900000001 Li
   0.0833333333333333    0.7468501966666667    0.7405505900000001 Li
   0.4166666666666666    0.0801835300000000    0.2405505900000000 Li
   0.4166666666666666    0.0801835300000000    0.7405505900000000 Li
   0.4166666666666666    0.4135168633333333    0.2405505900000000 Li
   0.4166666666666666    0.4135168633333333    0.7405505900000000 Li
   0.4166666666666666    0.7468501966666667    0.2405505900000000 Li
   0.4166666666666666    0.7468501966666667    0.7405505900000000 Li
   0.7500000000000000    0.0801835300000000    0.2405505900000000 Li
   0.7500000000000000    0.0801835300000000    0.7405505900000000 Li
   0.7500000000000000    0.4135168633333333    0.2405505900000000 Li
   0.7500000000000000    0.4135168633333333    0.7405505900000000 Li
   0.7500000000000000    0.7468501966666667    0.2405505900000001 Li
   0.7500000000000000    0.7468501966666667    0.7405505900000001 Li
   0.0833333333333333    0.3075244933333333    0.4225729750000000 Ga
   0.0833333333333333    0.3075244933333333    0.9225729750000000 Ga
   0.0833333333333333    0.6408578266666667    0.4225729750000001 Ga
   0.0833333333333333    0.6408578266666667    0.9225729750000001 Ga
   0.0833333333333333    0.9741911600000001    0.4225729750000000 Ga
   0.0833333333333333    0.9741911600000001    0.9225729750000000 Ga
   0.4166666666666666    0.3075244933333333    0.4225729750000000 Ga
   0.4166666666666666    0.3075244933333333    0.9225729750000000 Ga
   0.4166666666666667    0.6408578266666667    0.4225729750000001 Ga
   0.4166666666666667    0.6408578266666667    0.9225729750000001 Ga
   0.4166666666666666    0.9741911600000001    0.4225729750000000 Ga
   0.4166666666666666    0.9741911600000001    0.9225729750000000 Ga
   0.7500000000000000    0.3075244933333333    0.4225729750000000 Ga
   0.7500000000000000    0.3075244933333333    0.9225729750000000 Ga
   0.7500000000000000    0.6408578266666667    0.4225729750000000 Ga
   0.7500000000000000    0.6408578266666667    0.9225729750000000 Ga
   0.7500000000000001    0.9741911600000001    0.4225729750000001 Ga
   0.7500000000000001    0.9741911600000001    0.9225729750000000 Ga
   0.2500000000000000    0.0258088400000000    0.0774270250000000 Ga
   0.2500000000000000    0.0258088400000000    0.5774270250000000 Ga
   0.2500000000000000    0.3591421733333333    0.0774270250000000 Ga
   0.2500000000000000    0.3591421733333333    0.5774270250000000 Ga
   0.2500000000000000    0.6924755066666667    0.0774270250000000 Ga
   0.2500000000000000    0.6924755066666667    0.5774270250000000 Ga
   0.5833333333333334    0.0258088400000000    0.0774270250000000 Ga
   0.5833333333333334    0.0258088400000000    0.5774270250000000 Ga
   0.5833333333333334    0.3591421733333333    0.0774270250000000 Ga
   0.5833333333333334    0.3591421733333333    0.5774270250000000 Ga
   0.5833333333333333    0.6924755066666667    0.0774270250000000 Ga
   0.5833333333333333    0.6924755066666667    0.5774270250000000 Ga
   0.9166666666666666    0.0258088400000000    0.0774270250000000 Ga
   0.9166666666666666    0.0258088400000000    0.5774270250000000 Ga
   0.9166666666666666    0.3591421733333333    0.0774270250000000 Ga
   0.9166666666666666    0.3591421733333333    0.5774270250000000 Ga
   0.9166666666666666    0.6924755066666667    0.0774270250000000 Ga
   0.9166666666666666    0.6924755066666667    0.5774270250000000 Ga
