Ga108
1.0
  13.1942375699999985    0.0000000000000000    0.0000000000000008
  -6.4948213932585368   11.4849972282197115    0.0000000000000008
   0.0000000000000000    0.0000000000000000   13.6665105900000015
Ga
108
direct
   0.0518985733333333    0.2814347600000000    0.3051337966666667 Ga
   0.0518985733333333    0.2814347600000000    0.6384671300000001 Ga
   0.0518985733333333    0.2814347600000000    0.9718004633333334 Ga
   0.0518985733333333    0.6147680933333333    0.3051337966666667 Ga
   0.0518985733333333    0.6147680933333333    0.6384671300000001 Ga
   0.0518985733333333    0.6147680933333333    0.9718004633333334 Ga
   0.0518985733333333    0.9481014266666666    0.3051337966666667 Ga
   0.0518985733333333    0.9481014266666666    0.6384671300000000 Ga
   0.0518985733333333    0.9481014266666666    0.9718004633333333 Ga
   0.3852319066666666    0.2814347600000000    0.3051337966666667 Ga
   0.3852319066666666    0.2814347600000000    0.6384671300000001 Ga
   0.3852319066666666    0.2814347600000000    0.9718004633333334 Ga
   0.3852319066666666    0.6147680933333333    0.3051337966666667 Ga
   0.3852319066666666    0.6147680933333333    0.6384671300000000 Ga
   0.3852319066666666    0.6147680933333333    0.9718004633333333 Ga
   0.3852319066666666    0.9481014266666666    0.3051337966666667 Ga
   0.3852319066666666    0.9481014266666666    0.6384671300000000 Ga
   0.3852319066666666    0.9481014266666666    0.9718004633333334 Ga
   0.7185652399999999    0.2814347600000000    0.3051337966666667 Ga
   0.7185652399999999    0.2814347600000000    0.6384671300000000 Ga
   0.7185652399999999    0.2814347600000000    0.9718004633333333 Ga
   0.7185652399999999    0.6147680933333333    0.3051337966666667 Ga
   0.7185652399999999    0.6147680933333333    0.6384671300000000 Ga
   0.7185652399999999    0.6147680933333333    0.9718004633333334 Ga
   0.7185652399999999    0.9481014266666666    0.3051337966666667 Ga
   0.7185652399999999    0.9481014266666666    0.6384671300000000 Ga
   0.7185652399999999    0.9481014266666666    0.9718004633333334 Ga
   0.1147680933333333    0.2185652400000000    0.1384671300000000 Ga
   0.1147680933333333    0.2185652400000000    0.4718004633333333 Ga
   0.1147680933333333    0.2185652400000000    0.8051337966666667 Ga
   0.1147680933333334    0.5518985733333334    0.1384671300000000 Ga
   0.1147680933333334    0.5518985733333334    0.4718004633333333 Ga
   0.1147680933333334    0.5518985733333334    0.8051337966666667 Ga
   0.1147680933333333    0.8852319066666666    0.1384671300000000 Ga
   0.1147680933333333    0.8852319066666666    0.4718004633333334 Ga
   0.1147680933333333    0.8852319066666666    0.8051337966666666 Ga
   0.4481014266666665    0.2185652400000000    0.1384671300000000 Ga
   0.4481014266666665    0.2185652400000000    0.4718004633333333 Ga
   0.4481014266666665    0.2185652400000000    0.8051337966666667 Ga
   0.4481014266666666    0.5518985733333334    0.1384671300000000 Ga
   0.4481014266666666    0.5518985733333334    0.4718004633333334 Ga
   0.4481014266666666    0.5518985733333334    0.8051337966666666 Ga
   0.4481014266666666    0.8852319066666666    0.1384671300000000 Ga
   0.4481014266666666    0.8852319066666666    0.4718004633333333 Ga
   0.4481014266666666    0.8852319066666666    0.8051337966666667 Ga
   0.7814347599999998    0.2185652400000000    0.1384671300000000 Ga
   0.7814347599999998    0.2185652400000000    0.4718004633333334 Ga
   0.7814347599999998    0.2185652400000000    0.8051337966666666 Ga
   0.7814347599999999    0.5518985733333334    0.1384671300000000 Ga
   0.7814347599999999    0.5518985733333334    0.4718004633333333 Ga
   0.7814347599999999    0.5518985733333334    0.8051337966666667 Ga
   0.7814347599999999    0.8852319066666666    0.1384671300000000 Ga
   0.7814347599999999    0.8852319066666666    0.4718004633333333 Ga
   0.7814347599999999    0.8852319066666666    0.8051337966666667 Ga
   0.2814347600000000    0.0518985733333333    0.0281995366666667 Ga
   0.2814347600000000    0.0518985733333333    0.3615328700000000 Ga
   0.2814347600000000    0.0518985733333333    0.6948662033333334 Ga
   0.2814347600000000    0.3852319066666667    0.0281995366666667 Ga
   0.2814347600000000    0.3852319066666667    0.3615328700000000 Ga
   0.2814347600000000    0.3852319066666667    0.6948662033333334 Ga
   0.2814347600000000    0.7185652400000000    0.0281995366666667 Ga
   0.2814347600000000    0.7185652400000000    0.3615328700000001 Ga
   0.2814347600000000    0.7185652400000000    0.6948662033333333 Ga
   0.6147680933333333    0.0518985733333333    0.0281995366666667 Ga
   0.6147680933333333    0.0518985733333333    0.3615328700000000 Ga
   0.6147680933333333    0.0518985733333333    0.6948662033333334 Ga
   0.6147680933333333    0.3852319066666667    0.0281995366666667 Ga
   0.6147680933333333    0.3852319066666667    0.3615328700000001 Ga
   0.6147680933333333    0.3852319066666667    0.6948662033333333 Ga
   0.6147680933333334    0.7185652400000000    0.0281995366666667 Ga
   0.6147680933333334    0.7185652400000000    0.3615328700000000 Ga
   0.6147680933333334    0.7185652400000000    0.6948662033333334 Ga
   0.9481014266666666    0.0518985733333333    0.0281995366666667 Ga
   0.9481014266666666    0.0518985733333333    0.3615328700000001 Ga
   0.9481014266666666    0.0518985733333333    0.6948662033333333 Ga
   0.9481014266666665    0.3852319066666667    0.0281995366666667 Ga
   0.9481014266666665    0.3852319066666667    0.3615328700000000 Ga
   0.9481014266666665    0.3852319066666667    0.6948662033333334 Ga
   0.9481014266666665    0.7185652400000000    0.0281995366666667 Ga
   0.9481014266666665    0.7185652400000000    0.3615328700000000 Ga
   0.9481014266666665    0.7185652400000000    0.6948662033333334 Ga
   0.2185652400000000    0.1147680933333333    0.1948662033333333 Ga
   0.2185652400000000    0.1147680933333333    0.5281995366666667 Ga
   0.2185652400000000    0.1147680933333333    0.8615328700000000 Ga
   0.2185652400000000    0.4481014266666666    0.1948662033333333 Ga
   0.2185652400000000    0.4481014266666666    0.5281995366666667 Ga
   0.2185652400000000    0.4481014266666666    0.8615328700000000 Ga
   0.2185652400000000    0.7814347600000000    0.1948662033333333 Ga
   0.2185652400000000    0.7814347600000000    0.5281995366666666 Ga
   0.2185652400000000    0.7814347600000000    0.8615328699999999 Ga
   0.5518985733333333    0.1147680933333333    0.1948662033333333 Ga
   0.5518985733333333    0.1147680933333333    0.5281995366666667 Ga
   0.5518985733333333    0.1147680933333333    0.8615328700000000 Ga
   0.5518985733333333    0.4481014266666666    0.1948662033333333 Ga
   0.5518985733333333    0.4481014266666666    0.5281995366666666 Ga
   0.5518985733333333    0.4481014266666666    0.8615328699999999 Ga
   0.5518985733333333    0.7814347600000000    0.1948662033333333 Ga
   0.5518985733333333    0.7814347600000000    0.5281995366666666 Ga
   0.5518985733333333    0.7814347600000000    0.8615328700000000 Ga
   0.8852319066666665    0.1147680933333333    0.1948662033333333 Ga
   0.8852319066666665    0.1147680933333333    0.5281995366666666 Ga
   0.8852319066666665    0.1147680933333333    0.8615328699999999 Ga
   0.8852319066666665    0.4481014266666666    0.1948662033333333 Ga
   0.8852319066666665    0.4481014266666666    0.5281995366666666 Ga
   0.8852319066666665    0.4481014266666666    0.8615328700000000 Ga
   0.8852319066666664    0.7814347600000000    0.1948662033333333 Ga
   0.8852319066666664    0.7814347600000000    0.5281995366666666 Ga
   0.8852319066666664    0.7814347600000000    0.8615328700000000 Ga
