Na27                                    
   1.00000000000000     
    10.3075830000000011    0.0000000000000000   -3.6442829999999997
    -5.1537929999999976    8.9266290000000001   -3.6442829999999997
     0.0000000000000000    0.0000000000000000   10.9328459999999996
   Na
    27
Direct
  0.4651239160880991  0.9478570309774585  0.1173730900932458
  0.2098970860937265  0.8326077738032875  0.2817872026087202
  0.8945890657758737  0.7993613377352952  0.5276958141525484
  0.2484517536204877  0.5914018153381952  0.8620487361583659
  0.8064898549439697  0.1731098367714245  0.2549233532518252
  0.1634368158375087  0.3186322234596711  0.4281669793742400
  0.8716988766284364  0.4371661698363793  0.9451803844338666
  0.2430398523719556  0.4880893475104116  0.2128623458434125
  0.3443862938073675  0.7296401304130984  0.6232832034170520
  0.2751840251679814  0.2662423209351215  0.9454152509662225
  0.9330372145925054  0.8788220758155322  0.2046972168326408
  0.3095544065518050  0.0799921269517945  0.5625861794085094
  0.9311913289921927  0.0690681812246375  0.9264703050001590
  0.3506867438602324  0.1791383218862313  0.2363566928443485
  0.5588794701661027  0.5232071193770670  0.4859880542957831
  0.5806964199096843  0.9525812987852934  0.5559941728892756
  0.5943206849164077  0.6740957005334713  0.1644515291264139
  0.6190472683237166  0.7892704312457564  0.8056319299863606
  0.2369476778935884  0.9068544361114068  0.8302310923896320
  0.6585562412131049  0.2843335959695530  0.5876985670308029
  0.9431072134019332  0.5720878115966379  0.2911474079515995
  0.5522210575745881  0.1272472253062528  0.9272926438548723
  0.6706816202751571  0.3755356995804729  0.2272245144238860
  0.9993881572627688  0.2459267758590296  0.6580987099142174
  0.5625295604955053  0.4940209430392157  0.8058707789308168
  0.9380686926161155  0.5296061659696072  0.5697139981521692
  0.0387887016191870  0.7341041039676923  0.9618098466690197
 
 -0.83157095E-02 -0.11831385E-02 -0.18042491E-02
  0.41638812E-04  0.14287932E-02 -0.17912986E-02
 -0.88331547E-02 -0.35427213E-02  0.21487766E-02
 -0.52179086E-02 -0.50865390E-02 -0.32102369E-02
  0.59343680E-02  0.24540198E-03 -0.12009990E-01
  0.81964769E-03  0.34375775E-02 -0.33939543E-02
  0.90361049E-03 -0.24721805E-02  0.10898623E-01
 -0.86953435E-04 -0.75788113E-02  0.47676995E-02
 -0.36435298E-02  0.92879955E-02  0.37632712E-03
  0.47802741E-02  0.64179517E-02 -0.20305329E-02
  0.45180884E-02 -0.24989956E-03 -0.43680292E-02
 -0.31680469E-02 -0.48586679E-02 -0.19852595E-02
  0.46403617E-02  0.77620661E-02 -0.20103262E-02
  0.38159236E-03  0.20666765E-02  0.11895603E-01
 -0.14521698E-02 -0.20960173E-02 -0.29724891E-02
  0.21567568E-05  0.81530494E-02 -0.28060862E-02
  0.48044434E-02  0.45261944E-02 -0.37777140E-03
  0.17365612E-03 -0.59466605E-02 -0.17157299E-02
 -0.44876112E-02  0.22256187E-02  0.20332481E-02
 -0.69502676E-03  0.27512334E-02  0.73486294E-02
  0.15697174E-03 -0.68516784E-02 -0.18026528E-03
 -0.95613658E-02  0.66507628E-03  0.15733669E-02
  0.61132146E-02 -0.23594490E-02  0.46284885E-02
  0.15244403E-02 -0.26512275E-02  0.19602021E-03
  0.31297170E-02  0.35154045E-02 -0.14279184E-02
  0.21284850E-02 -0.15094621E-02 -0.11210261E-01
  0.54088101E-02 -0.60965861E-02  0.74276162E-02
 
           1
   2.00000000000000     
  0.29871615E+01 -0.36273975E-01  0.60495557E-18  0.00000000E+00
  0.46337786E+00  0.94759195E+00  0.11637265E+00
  0.21006523E+00  0.83292789E+00  0.28162226E+00
  0.89247828E+00  0.79856760E+00  0.52712072E+00
  0.24686950E+00  0.59026218E+00  0.86055417E+00
  0.80766880E+00  0.17316482E+00  0.25313762E+00
  0.16398095E+00  0.31940241E+00  0.42798421E+00
  0.87159726E+00  0.43661228E+00  0.94695562E+00
  0.24217397E+00  0.48639132E+00  0.21287989E+00
  0.34471981E+00  0.73172109E+00  0.62415688E+00
  0.27683052E+00  0.26768025E+00  0.94607194E+00
  0.93388587E+00  0.87876609E+00  0.20416237E+00
  0.30839541E+00  0.78903549E-01  0.56147382E+00
  0.93296125E+00  0.70807262E-01  0.92727221E+00
  0.35099230E+00  0.17960136E+00  0.23878901E+00
  0.55836290E+00  0.52273751E+00  0.48511555E+00
  0.58161018E+00  0.95440798E+00  0.55639432E+00
  0.59575994E+00  0.67510979E+00  0.16520020E+00
  0.61841479E+00  0.78793809E+00  0.80466312E+00
  0.23632626E+00  0.90735308E+00  0.83056212E+00
  0.65872959E+00  0.28495001E+00  0.58930614E+00
  0.94237012E+00  0.57055270E+00  0.29035703E+00
  0.55044035E+00  0.12739623E+00  0.92703657E+00
  0.67160346E+00  0.37500707E+00  0.22820230E+00
  0.99938695E+00  0.24533277E+00  0.65793616E+00
  0.56353064E+00  0.49480856E+00  0.80620580E+00
  0.93831259E+00  0.52926797E+00  0.56763182E+00
  0.39155217E-01  0.73273817E+00  0.96283548E+00
 -0.17484330E-02 -0.25433691E-03 -0.10231808E-02
  0.13406079E-03  0.33939601E-03 -0.16419591E-03
 -0.21005910E-02 -0.82245459E-03 -0.58745468E-03
 -0.15856886E-02 -0.11268545E-02 -0.14900040E-02
  0.11555783E-02  0.69060176E-04 -0.17772360E-02
  0.52030267E-03  0.75724353E-03 -0.19603708E-03
 -0.99103945E-04 -0.52112297E-03  0.17639039E-02
 -0.85678341E-03 -0.17003963E-02  0.17340504E-04
  0.40121024E-03  0.20967741E-02  0.92239054E-03
  0.16217891E-02  0.14262319E-02  0.66144718E-03
  0.86088283E-03 -0.69424811E-04 -0.53033772E-03
 -0.11525387E-02 -0.11126762E-02 -0.11470336E-02
  0.17441757E-02  0.17130079E-02  0.78605882E-03
  0.33240404E-03  0.48196233E-03  0.24283557E-02
 -0.52697211E-03 -0.49109101E-03 -0.87657033E-03
  0.89491241E-03  0.18231001E-02  0.40209755E-03
  0.14385457E-02  0.10120875E-02  0.73904226E-03
 -0.67950435E-03 -0.13532070E-02 -0.10180780E-02
 -0.57754169E-03  0.50158390E-03  0.35384709E-03
  0.17732334E-03  0.62097525E-03  0.16220284E-02
 -0.79449936E-03 -0.15603475E-02 -0.79248527E-03
 -0.17910637E-02  0.14720863E-03 -0.21758569E-03
  0.98267229E-03 -0.52143514E-03  0.97421629E-03
  0.21409815E-04 -0.56249408E-03 -0.14463627E-03
  0.10076245E-02  0.80292564E-03  0.32525115E-03
  0.23168501E-03 -0.33067042E-03 -0.20929812E-02
  0.38814312E-03 -0.13650455E-02  0.10618373E-02
  0.00000000E+00  0.00000000E+00  0.00000000E+00
  0.00000000E+00  0.00000000E+00  0.00000000E+00
  0.00000000E+00  0.00000000E+00  0.00000000E+00
  0.00000000E+00  0.00000000E+00  0.00000000E+00
  0.00000000E+00  0.00000000E+00  0.00000000E+00
  0.00000000E+00  0.00000000E+00  0.00000000E+00
  0.00000000E+00  0.00000000E+00  0.00000000E+00
  0.00000000E+00  0.00000000E+00  0.00000000E+00
  0.00000000E+00  0.00000000E+00  0.00000000E+00
  0.00000000E+00  0.00000000E+00  0.00000000E+00
  0.00000000E+00  0.00000000E+00  0.00000000E+00
  0.00000000E+00  0.00000000E+00  0.00000000E+00
  0.00000000E+00  0.00000000E+00  0.00000000E+00
  0.00000000E+00  0.00000000E+00  0.00000000E+00
  0.00000000E+00  0.00000000E+00  0.00000000E+00
  0.00000000E+00  0.00000000E+00  0.00000000E+00
  0.00000000E+00  0.00000000E+00  0.00000000E+00
  0.00000000E+00  0.00000000E+00  0.00000000E+00
  0.00000000E+00  0.00000000E+00  0.00000000E+00
  0.00000000E+00  0.00000000E+00  0.00000000E+00
  0.00000000E+00  0.00000000E+00  0.00000000E+00
  0.00000000E+00  0.00000000E+00  0.00000000E+00
  0.00000000E+00  0.00000000E+00  0.00000000E+00
  0.00000000E+00  0.00000000E+00  0.00000000E+00
  0.00000000E+00  0.00000000E+00  0.00000000E+00
  0.00000000E+00  0.00000000E+00  0.00000000E+00
  0.00000000E+00  0.00000000E+00  0.00000000E+00
