       N       E                     dE             d eps       ncg     rms          rms(c)
DAV:   1     0.175143466437E+04    0.17514E+04   -0.98207E+04  2328   0.145E+03
DAV:   2     0.970305139334E+02   -0.16544E+04   -0.16273E+04  2048   0.417E+02
DAV:   3    -0.282309081353E+02   -0.12526E+03   -0.12205E+03  2320   0.144E+02
DAV:   4    -0.323324308610E+02   -0.41015E+01   -0.40553E+01  2256   0.232E+01
DAV:   5    -0.324290819377E+02   -0.96651E-01   -0.96631E-01  2224   0.377E+00    0.228E+01
RMM:   6    -0.343378401922E+02   -0.19088E+01   -0.26673E+00  2125   0.941E+00    0.920E+00
RMM:   7    -0.355606049603E+02   -0.12228E+01   -0.66058E-01  2048   0.374E+00    0.144E+00
RMM:   8    -0.358501563563E+02   -0.28955E+00   -0.12842E-01  1965   0.786E-01    0.583E-01
RMM:   9    -0.358787829009E+02   -0.28627E-01   -0.52902E-02  1612   0.461E-01    0.201E-01
RMM:  10    -0.358835329556E+02   -0.47501E-02   -0.38321E-03  1400   0.265E-01    0.802E-02
RMM:  11    -0.358849648621E+02   -0.14319E-02   -0.18309E-03  1400   0.137E-01    0.449E-02
RMM:  12    -0.358851506744E+02   -0.18581E-03   -0.35985E-04  1162   0.745E-02
      1 T=   800. E= -.33196523E+02 F= -.35885151E+02 E0= -.35812112E+02  EK= 0.26886E+01 SP= 0.00E+00 SK= 0.13E-13 mag=      0.754
       N       E                     dE             d eps       ncg     rms          rms(c)
DAV:   1    -0.358225538576E+02    0.62411E-01   -0.34909E+01  2416   0.176E+01    0.288E-01
RMM:   2    -0.358666927329E+02   -0.44139E-01   -0.45758E-01  2124   0.268E+00    0.144E-01
RMM:   3    -0.358780575990E+02   -0.11365E-01   -0.12041E-01  2221   0.159E+00    0.591E-02
RMM:   4    -0.358827292556E+02   -0.46717E-02   -0.46596E-02  2454   0.811E-01    0.124E-01
RMM:   5    -0.358828099010E+02   -0.80645E-04   -0.96349E-04  1127   0.123E-01
      2 T=   798. E= -.33201089E+02 F= -.35882810E+02 E0= -.35808141E+02  EK= 0.26817E+01 SP= 0.84E-07 SK= 0.55E-07 mag=      0.622
       N       E                     dE             d eps       ncg     rms          rms(c)
DAV:   1    -0.358734315392E+02    0.92977E-02   -0.27097E-01  1912   0.297E+00    0.250E-01
RMM:   2    -0.358736191669E+02   -0.18763E-03   -0.70529E-03  1904   0.439E-01
      3 T=   792. E= -.33213349E+02 F= -.35873619E+02 E0= -.35798094E+02  EK= 0.26604E+01 SP= -.17E-03 SK= 0.20E-05 mag=      0.380
       N       E                     dE             d eps       ncg     rms          rms(c)
DAV:   1    -0.358609404556E+02    0.12491E-01   -0.31407E-02  2664   0.134E+00    0.423E-01
RMM:   2    -0.358593047281E+02    0.16357E-02   -0.47457E-03  1713   0.368E-01    0.246E-01
RMM:   3    -0.358583813279E+02    0.92340E-03   -0.39076E-03  1353   0.224E-01
      4 T=   784. E= -.33224276E+02 F= -.35858381E+02 E0= -.35781954E+02  EK= 0.26351E+01 SP= -.10E-02 SK= 0.18E-04 mag=      0.033
       N       E                     dE             d eps       ncg     rms          rms(c)
DAV:   1    -0.358368826387E+02    0.22422E-01   -0.56874E-02  2160   0.150E+00    0.178E-01
RMM:   2    -0.358371053992E+02   -0.22276E-03   -0.39304E-03  1605   0.316E-01
      5 T=   777. E= -.33227887E+02 F= -.35837105E+02 E0= -.35762043E+02  EK= 0.26124E+01 SP= -.32E-02 SK= 0.74E-04 mag=     -0.314
       N       E                     dE             d eps       ncg     rms          rms(c)
DAV:   1    -0.358086770560E+02    0.28206E-01   -0.34082E-02  2640   0.125E+00    0.105E-01
RMM:   2    -0.358093903923E+02   -0.71334E-03   -0.35114E-03  1517   0.309E-01
      6 T=   769. E= -.33230795E+02 F= -.35809390E+02 E0= -.35736606E+02  EK= 0.25857E+01 SP= -.73E-02 SK= 0.21E-03 mag=     -0.578
       N       E                     dE             d eps       ncg     rms          rms(c)
DAV:   1    -0.357756654080E+02    0.33012E-01   -0.18472E-02  2240   0.112E+00    0.123E-01
RMM:   2    -0.357764523315E+02   -0.78692E-03   -0.35454E-03  1523   0.305E-01
      7 T=   761. E= -.33232946E+02 F= -.35776452E+02 E0= -.35705101E+02  EK= 0.25569E+01 SP= -.14E-01 SK= 0.51E-03 mag=     -0.638
       N       E                     dE             d eps       ncg     rms          rms(c)
DAV:   1    -0.357382443227E+02    0.37421E-01   -0.29475E-02  2864   0.125E+00    0.761E-02
RMM:   2    -0.357390055719E+02   -0.76125E-03   -0.38367E-03  1569   0.284E-01
      8 T=   752. E= -.33232866E+02 F= -.35739006E+02 E0= -.35666761E+02  EK= 0.25288E+01 SP= -.24E-01 SK= 0.11E-02 mag=     -0.390
       N       E                     dE             d eps       ncg     rms          rms(c)
DAV:   1    -0.356955853818E+02    0.42659E-01   -0.15883E-02  2536   0.102E+00    0.101E-01
RMM:   2    -0.356962867514E+02   -0.70137E-03   -0.41642E-03  1570   0.297E-01
      9 T=   744. E= -.33231229E+02 F= -.35696287E+02 E0= -.35624290E+02  EK= 0.25007E+01 SP= -.38E-01 SK= 0.20E-02 mag=      0.162
       N       E                     dE             d eps       ncg     rms          rms(c)
DAV:   1    -0.356445427599E+02    0.51043E-01   -0.22205E-02  2744   0.112E+00    0.914E-02
RMM:   2    -0.356457798359E+02   -0.12371E-02   -0.34615E-03  1534   0.266E-01
     10 T=   736. E= -.33226530E+02 F= -.35645780E+02 E0= -.35579673E+02  EK= 0.24719E+01 SP= -.56E-01 SK= 0.34E-02 mag=      0.865
       N       E                     dE             d eps       ncg     rms          rms(c)
DAV:   1    -0.355841961075E+02    0.60347E-01   -0.17066E-02  2800   0.105E+00    0.154E-01
RMM:   2    -0.355878360419E+02   -0.36399E-02   -0.48925E-03  1499   0.283E-01    0.122E-01
RMM:   3    -0.355907051174E+02   -0.28691E-02   -0.22413E-03  1405   0.128E-01    0.858E-02
RMM:   4    -0.355932107381E+02   -0.25056E-02   -0.24931E-03  1417   0.124E-01    0.520E-02
RMM:   5    -0.355943301849E+02   -0.11194E-02   -0.13110E-03  1399   0.884E-02
     11 T=   726. E= -.33227148E+02 F= -.35594330E+02 E0= -.35526016E+02  EK= 0.24415E+01 SP= -.80E-01 SK= 0.54E-02 mag=      0.268
       N       E                     dE             d eps       ncg     rms          rms(c)
DAV:   1    -0.355263079537E+02    0.66903E-01   -0.16256E-02  2616   0.104E+00    0.171E-01
RMM:   2    -0.355296741294E+02   -0.33662E-02   -0.31816E-03  1527   0.252E-01    0.132E-01
RMM:   3    -0.355323679815E+02   -0.26939E-02   -0.12716E-03  1371   0.110E-01    0.907E-02
RMM:   4    -0.355341613965E+02   -0.17934E-02   -0.10151E-03  1333   0.845E-02    0.725E-02
RMM:   5    -0.355359597955E+02   -0.17984E-02   -0.18915E-03  1400   0.914E-02    0.408E-02
RMM:   6    -0.355364812569E+02   -0.52146E-03   -0.38186E-04  1187   0.582E-02
     12 T=   717. E= -.33226632E+02 F= -.35536481E+02 E0= -.35469030E+02  EK= 0.24112E+01 SP= -.11E+00 SK= 0.84E-02 mag=     -0.177
       N       E                     dE             d eps       ncg     rms          rms(c)
DAV:   1    -0.354725869330E+02    0.63373E-01   -0.24901E-02  2600   0.101E+00    0.739E-02
RMM:   2    -0.354734280694E+02   -0.84114E-03   -0.40683E-03  1525   0.265E-01
     13 T=   709. E= -.33223687E+02 F= -.35473428E+02 E0= -.35407889E+02  EK= 0.23838E+01 SP= -.15E+00 SK= 0.12E-01 mag=     -0.384
       N       E                     dE             d eps       ncg     rms          rms(c)
DAV:   1    -0.354058378253E+02    0.66749E-01   -0.19006E-02  2640   0.997E-01    0.635E-02
RMM:   2    -0.354066415216E+02   -0.80370E-03   -0.34457E-03  1540   0.243E-01
     14 T=   702. E= -.33221938E+02 F= -.35406642E+02 E0= -.35341985E+02  EK= 0.23578E+01 SP= -.19E+00 SK= 0.18E-01 mag=     -0.277
       N       E                     dE             d eps       ncg     rms          rms(c)
DAV:   1    -0.353350050881E+02    0.70833E-01   -0.13735E-02  2640   0.997E-01    0.426E-02
RMM:   2    -0.353356093018E+02   -0.60421E-03   -0.30850E-03  1532   0.254E-01
     15 T=   694. E= -.33221128E+02 F= -.35335609E+02 E0= -.35271906E+02  EK= 0.23333E+01 SP= -.24E+00 SK= 0.24E-01 mag=      0.124
       N       E                     dE             d eps       ncg     rms          rms(c)
DAV:   1    -0.352563435785E+02    0.78662E-01   -0.13896E-02  2336   0.102E+00    0.811E-02
RMM:   2    -0.352577534617E+02   -0.14099E-02   -0.42743E-03  1509   0.257E-01    0.672E-02
RMM:   3    -0.352584388356E+02   -0.68537E-03   -0.14033E-03  1355   0.106E-01
     16 T=   688. E= -.33217162E+02 F= -.35258439E+02 E0= -.35198401E+02  EK= 0.23130E+01 SP= -.30E+00 SK= 0.33E-01 mag=      0.493
       N       E                     dE             d eps       ncg     rms          rms(c)
DAV:   1    -0.351774804650E+02    0.80273E-01   -0.12082E-02  2512   0.926E-01    0.968E-02
RMM:   2    -0.351785672945E+02   -0.10868E-02   -0.24354E-03  1416   0.226E-01
     17 T=   684. E= -.33211364E+02 F= -.35178567E+02 E0= -.35120520E+02  EK= 0.22993E+01 SP= -.37E+00 SK= 0.43E-01 mag=      0.620
       N       E                     dE             d eps       ncg     rms          rms(c)
DAV:   1    -0.350958892137E+02    0.81591E-01   -0.13407E-02  2168   0.101E+00    0.597E-02
RMM:   2    -0.350967934919E+02   -0.90428E-03   -0.32559E-03  1554   0.219E-01
     18 T=   681. E= -.33207858E+02 F= -.35096793E+02 E0= -.35038564E+02  EK= 0.22894E+01 SP= -.45E+00 SK= 0.54E-01 mag=      0.370
       N       E                     dE             d eps       ncg     rms          rms(c)
DAV:   1    -0.350097114647E+02    0.86178E-01   -0.10024E-02  2392   0.908E-01    0.454E-02
RMM:   2    -0.350103454355E+02   -0.63397E-03   -0.33284E-03  1567   0.252E-01
     19 T=   679. E= -.33205444E+02 F= -.35010345E+02 E0= -.34952953E+02  EK= 0.22818E+01 SP= -.54E+00 SK= 0.68E-01 mag=     -0.211
       N       E                     dE             d eps       ncg     rms          rms(c)
DAV:   1    -0.349126465629E+02    0.97065E-01   -0.20155E-02  2856   0.102E+00    0.128E-01
RMM:   2    -0.349152470191E+02   -0.26005E-02   -0.43621E-03  1537   0.248E-01    0.990E-02
RMM:   3    -0.349170175497E+02   -0.17705E-02   -0.16361E-03  1431   0.108E-01    0.816E-02
RMM:   4    -0.349189021201E+02   -0.18846E-02   -0.14605E-03  1390   0.822E-02    0.517E-02
RMM:   5    -0.349202973608E+02   -0.13952E-02   -0.28063E-03  1431   0.969E-02    0.133E-02
RMM:   6    -0.349203169061E+02   -0.19545E-04   -0.19213E-04  1169   0.494E-02
     20 T=   678. E= -.33203655E+02 F= -.34920317E+02 E0= -.34864213E+02  EK= 0.22784E+01 SP= -.64E+00 SK= 0.83E-01 mag=     -0.015
       N       E                     dE             d eps       ncg     rms          rms(c)
DAV:   1    -0.348206603494E+02    0.99637E-01   -0.11916E-02  2344   0.914E-01    0.120E-01
RMM:   2    -0.348227324269E+02   -0.20721E-02   -0.32810E-03  1463   0.221E-01    0.906E-02
RMM:   3    -0.348240575561E+02   -0.13251E-02   -0.12031E-03  1393   0.949E-02
     21 T=   678. E= -.33199219E+02 F= -.34824058E+02 E0= -.34771437E+02  EK= 0.22799E+01 SP= -.75E+00 SK= 0.10E+00 mag=      0.389
       N       E                     dE             d eps       ncg     rms          rms(c)
DAV:   1    -0.347232187029E+02    0.99514E-01   -0.24107E-02  2448   0.947E-01    0.121E-01
RMM:   2    -0.347254715856E+02   -0.22529E-02   -0.40709E-03  1563   0.270E-01    0.929E-02
RMM:   3    -0.347272956984E+02   -0.18241E-02   -0.15897E-03  1449   0.121E-01    0.742E-02
RMM:   4    -0.347295638384E+02   -0.22681E-02   -0.36386E-03  1473   0.123E-01    0.266E-02
RMM:   5    -0.347297265359E+02   -0.16270E-03   -0.38104E-04  1261   0.634E-02
     22 T=   681. E= -.33199570E+02 F= -.34729727E+02 E0= -.34676486E+02  EK= 0.22874E+01 SP= -.88E+00 SK= 0.12E+00 mag=      0.071
       N       E                     dE             d eps       ncg     rms          rms(c)
DAV:   1    -0.346230387878E+02    0.10653E+00   -0.17942E-02  2344   0.940E-01    0.120E-01
RMM:   2    -0.346252955655E+02   -0.22568E-02   -0.44430E-03  1494   0.228E-01    0.943E-02
RMM:   3    -0.346274351733E+02   -0.21396E-02   -0.21855E-03  1410   0.124E-01    0.705E-02
RMM:   4    -0.346284458417E+02   -0.10107E-02   -0.69304E-04  1278   0.757E-02
     23 T=   684. E= -.33196924E+02 F= -.34628446E+02 E0= -.34577502E+02  EK= 0.22998E+01 SP= -.10E+01 SK= 0.14E+00 mag=     -0.121
       N       E                     dE             d eps       ncg     rms          rms(c)
DAV:   1    -0.345257423034E+02    0.10169E+00   -0.18308E-02  2392   0.963E-01    0.523E-02
RMM:   2    -0.345263115829E+02   -0.56928E-03   -0.32068E-03  1535   0.252E-01
     24 T=   690. E= -.33194159E+02 F= -.34526312E+02 E0= -.34475848E+02  EK= 0.23204E+01 SP= -.11E+01 SK= 0.16E+00 mag=     -0.128
       N       E                     dE             d eps       ncg     rms          rms(c)
DAV:   1    -0.344201274903E+02    0.10561E+00   -0.21313E-02  2648   0.964E-01    0.291E-02
RMM:   2    -0.344207730474E+02   -0.64556E-03   -0.38763E-03  1543   0.254E-01
     25 T=   699. E= -.33190507E+02 F= -.34420773E+02 E0= -.34371434E+02  EK= 0.23477E+01 SP= -.13E+01 SK= 0.18E+00 mag=      0.046
       N       E                     dE             d eps       ncg     rms          rms(c)
DAV:   1    -0.343110925058E+02    0.10903E+00   -0.97373E-03  2440   0.949E-01    0.639E-02
RMM:   2    -0.343120464492E+02   -0.95394E-03   -0.39113E-03  1557   0.262E-01
     26 T=   708. E= -.33187158E+02 F= -.34312046E+02 E0= -.34264205E+02  EK= 0.23806E+01 SP= -.15E+01 SK= 0.20E+00 mag=      0.252
       N       E                     dE             d eps       ncg     rms          rms(c)
DAV:   1    -0.341999386136E+02    0.11115E+00   -0.13764E-02  2400   0.100E+00    0.731E-02
RMM:   2    -0.342011520975E+02   -0.12135E-02   -0.37183E-03  1518   0.246E-01
     27 T=   720. E= -.33182995E+02 F= -.34201152E+02 E0= -.34154737E+02  EK= 0.24210E+01 SP= -.16E+01 SK= 0.21E+00 mag=      0.355
       N       E                     dE             d eps       ncg     rms          rms(c)
DAV:   1    -0.340886455117E+02    0.11129E+00   -0.11263E-02  2288   0.969E-01    0.593E-02
RMM:   2    -0.340896620429E+02   -0.10165E-02   -0.32166E-03  1531   0.254E-01
     28 T=   735. E= -.33179166E+02 F= -.34089662E+02 E0= -.34043992E+02  EK= 0.24693E+01 SP= -.18E+01 SK= 0.23E+00 mag=      0.242
       N       E                     dE             d eps       ncg     rms          rms(c)
DAV:   1    -0.339759945445E+02    0.11265E+00   -0.10719E-02  2432   0.101E+00    0.429E-02
RMM:   2    -0.339766965261E+02   -0.70198E-03   -0.37532E-03  1548   0.261E-01
     29 T=   751. E= -.33174920E+02 F= -.33976697E+02 E0= -.33931617E+02  EK= 0.25247E+01 SP= -.20E+01 SK= 0.24E+00 mag=     -0.062
       N       E                     dE             d eps       ncg     rms          rms(c)
DAV:   1    -0.338582603344E+02    0.11773E+00   -0.14572E-02  2344   0.102E+00    0.782E-02
RMM:   2    -0.338599057619E+02   -0.16454E-02   -0.46161E-03  1517   0.276E-01    0.627E-02
RMM:   3    -0.338608344528E+02   -0.92869E-03   -0.16048E-03  1418   0.113E-01
     30 T=   769. E= -.33170170E+02 F= -.33860834E+02 E0= -.33817144E+02  EK= 0.25855E+01 SP= -.21E+01 SK= 0.25E+00 mag=     -0.173
       N       E                     dE             d eps       ncg     rms          rms(c)
DAV:   1    -0.337452627883E+02    0.11464E+00   -0.15247E-02  2376   0.968E-01    0.432E-02
RMM:   2    -0.337459352039E+02   -0.67242E-03   -0.27680E-03  1557   0.245E-01
     31 T=   790. E= -.33165300E+02 F= -.33745935E+02 E0= -.33702761E+02  EK= 0.26541E+01 SP= -.23E+01 SK= 0.25E+00 mag=     -0.059
       N       E                     dE             d eps       ncg     rms          rms(c)
DAV:   1    -0.336286489977E+02    0.11661E+00   -0.22017E-02  2728   0.111E+00    0.487E-02
RMM:   2    -0.336295953408E+02   -0.94634E-03   -0.37449E-03  1570   0.232E-01
     32 T=   812. E= -.33159976E+02 F= -.33629595E+02 E0= -.33587258E+02  EK= 0.27275E+01 SP= -.25E+01 SK= 0.25E+00 mag=      0.160
       N       E                     dE             d eps       ncg     rms          rms(c)
DAV:   1    -0.335107850270E+02    0.11786E+00   -0.88249E-03  1880   0.977E-01    0.766E-02
RMM:   2    -0.335123297554E+02   -0.15447E-02   -0.47166E-03  1566   0.281E-01    0.565E-02
RMM:   3    -0.335134057824E+02   -0.10760E-02   -0.22182E-03  1399   0.128E-01
     33 T=   834. E= -.33157248E+02 F= -.33513406E+02 E0= -.33472013E+02  EK= 0.28024E+01 SP= -.27E+01 SK= 0.25E+00 mag=      0.124
       N       E                     dE             d eps       ncg     rms          rms(c)
DAV:   1    -0.333976550202E+02    0.11467E+00   -0.18602E-02  2512   0.109E+00    0.471E-02
RMM:   2    -0.333984896205E+02   -0.83460E-03   -0.28160E-03  1465   0.247E-01
     34 T=   858. E= -.33152382E+02 F= -.33398490E+02 E0= -.33357619E+02  EK= 0.28831E+01 SP= -.29E+01 SK= 0.24E+00 mag=     -0.093
       N       E                     dE             d eps       ncg     rms          rms(c)
DAV:   1    -0.332815152466E+02    0.11614E+00   -0.22384E-02  2848   0.114E+00    0.768E-02
RMM:   2    -0.332832027683E+02   -0.16875E-02   -0.44666E-03  1549   0.238E-01    0.594E-02
RMM:   3    -0.332840680279E+02   -0.86526E-03   -0.12197E-03  1400   0.101E-01
     35 T=   882. E= -.33148175E+02 F= -.33284068E+02 E0= -.33244070E+02  EK= 0.29639E+01 SP= -.31E+01 SK= 0.22E+00 mag=     -0.115
       N       E                     dE             d eps       ncg     rms          rms(c)
DAV:   1    -0.331715488403E+02    0.11165E+00   -0.14485E-02  2384   0.103E+00    0.585E-02
RMM:   2    -0.331725439740E+02   -0.99513E-03   -0.29843E-03  1578   0.251E-01
     36 T=   906. E= -.33143968E+02 F= -.33172544E+02 E0= -.33132989E+02  EK= 0.30453E+01 SP= -.32E+01 SK= 0.20E+00 mag=      0.033
       N       E                     dE             d eps       ncg     rms          rms(c)
DAV:   1    -0.330608353003E+02    0.11071E+00   -0.27499E-02  2888   0.119E+00    0.740E-02
RMM:   2    -0.330623405948E+02   -0.15053E-02   -0.44289E-03  1603   0.248E-01    0.511E-02
RMM:   3    -0.330631940026E+02   -0.85341E-03   -0.15310E-03  1437   0.109E-01
     37 T=   930. E= -.33139358E+02 F= -.33063194E+02 E0= -.33024282E+02  EK= 0.31241E+01 SP= -.34E+01 SK= 0.18E+00 mag=      0.048
       N       E                     dE             d eps       ncg     rms          rms(c)
DAV:   1    -0.329549255443E+02    0.10742E+00   -0.13052E-02  1984   0.106E+00    0.760E-02
RMM:   2    -0.329563331392E+02   -0.14076E-02   -0.35733E-03  1580   0.277E-01    0.508E-02
RMM:   3    -0.329568163751E+02   -0.48324E-03   -0.12050E-03  1347   0.114E-01
     38 T=   951. E= -.33136214E+02 F= -.32956816E+02 E0= -.32918450E+02  EK= 0.31964E+01 SP= -.35E+01 SK= 0.15E+00 mag=      0.018
       N       E                     dE             d eps       ncg     rms          rms(c)
DAV:   1    -0.328532892850E+02    0.10304E+00   -0.24543E-02  2712   0.114E+00    0.467E-02
RMM:   2    -0.328541282277E+02   -0.83894E-03   -0.31957E-03  1556   0.252E-01
     39 T=   971. E= -.33130718E+02 F= -.32854128E+02 E0= -.32816296E+02  EK= 0.32635E+01 SP= -.37E+01 SK= 0.13E+00 mag=     -0.042
       N       E                     dE             d eps       ncg     rms          rms(c)
DAV:   1    -0.327543857505E+02    0.98904E-01   -0.17414E-02  2656   0.120E+00    0.420E-02
RMM:   2    -0.327554953337E+02   -0.11096E-02   -0.44672E-03  1602   0.267E-01
     40 T=   987. E= -.33127582E+02 F= -.32755495E+02 E0= -.32718259E+02  EK= 0.33182E+01 SP= -.38E+01 SK= 0.10E+00 mag=     -0.089
       N       E                     dE             d eps       ncg     rms          rms(c)
DAV:   1    -0.326605648776E+02    0.93821E-01   -0.15950E-02  2192   0.116E+00    0.423E-02
RMM:   2    -0.326618163128E+02   -0.12514E-02   -0.46838E-03  1606   0.309E-01
     41 T=  1000. E= -.33123077E+02 F= -.32661816E+02 E0= -.32625080E+02  EK= 0.33621E+01 SP= -.39E+01 SK= 0.74E-01 mag=     -0.074
       N       E                     dE             d eps       ncg     rms          rms(c)
DAV:   1    -0.325724374424E+02    0.88127E-01   -0.27766E-02  2776   0.128E+00    0.367E-02
RMM:   2    -0.325735833619E+02   -0.11459E-02   -0.47427E-03  1609   0.305E-01
     42 T=  1010. E= -.33117283E+02 F= -.32573583E+02 E0= -.32537268E+02  EK= 0.33934E+01 SP= -.40E+01 SK= 0.51E-01 mag=      0.006
       N       E                     dE             d eps       ncg     rms          rms(c)
DAV:   1    -0.324894385746E+02    0.82999E-01   -0.15751E-02  2344   0.115E+00    0.359E-02
RMM:   2    -0.324907458426E+02   -0.13073E-02   -0.51914E-03  1612   0.309E-01
     43 T=  1014. E= -.33112502E+02 F= -.32490746E+02 E0= -.32454929E+02  EK= 0.34078E+01 SP= -.41E+01 SK= 0.31E-01 mag=      0.090
       N       E                     dE             d eps       ncg     rms          rms(c)
DAV:   1    -0.324124529666E+02    0.76986E-01   -0.22872E-02  2680   0.124E+00    0.485E-02
RMM:   2    -0.324138556368E+02   -0.14027E-02   -0.50387E-03  1620   0.295E-01    0.342E-02
RMM:   3    -0.324142152873E+02   -0.35965E-03   -0.12165E-03  1412   0.116E-01
     44 T=  1013. E= -.33108439E+02 F= -.32414215E+02 E0= -.32378851E+02  EK= 0.34056E+01 SP= -.41E+01 SK= 0.16E-01 mag=      0.051
       N       E                     dE             d eps       ncg     rms          rms(c)
DAV:   1    -0.323424640766E+02    0.71392E-01   -0.18285E-02  2384   0.116E+00    0.403E-02
RMM:   2    -0.323435253848E+02   -0.10613E-02   -0.31376E-03  1498   0.265E-01
     45 T=  1009. E= -.33101672E+02 F= -.32343525E+02 E0= -.32308531E+02  EK= 0.33895E+01 SP= -.42E+01 SK= 0.64E-02 mag=     -0.065
       N       E                     dE             d eps       ncg     rms          rms(c)
DAV:   1    -0.322770525385E+02    0.65412E-01   -0.27257E-02  3080   0.130E+00    0.585E-02
RMM:   2    -0.322784675084E+02   -0.14150E-02   -0.42890E-03  1576   0.253E-01    0.423E-02
RMM:   3    -0.322789497224E+02   -0.48221E-03   -0.10004E-03  1317   0.101E-01
     46 T=   999. E= -.33095879E+02 F= -.32278950E+02 E0= -.32244416E+02  EK= 0.33564E+01 SP= -.42E+01 SK= 0.11E-02 mag=     -0.056
       N       E                     dE             d eps       ncg     rms          rms(c)
DAV:   1    -0.322197452333E+02    0.58722E-01   -0.13238E-02  2280   0.112E+00    0.506E-02
RMM:   2    -0.322208456709E+02   -0.11004E-02   -0.32458E-03  1537   0.261E-01
     47 T=   984. E= -.33090971E+02 F= -.32220846E+02 E0= -.32186636E+02  EK= 0.33082E+01 SP= -.42E+01 SK= 0.10E-03 mag=      0.048
       N       E                     dE             d eps       ncg     rms          rms(c)
DAV:   1    -0.321667924132E+02    0.52953E-01   -0.28369E-02  3032   0.128E+00    0.596E-02
RMM:   2    -0.321681635141E+02   -0.13711E-02   -0.42677E-03  1566   0.254E-01    0.424E-02
RMM:   3    -0.321687275383E+02   -0.56402E-03   -0.12070E-03  1443   0.104E-01
     48 T=   966. E= -.33085793E+02 F= -.32168728E+02 E0= -.32134906E+02  EK= 0.32476E+01 SP= -.42E+01 SK= 0.25E-02 mag=      0.051
       N       E                     dE             d eps       ncg     rms          rms(c)
DAV:   1    -0.321219268959E+02    0.46237E-01   -0.10562E-02  2208   0.109E+00    0.578E-02
RMM:   2    -0.321229852795E+02   -0.10584E-02   -0.33572E-03  1551   0.276E-01
     49 T=   946. E= -.33080091E+02 F= -.32122985E+02 E0= -.32089465E+02  EK= 0.31777E+01 SP= -.41E+01 SK= 0.73E-02 mag=     -0.024
       N       E                     dE             d eps       ncg     rms          rms(c)
DAV:   1    -0.320814139695E+02    0.40513E-01   -0.26495E-02  3088   0.127E+00    0.608E-02
RMM:   2    -0.320825890662E+02   -0.11751E-02   -0.36688E-03  1536   0.233E-01
     50 T=   922. E= -.33073969E+02 F= -.32082589E+02 E0= -.32049410E+02  EK= 0.31002E+01 SP= -.41E+01 SK= 0.13E-01 mag=     -0.097
       N       E                     dE             d eps       ncg     rms          rms(c)
DAV:   1    -0.320471792761E+02    0.34235E-01   -0.92778E-03  2008   0.107E+00    0.462E-02
RMM:   2    -0.320483531644E+02   -0.11739E-02   -0.43816E-03  1549   0.305E-01
     51 T=   897. E= -.33070474E+02 F= -.32048353E+02 E0= -.32015484E+02  EK= 0.30157E+01 SP= -.41E+01 SK= 0.20E-01 mag=     -0.091
       N       E                     dE             d eps       ncg     rms          rms(c)
DAV:   1    -0.320188790158E+02    0.28300E-01   -0.21110E-02  2904   0.124E+00    0.403E-02
RMM:   2    -0.320198734957E+02   -0.99448E-03   -0.45072E-03  1569   0.279E-01
     52 T=   872. E= -.33066683E+02 F= -.32019873E+02 E0= -.31987255E+02  EK= 0.29299E+01 SP= -.40E+01 SK= 0.26E-01 mag=     -0.007
       N       E                     dE             d eps       ncg     rms          rms(c)
DAV:   1    -0.319946843892E+02    0.24195E-01   -0.13968E-02  2392   0.107E+00    0.501E-02
RMM:   2    -0.319959486154E+02   -0.12642E-02   -0.47496E-03  1546   0.308E-01
     53 T=   847. E= -.33061543E+02 F= -.31995949E+02 E0= -.31963602E+02  EK= 0.28453E+01 SP= -.39E+01 SK= 0.30E-01 mag=      0.080
       N       E                     dE             d eps       ncg     rms          rms(c)
DAV:   1    -0.319766174188E+02    0.18067E-01   -0.17502E-02  2808   0.117E+00    0.502E-02
RMM:   2    -0.319776827060E+02   -0.10653E-02   -0.41226E-03  1537   0.270E-01
     54 T=   823. E= -.33056141E+02 F= -.31977683E+02 E0= -.31945604E+02  EK= 0.27645E+01 SP= -.39E+01 SK= 0.33E-01 mag=      0.099
       N       E                     dE             d eps       ncg     rms          rms(c)
DAV:   1    -0.319635404082E+02    0.13077E-01   -0.10596E-02  2288   0.104E+00    0.355E-02
RMM:   2    -0.319645010453E+02   -0.96064E-03   -0.42882E-03  1539   0.296E-01
     55 T=   800. E= -.33051972E+02 F= -.31964501E+02 E0= -.31932598E+02  EK= 0.26876E+01 SP= -.38E+01 SK= 0.34E-01 mag=      0.032
       N       E                     dE             d eps       ncg     rms          rms(c)
DAV:   1    -0.319543791297E+02    0.91613E-02   -0.13462E-02  2816   0.112E+00    0.513E-02
RMM:   2    -0.319554433630E+02   -0.10642E-02   -0.41988E-03  1527   0.269E-01
     56 T=   779. E= -.33047584E+02 F= -.31955443E+02 E0= -.31923737E+02  EK= 0.26168E+01 SP= -.37E+01 SK= 0.33E-01 mag=     -0.066
       N       E                     dE             d eps       ncg     rms          rms(c)
DAV:   1    -0.319498053836E+02    0.45737E-02   -0.99395E-03  2440   0.103E+00    0.504E-02
RMM:   2    -0.319509004140E+02   -0.10950E-02   -0.42759E-03  1552   0.280E-01
     57 T=   760. E= -.33043331E+02 F= -.31950900E+02 E0= -.31919414E+02  EK= 0.25538E+01 SP= -.37E+01 SK= 0.30E-01 mag=     -0.116
       N       E                     dE             d eps       ncg     rms          rms(c)
DAV:   1    -0.319499235824E+02   -0.11820E-03   -0.12879E-02  2792   0.107E+00    0.460E-02
RMM:   2    -0.319508997618E+02   -0.97618E-03   -0.40540E-03  1529   0.268E-01
     58 T=   744. E= -.33039108E+02 F= -.31950900E+02 E0= -.31919555E+02  EK= 0.24998E+01 SP= -.36E+01 SK= 0.27E-01 mag=     -0.065
       N       E                     dE             d eps       ncg     rms          rms(c)
DAV:   1    -0.319538905453E+02   -0.39670E-02   -0.10033E-02  2552   0.104E+00    0.471E-02
RMM:   2    -0.319548331931E+02   -0.94265E-03   -0.43934E-03  1549   0.279E-01
     59 T=   731. E= -.33034862E+02 F= -.31954833E+02 E0= -.31923573E+02  EK= 0.24552E+01 SP= -.36E+01 SK= 0.22E-01 mag=      0.051
       N       E                     dE             d eps       ncg     rms          rms(c)
DAV:   1    -0.319607505960E+02   -0.68601E-02   -0.12750E-02  2592   0.103E+00    0.603E-02
RMM:   2    -0.319620377701E+02   -0.12872E-02   -0.44053E-03  1530   0.270E-01
     60 T=   720. E= -.33029947E+02 F= -.31962038E+02 E0= -.31930960E+02  EK= 0.24206E+01 SP= -.35E+01 SK= 0.17E-01 mag=      0.117
       N       E                     dE             d eps       ncg     rms          rms(c)
DAV:   1    -0.319727368241E+02   -0.11986E-01   -0.11128E-02  2584   0.103E+00    0.550E-02
RMM:   2    -0.319737152131E+02   -0.97839E-03   -0.43034E-03  1538   0.280E-01
     61 T=   713. E= -.33025946E+02 F= -.31973715E+02 E0= -.31942677E+02  EK= 0.23961E+01 SP= -.35E+01 SK= 0.13E-01 mag=      0.085
       N       E                     dE             d eps       ncg     rms          rms(c)
DAV:   1    -0.319870836712E+02   -0.14347E-01   -0.13142E-02  2672   0.101E+00    0.499E-02
RMM:   2    -0.319881256703E+02   -0.10420E-02   -0.44118E-03  1538   0.274E-01
     62 T=   709. E= -.33021396E+02 F= -.31988126E+02 E0= -.31957093E+02  EK= 0.23816E+01 SP= -.34E+01 SK= 0.86E-02 mag=     -0.022
       N       E                     dE             d eps       ncg     rms          rms(c)
DAV:   1    -0.320040180194E+02   -0.16934E-01   -0.10525E-02  2424   0.102E+00    0.604E-02
RMM:   2    -0.320052444261E+02   -0.12264E-02   -0.44643E-03  1539   0.270E-01
     63 T=   707. E= -.33016669E+02 F= -.32005244E+02 E0= -.31974289E+02  EK= 0.23768E+01 SP= -.34E+01 SK= 0.52E-02 mag=     -0.118
       N       E                     dE             d eps       ncg     rms          rms(c)
DAV:   1    -0.320243449479E+02   -0.20327E-01   -0.11501E-02  2560   0.101E+00    0.584E-02
RMM:   2    -0.320256123983E+02   -0.12675E-02   -0.45178E-03  1518   0.275E-01
     64 T=   709. E= -.33012035E+02 F= -.32025612E+02 E0= -.31994686E+02  EK= 0.23820E+01 SP= -.34E+01 SK= 0.26E-02 mag=     -0.089
       N       E                     dE             d eps       ncg     rms          rms(c)
DAV:   1    -0.320481476276E+02   -0.23803E-01   -0.15098E-02  2616   0.104E+00    0.450E-02
RMM:   2    -0.320491277614E+02   -0.98013E-03   -0.48242E-03  1543   0.290E-01
     65 T=   713. E= -.33007524E+02 F= -.32049128E+02 E0= -.32018064E+02  EK= 0.23969E+01 SP= -.34E+01 SK= 0.95E-03 mag=      0.034
       N       E                     dE             d eps       ncg     rms          rms(c)
DAV:   1    -0.320718003349E+02   -0.23653E-01   -0.19273E-02  2568   0.996E-01    0.704E-02
RMM:   2    -0.320734326313E+02   -0.16323E-02   -0.51072E-03  1533   0.285E-01    0.529E-02
RMM:   3    -0.320743400457E+02   -0.90741E-03   -0.19415E-03  1448   0.113E-01
     66 T=   720. E= -.33003634E+02 F= -.32074340E+02 E0= -.32043231E+02  EK= 0.24192E+01 SP= -.33E+01 SK= 0.14E-03 mag=      0.036
       N       E                     dE             d eps       ncg     rms          rms(c)
DAV:   1    -0.321003611051E+02   -0.26928E-01   -0.15307E-02  2464   0.101E+00    0.581E-02
RMM:   2    -0.321013511912E+02   -0.99009E-03   -0.30093E-03  1450   0.237E-01
     67 T=   729. E= -.32998520E+02 F= -.32101351E+02 E0= -.32070133E+02  EK= 0.24505E+01 SP= -.33E+01 SK= 0.30E-04 mag=     -0.045
       N       E                     dE             d eps       ncg     rms          rms(c)
DAV:   1    -0.321275002704E+02   -0.27139E-01   -0.25231E-02  2744   0.109E+00    0.774E-02
RMM:   2    -0.321292260269E+02   -0.17258E-02   -0.45158E-03  1546   0.240E-01    0.576E-02
RMM:   3    -0.321303017438E+02   -0.10757E-02   -0.17374E-03  1394   0.102E-01
     68 T=   740. E= -.32994189E+02 F= -.32130302E+02 E0= -.32098937E+02  EK= 0.24883E+01 SP= -.34E+01 SK= 0.41E-03 mag=     -0.021
       N       E                     dE             d eps       ncg     rms          rms(c)
DAV:   1    -0.321585882052E+02   -0.29362E-01   -0.18179E-02  2312   0.975E-01    0.795E-02
RMM:   2    -0.321601049828E+02   -0.15168E-02   -0.34952E-03  1469   0.245E-01    0.560E-02
RMM:   3    -0.321605688200E+02   -0.46384E-03   -0.89479E-04  1276   0.933E-02
     69 T=   753. E= -.32992024E+02 F= -.32160569E+02 E0= -.32128986E+02  EK= 0.25299E+01 SP= -.34E+01 SK= 0.11E-02 mag=      0.015
       N       E                     dE             d eps       ncg     rms          rms(c)
DAV:   1    -0.321908433796E+02   -0.30738E-01   -0.32197E-02  2608   0.104E+00    0.539E-02
RMM:   2    -0.321916684518E+02   -0.82507E-03   -0.39140E-03  1543   0.270E-01
     70 T=   767. E= -.32988243E+02 F= -.32191668E+02 E0= -.32159855E+02  EK= 0.25779E+01 SP= -.34E+01 SK= 0.17E-02 mag=      0.040
       N       E                     dE             d eps       ncg     rms          rms(c)
DAV:   1    -0.322226418193E+02   -0.31798E-01   -0.20837E-02  2680   0.111E+00    0.408E-02
RMM:   2    -0.322234584769E+02   -0.81666E-03   -0.42295E-03  1572   0.263E-01
     71 T=   782. E= -.32985413E+02 F= -.32223458E+02 E0= -.32191361E+02  EK= 0.26286E+01 SP= -.34E+01 SK= 0.22E-02 mag=      0.030
       N       E                     dE             d eps       ncg     rms          rms(c)
DAV:   1    -0.322544670009E+02   -0.31825E-01   -0.12622E-02  2576   0.102E+00    0.324E-02
RMM:   2    -0.322552976776E+02   -0.83068E-03   -0.41480E-03  1556   0.287E-01
     72 T=   798. E= -.32981914E+02 F= -.32255298E+02 E0= -.32222872E+02  EK= 0.26817E+01 SP= -.34E+01 SK= 0.25E-02 mag=     -0.008
       N       E                     dE             d eps       ncg     rms          rms(c)
DAV:   1    -0.322854010324E+02   -0.30934E-01   -0.16455E-02  2464   0.115E+00    0.462E-02
RMM:   2    -0.322863648911E+02   -0.96386E-03   -0.43028E-03  1554   0.273E-01
     73 T=   814. E= -.32977037E+02 F= -.32286365E+02 E0= -.32253609E+02  EK= 0.27359E+01 SP= -.34E+01 SK= 0.23E-02 mag=     -0.044
       N       E                     dE             d eps       ncg     rms          rms(c)
DAV:   1    -0.323160886798E+02   -0.30688E-01   -0.11041E-02  2488   0.106E+00    0.345E-02
RMM:   2    -0.323170132176E+02   -0.92454E-03   -0.39422E-03  1553   0.279E-01
     74 T=   830. E= -.32972710E+02 F= -.32317013E+02 E0= -.32283858E+02  EK= 0.27883E+01 SP= -.34E+01 SK= 0.19E-02 mag=     -0.047
       N       E                     dE             d eps       ncg     rms          rms(c)
DAV:   1    -0.323458119408E+02   -0.29723E-01   -0.15467E-02  2440   0.116E+00    0.381E-02
RMM:   2    -0.323466494946E+02   -0.83755E-03   -0.40308E-03  1566   0.276E-01
     75 T=   844. E= -.32968201E+02 F= -.32346649E+02 E0= -.32313018E+02  EK= 0.28377E+01 SP= -.35E+01 SK= 0.12E-02 mag=     -0.008
       N       E                     dE             d eps       ncg     rms          rms(c)
DAV:   1    -0.323730125040E+02   -0.27201E-01   -0.15917E-02  2448   0.109E+00    0.380E-02
RMM:   2    -0.323740958162E+02   -0.10833E-02   -0.48613E-03  1578   0.294E-01
     76 T=   858. E= -.32962939E+02 F= -.32374096E+02 E0= -.32340012E+02  EK= 0.28819E+01 SP= -.35E+01 SK= 0.54E-03 mag=      0.047
       N       E                     dE             d eps       ncg     rms          rms(c)
DAV:   1    -0.323984592800E+02   -0.25447E-01   -0.18179E-02  2712   0.115E+00    0.522E-02
RMM:   2    -0.323997377818E+02   -0.12785E-02   -0.48493E-03  1567   0.293E-01
     77 T=   869. E= -.32957774E+02 F= -.32399738E+02 E0= -.32365157E+02  EK= 0.29193E+01 SP= -.35E+01 SK= 0.80E-04 mag=      0.064
       N       E                     dE             d eps       ncg     rms          rms(c)
DAV:   1    -0.324227585334E+02   -0.24299E-01   -0.15732E-02  2408   0.113E+00    0.358E-02
RMM:   2    -0.324237268449E+02   -0.96831E-03   -0.46099E-03  1560   0.305E-01
     78 T=   877. E= -.32953420E+02 F= -.32423727E+02 E0= -.32388525E+02  EK= 0.29481E+01 SP= -.35E+01 SK= 0.59E-04 mag=      0.027
       N       E                     dE             d eps       ncg     rms          rms(c)
DAV:   1    -0.324429418220E+02   -0.20183E-01   -0.18793E-02  2768   0.116E+00    0.494E-02
RMM:   2    -0.324441788875E+02   -0.12371E-02   -0.57204E-03  1594   0.308E-01
     79 T=   883. E= -.32947851E+02 F= -.32444179E+02 E0= -.32408419E+02  EK= 0.29675E+01 SP= -.35E+01 SK= 0.67E-03 mag=     -0.041
       N       E                     dE             d eps       ncg     rms          rms(c)
DAV:   1    -0.324601843484E+02   -0.17243E-01   -0.18285E-02  2552   0.114E+00    0.539E-02
RMM:   2    -0.324616893765E+02   -0.15050E-02   -0.52069E-03  1560   0.302E-01    0.401E-02
RMM:   3    -0.324621608781E+02   -0.47150E-03   -0.14968E-03  1433   0.118E-01
     80 T=   885. E= -.32943638E+02 F= -.32462161E+02 E0= -.32425800E+02  EK= 0.29754E+01 SP= -.35E+01 SK= 0.20E-02 mag=     -0.030
       N       E                     dE             d eps       ncg     rms          rms(c)
DAV:   1    -0.324755414235E+02   -0.13852E-01   -0.22826E-02  2296   0.112E+00    0.557E-02
RMM:   2    -0.324768582803E+02   -0.13169E-02   -0.35805E-03  1471   0.271E-01
     81 T=   885. E= -.32936701E+02 F= -.32476858E+02 E0= -.32439843E+02  EK= 0.29750E+01 SP= -.34E+01 SK= 0.42E-02 mag=      0.038
       N       E                     dE             d eps       ncg     rms          rms(c)
DAV:   1    -0.324859225610E+02   -0.10381E-01   -0.33711E-02  2880   0.123E+00    0.746E-02
RMM:   2    -0.324877670428E+02   -0.18445E-02   -0.49846E-03  1564   0.263E-01    0.542E-02
RMM:   3    -0.324887982249E+02   -0.10312E-02   -0.18639E-03  1400   0.108E-01
     82 T=   882. E= -.32931145E+02 F= -.32488798E+02 E0= -.32451165E+02  EK= 0.29627E+01 SP= -.34E+01 SK= 0.70E-02 mag=      0.026
       N       E                     dE             d eps       ncg     rms          rms(c)
DAV:   1    -0.324955607587E+02   -0.77937E-02   -0.22150E-02  2416   0.106E+00    0.740E-02
RMM:   2    -0.324972752115E+02   -0.17145E-02   -0.39343E-03  1455   0.261E-01    0.519E-02
RMM:   3    -0.324977410762E+02   -0.46586E-03   -0.94528E-04  1256   0.100E-01
     83 T=   874. E= -.32928273E+02 F= -.32497741E+02 E0= -.32459439E+02  EK= 0.29375E+01 SP= -.34E+01 SK= 0.10E-01 mag=     -0.014
       N       E                     dE             d eps       ncg     rms          rms(c)
DAV:   1    -0.325026576157E+02   -0.53824E-02   -0.39408E-02  2720   0.113E+00    0.517E-02
RMM:   2    -0.325037105342E+02   -0.10529E-02   -0.42612E-03  1556   0.282E-01
     84 T=   864. E= -.32923345E+02 F= -.32503711E+02 E0= -.32464776E+02  EK= 0.29050E+01 SP= -.33E+01 SK= 0.14E-01 mag=     -0.053
       N       E                     dE             d eps       ncg     rms          rms(c)
DAV:   1    -0.325057084251E+02   -0.30508E-02   -0.24772E-02  2896   0.117E+00    0.377E-02
RMM:   2    -0.325067500714E+02   -0.10416E-02   -0.48507E-03  1603   0.271E-01
     85 T=   852. E= -.32920389E+02 F= -.32506750E+02 E0= -.32467181E+02  EK= 0.28625E+01 SP= -.33E+01 SK= 0.17E-01 mag=     -0.055
       N       E                     dE             d eps       ncg     rms          rms(c)
DAV:   1    -0.325061120496E+02   -0.40362E-03   -0.16769E-02  2536   0.107E+00    0.330E-02
RMM:   2    -0.325071393667E+02   -0.10273E-02   -0.46211E-03  1576   0.311E-01
     86 T=   837. E= -.32916356E+02 F= -.32507139E+02 E0= -.32466969E+02  EK= 0.28146E+01 SP= -.32E+01 SK= 0.20E-01 mag=     -0.015
       N       E                     dE             d eps       ncg     rms          rms(c)
DAV:   1    -0.325036157979E+02    0.24963E-02   -0.21653E-02  2664   0.119E+00    0.433E-02
RMM:   2    -0.325047703568E+02   -0.11546E-02   -0.45022E-03  1564   0.279E-01
     87 T=   822. E= -.32910815E+02 F= -.32504770E+02 E0= -.32464102E+02  EK= 0.27632E+01 SP= -.32E+01 SK= 0.22E-01 mag=      0.041
       N       E                     dE             d eps       ncg     rms          rms(c)
DAV:   1    -0.324993478405E+02    0.42680E-02   -0.11401E-02  2608   0.106E+00    0.367E-02
RMM:   2    -0.325003789520E+02   -0.10311E-02   -0.39235E-03  1560   0.289E-01
     88 T=   806. E= -.32906460E+02 F= -.32500379E+02 E0= -.32459217E+02  EK= 0.27077E+01 SP= -.31E+01 SK= 0.23E-01 mag=      0.072
       N       E                     dE             d eps       ncg     rms          rms(c)
DAV:   1    -0.324934557212E+02    0.58921E-02   -0.16523E-02  2512   0.113E+00    0.369E-02
RMM:   2    -0.324943644491E+02   -0.90873E-03   -0.38426E-03  1535   0.267E-01
     89 T=   789. E= -.32902231E+02 F= -.32494364E+02 E0= -.32452728E+02  EK= 0.26512E+01 SP= -.31E+01 SK= 0.22E-01 mag=      0.049
       N       E                     dE             d eps       ncg     rms          rms(c)
DAV:   1    -0.324853843879E+02    0.80713E-02   -0.14449E-02  2512   0.107E+00    0.389E-02
RMM:   2    -0.324864885942E+02   -0.11042E-02   -0.44686E-03  1540   0.291E-01
     90 T=   772. E= -.32897713E+02 F= -.32486489E+02 E0= -.32444490E+02  EK= 0.25951E+01 SP= -.30E+01 SK= 0.21E-01 mag=     -0.014
       N       E                     dE             d eps       ncg     rms          rms(c)
DAV:   1    -0.324763470196E+02    0.90374E-02   -0.17134E-02  2768   0.107E+00    0.519E-02
RMM:   2    -0.324775398708E+02   -0.11929E-02   -0.40328E-03  1524   0.268E-01
     91 T=   756. E= -.32893340E+02 F= -.32477540E+02 E0= -.32435271E+02  EK= 0.25411E+01 SP= -.30E+01 SK= 0.19E-01 mag=     -0.064
       N       E                     dE             d eps       ncg     rms          rms(c)
DAV:   1    -0.324674518228E+02    0.88952E-02   -0.13744E-02  2384   0.106E+00    0.392E-02
RMM:   2    -0.324683769035E+02   -0.92508E-03   -0.42530E-03  1562   0.294E-01
     92 T=   741. E= -.32889691E+02 F= -.32468377E+02 E0= -.32425827E+02  EK= 0.24906E+01 SP= -.29E+01 SK= 0.16E-01 mag=     -0.070
       N       E                     dE             d eps       ncg     rms          rms(c)
DAV:   1    -0.324567663218E+02    0.10686E-01   -0.18877E-02  2696   0.103E+00    0.548E-02
RMM:   2    -0.324579612462E+02   -0.11949E-02   -0.47528E-03  1550   0.281E-01
     93 T=   728. E= -.32885116E+02 F= -.32457961E+02 E0= -.32415248E+02  EK= 0.24451E+01 SP= -.29E+01 SK= 0.12E-01 mag=     -0.025
       N       E                     dE             d eps       ncg     rms          rms(c)
DAV:   1    -0.324463895563E+02    0.10377E-01   -0.14075E-02  2552   0.105E+00    0.518E-02
RMM:   2    -0.324476138822E+02   -0.12243E-02   -0.43689E-03  1552   0.281E-01
     94 T=   716. E= -.32881387E+02 F= -.32447614E+02 E0= -.32404804E+02  EK= 0.24049E+01 SP= -.28E+01 SK= 0.85E-02 mag=      0.044
       N       E                     dE             d eps       ncg     rms          rms(c)
DAV:   1    -0.324367397561E+02    0.96498E-02   -0.14292E-02  2672   0.104E+00    0.490E-02
RMM:   2    -0.324376929967E+02   -0.95324E-03   -0.39863E-03  1546   0.277E-01
     95 T=   706. E= -.32878074E+02 F= -.32437693E+02 E0= -.32394832E+02  EK= 0.23714E+01 SP= -.28E+01 SK= 0.52E-02 mag=      0.084
       N       E                     dE             d eps       ncg     rms          rms(c)
DAV:   1    -0.324264006637E+02    0.10339E-01   -0.15451E-02  2608   0.104E+00    0.512E-02
RMM:   2    -0.324275145493E+02   -0.11139E-02   -0.47011E-03  1533   0.304E-01
     96 T=   698. E= -.32874347E+02 F= -.32427515E+02 E0= -.32384677E+02  EK= 0.23454E+01 SP= -.28E+01 SK= 0.25E-02 mag=      0.067
       N       E                     dE             d eps       ncg     rms          rms(c)
DAV:   1    -0.324161409009E+02    0.10260E-01   -0.15562E-02  2768   0.102E+00    0.672E-02
RMM:   2    -0.324176230761E+02   -0.14822E-02   -0.46004E-03  1533   0.272E-01    0.485E-02
RMM:   3    -0.324182937721E+02   -0.67070E-03   -0.17024E-03  1414   0.108E-01
     97 T=   692. E= -.32871844E+02 F= -.32418294E+02 E0= -.32375503E+02  EK= 0.23266E+01 SP= -.28E+01 SK= 0.67E-03 mag=      0.004
       N       E                     dE             d eps       ncg     rms          rms(c)
DAV:   1    -0.324075862597E+02    0.10037E-01   -0.20399E-02  2552   0.976E-01    0.691E-02
RMM:   2    -0.324089842038E+02   -0.13979E-02   -0.33985E-03  1438   0.265E-01    0.483E-02
RMM:   3    -0.324095194626E+02   -0.53526E-03   -0.11119E-03  1329   0.974E-02
     98 T=   689. E= -.32869049E+02 F= -.32409519E+02 E0= -.32366835E+02  EK= 0.23163E+01 SP= -.28E+01 SK= 0.92E-06 mag=     -0.034
       N       E                     dE             d eps       ncg     rms          rms(c)
DAV:   1    -0.324005701068E+02    0.84141E-02   -0.28105E-02  2624   0.972E-01    0.443E-02
RMM:   2    -0.324012536883E+02   -0.68358E-03   -0.30120E-03  1529   0.232E-01
     99 T=   689. E= -.32865170E+02 F= -.32401254E+02 E0= -.32358734E+02  EK= 0.23156E+01 SP= -.28E+01 SK= 0.59E-03 mag=     -0.023
       N       E                     dE             d eps       ncg     rms          rms(c)
DAV:   1    -0.323933196877E+02    0.72504E-02   -0.19732E-02  2576   0.105E+00    0.324E-02
RMM:   2    -0.323940944612E+02   -0.77477E-03   -0.35301E-03  1536   0.248E-01
    100 T=   691. E= -.32862166E+02 F= -.32394094E+02 E0= -.32351788E+02  EK= 0.23230E+01 SP= -.28E+01 SK= 0.24E-02 mag=      0.028
       N       E                     dE             d eps       ncg     rms          rms(c)
DAV:   1    -0.323870543361E+02    0.62654E-02   -0.13522E-02  2488   0.103E+00    0.377E-02
RMM:   2    -0.323878399609E+02   -0.78562E-03   -0.35460E-03  1549   0.278E-01
    101 T=   696. E= -.32858059E+02 F= -.32387840E+02 E0= -.32345797E+02  EK= 0.23404E+01 SP= -.28E+01 SK= 0.54E-02 mag=      0.071
       N       E                     dE             d eps       ncg     rms          rms(c)
DAV:   1    -0.323817883615E+02    0.52660E-02   -0.14825E-02  2664   0.111E+00    0.351E-02
RMM:   2    -0.323826296727E+02   -0.84131E-03   -0.39728E-03  1565   0.277E-01
    102 T=   704. E= -.32853619E+02 F= -.32382630E+02 E0= -.32340873E+02  EK= 0.23669E+01 SP= -.28E+01 SK= 0.92E-02 mag=      0.061
       N       E                     dE             d eps       ncg     rms          rms(c)
DAV:   1    -0.323775794267E+02    0.42089E-02   -0.98192E-03  2520   0.100E+00    0.341E-02
RMM:   2    -0.323783920952E+02   -0.81267E-03   -0.34202E-03  1518   0.266E-01
    103 T=   714. E= -.32849892E+02 F= -.32378392E+02 E0= -.32336975E+02  EK= 0.24010E+01 SP= -.29E+01 SK= 0.14E-01 mag=     -0.007
       N       E                     dE             d eps       ncg     rms          rms(c)
DAV:   1    -0.323743089778E+02    0.32704E-02   -0.13022E-02  2472   0.109E+00    0.379E-02
RMM:   2    -0.323751202710E+02   -0.81129E-03   -0.34495E-03  1525   0.256E-01
    104 T=   727. E= -.32845902E+02 F= -.32375120E+02 E0= -.32334057E+02  EK= 0.24433E+01 SP= -.29E+01 SK= 0.18E-01 mag=     -0.074
       N       E                     dE             d eps       ncg     rms          rms(c)
DAV:   1    -0.323719346491E+02    0.23743E-02   -0.11501E-02  2472   0.103E+00    0.379E-02
RMM:   2    -0.323728164526E+02   -0.88180E-03   -0.39993E-03  1536   0.277E-01
    105 T=   742. E= -.32841850E+02 F= -.32372816E+02 E0= -.32332112E+02  EK= 0.24929E+01 SP= -.30E+01 SK= 0.22E-01 mag=     -0.082
       N       E                     dE             d eps       ncg     rms          rms(c)
DAV:   1    -0.323704080526E+02    0.15266E-02   -0.14429E-02  2608   0.106E+00    0.440E-02
RMM:   2    -0.323714068416E+02   -0.99879E-03   -0.41262E-03  1536   0.275E-01
    106 T=   759. E= -.32837632E+02 F= -.32371407E+02 E0= -.32331091E+02  EK= 0.25492E+01 SP= -.30E+01 SK= 0.26E-01 mag=     -0.006
       N       E                     dE             d eps       ncg     rms          rms(c)
DAV:   1    -0.323701031855E+02    0.30487E-03   -0.12810E-02  2480   0.108E+00    0.433E-02
RMM:   2    -0.323711007932E+02   -0.99761E-03   -0.45948E-03  1579   0.290E-01
    107 T=   777. E= -.32833538E+02 F= -.32371101E+02 E0= -.32331196E+02  EK= 0.26110E+01 SP= -.31E+01 SK= 0.28E-01 mag=      0.099
       N       E                     dE             d eps       ncg     rms          rms(c)
DAV:   1    -0.323702513336E+02   -0.14815E-03   -0.15923E-02  2672   0.108E+00    0.550E-02
RMM:   2    -0.323714168095E+02   -0.11655E-02   -0.45181E-03  1548   0.289E-01
    108 T=   796. E= -.32829322E+02 F= -.32371417E+02 E0= -.32331892E+02  EK= 0.26768E+01 SP= -.32E+01 SK= 0.29E-01 mag=      0.104
       N       E                     dE             d eps       ncg     rms          rms(c)
DAV:   1    -0.323718393565E+02   -0.15880E-02   -0.14983E-02  2600   0.109E+00    0.467E-02
RMM:   2    -0.323728236059E+02   -0.98425E-03   -0.45748E-03  1553   0.292E-01
    109 T=   817. E= -.32825690E+02 F= -.32372824E+02 E0= -.32333692E+02  EK= 0.27450E+01 SP= -.32E+01 SK= 0.29E-01 mag=     -0.001
       N       E                     dE             d eps       ncg     rms          rms(c)
DAV:   1    -0.323728172521E+02   -0.97790E-03   -0.16664E-02  2648   0.109E+00    0.639E-02
RMM:   2    -0.323741074929E+02   -0.12902E-02   -0.47329E-03  1539   0.292E-01
    110 T=   837. E= -.32821275E+02 F= -.32374107E+02 E0= -.32335418E+02  EK= 0.28141E+01 SP= -.33E+01 SK= 0.27E-01 mag=     -0.124
       N       E                     dE             d eps       ncg     rms          rms(c)
DAV:   1    -0.323748613378E+02   -0.20441E-02   -0.14999E-02  2560   0.111E+00    0.598E-02
RMM:   2    -0.323762029904E+02   -0.13417E-02   -0.49345E-03  1559   0.297E-01
    111 T=   857. E= -.32817435E+02 F= -.32376203E+02 E0= -.32337834E+02  EK= 0.28816E+01 SP= -.33E+01 SK= 0.23E-01 mag=     -0.158
       N       E                     dE             d eps       ncg     rms          rms(c)
DAV:   1    -0.323774781207E+02   -0.26168E-02   -0.16082E-02  2608   0.112E+00    0.524E-02
RMM:   2    -0.323785741442E+02   -0.10960E-02   -0.52387E-03  1579   0.307E-01
    112 T=   876. E= -.32813844E+02 F= -.32378574E+02 E0= -.32340469E+02  EK= 0.29454E+01 SP= -.34E+01 SK= 0.19E-01 mag=     -0.049
       N       E                     dE             d eps       ncg     rms          rms(c)
DAV:   1    -0.323785536594E+02   -0.10755E-02   -0.18418E-02  2664   0.114E+00    0.582E-02
RMM:   2    -0.323799786738E+02   -0.14250E-02   -0.56291E-03  1583   0.311E-01    0.422E-02
RMM:   3    -0.323803574359E+02   -0.37876E-03   -0.14253E-03  1436   0.118E-01
    113 T=   893. E= -.32810682E+02 F= -.32380357E+02 E0= -.32342604E+02  EK= 0.30023E+01 SP= -.34E+01 SK= 0.14E-01 mag=      0.045
       N       E                     dE             d eps       ncg     rms          rms(c)
DAV:   1    -0.323808407180E+02   -0.86204E-03   -0.21703E-02  2560   0.114E+00    0.526E-02
RMM:   2    -0.323818922962E+02   -0.10516E-02   -0.40554E-03  1540   0.275E-01
    114 T=   909. E= -.32805019E+02 F= -.32381892E+02 E0= -.32344332E+02  EK= 0.30538E+01 SP= -.35E+01 SK= 0.92E-02 mag=      0.071
       N       E                     dE             d eps       ncg     rms          rms(c)
DAV:   1    -0.323809184663E+02   -0.77748E-04   -0.29575E-02  2952   0.125E+00    0.508E-02
RMM:   2    -0.323821062062E+02   -0.11877E-02   -0.46862E-03  1580   0.262E-01
    115 T=   921. E= -.32799649E+02 F= -.32382106E+02 E0= -.32344802E+02  EK= 0.30940E+01 SP= -.35E+01 SK= 0.48E-02 mag=      0.006
       N       E                     dE             d eps       ncg     rms          rms(c)
DAV:   1    -0.323805648727E+02    0.35359E-03   -0.10537E-02  2192   0.108E+00    0.468E-02
RMM:   2    -0.323817330142E+02   -0.11681E-02   -0.50645E-03  1613   0.321E-01
    116 T=   928. E= -.32796747E+02 F= -.32381733E+02 E0= -.32344590E+02  EK= 0.31200E+01 SP= -.35E+01 SK= 0.17E-02 mag=     -0.087
       N       E                     dE             d eps       ncg     rms          rms(c)
DAV:   1    -0.323790367136E+02    0.15282E-02   -0.23995E-02  2936   0.126E+00    0.468E-02
RMM:   2    -0.323802672674E+02   -0.12306E-02   -0.51955E-03  1562   0.297E-01
    117 T=   932. E= -.32793154E+02 F= -.32380267E+02 E0= -.32343196E+02  EK= 0.31334E+01 SP= -.35E+01 SK= 0.13E-03 mag=     -0.116
       N       E                     dE             d eps       ncg     rms          rms(c)
DAV:   1    -0.323761135031E+02    0.29232E-02   -0.14067E-02  2472   0.112E+00    0.457E-02
RMM:   2    -0.323773048843E+02   -0.11914E-02   -0.51428E-03  1543   0.306E-01
    118 T=   932. E= -.32788958E+02 F= -.32377305E+02 E0= -.32340299E+02  EK= 0.31331E+01 SP= -.35E+01 SK= 0.35E-03 mag=     -0.039
       N       E                     dE             d eps       ncg     rms          rms(c)
DAV:   1    -0.323716372871E+02    0.44762E-02   -0.18291E-02  2776   0.122E+00    0.458E-02
RMM:   2    -0.323728146814E+02   -0.11774E-02   -0.47989E-03  1550   0.294E-01
    119 T=   928. E= -.32783767E+02 F= -.32372815E+02 E0= -.32335827E+02  EK= 0.31196E+01 SP= -.35E+01 SK= 0.23E-02 mag=      0.079
       N       E                     dE             d eps       ncg     rms          rms(c)
DAV:   1    -0.323652351459E+02    0.64021E-02   -0.14742E-02  2824   0.116E+00    0.490E-02
RMM:   2    -0.323664602809E+02   -0.12251E-02   -0.54641E-03  1590   0.315E-01
    120 T=   920. E= -.32779436E+02 F= -.32366460E+02 E0= -.32329406E+02  EK= 0.30912E+01 SP= -.35E+01 SK= 0.59E-02 mag=      0.142
       N       E                     dE             d eps       ncg     rms          rms(c)
DAV:   1    -0.323570260744E+02    0.82091E-02   -0.17950E-02  2744   0.117E+00    0.498E-02
RMM:   2    -0.323582887800E+02   -0.12627E-02   -0.53335E-03  1550   0.302E-01
    121 T=   907. E= -.32775484E+02 F= -.32358289E+02 E0= -.32321163E+02  EK= 0.30496E+01 SP= -.35E+01 SK= 0.10E-01 mag=      0.077
       N       E                     dE             d eps       ncg     rms          rms(c)
DAV:   1    -0.323477391259E+02    0.92869E-02   -0.14238E-02  2680   0.115E+00    0.438E-02
RMM:   2    -0.323488121582E+02   -0.10730E-02   -0.48755E-03  1550   0.300E-01
    122 T=   892. E= -.32771354E+02 F= -.32348812E+02 E0= -.32311510E+02  EK= 0.29973E+01 SP= -.34E+01 SK= 0.16E-01 mag=     -0.073
       N       E                     dE             d eps       ncg     rms          rms(c)
DAV:   1    -0.323356070237E+02    0.12132E-01   -0.16179E-02  2840   0.114E+00    0.560E-02
RMM:   2    -0.323369809371E+02   -0.13739E-02   -0.55459E-03  1586   0.301E-01    0.432E-02
RMM:   3    -0.323375298111E+02   -0.54887E-03   -0.15009E-03  1492   0.115E-01
    123 T=   873. E= -.32767422E+02 F= -.32337530E+02 E0= -.32300060E+02  EK= 0.29356E+01 SP= -.34E+01 SK= 0.21E-01 mag=     -0.066
       N       E                     dE             d eps       ncg     rms          rms(c)
DAV:   1    -0.323236769109E+02    0.13304E-01   -0.16431E-02  2544   0.111E+00    0.496E-02
RMM:   2    -0.323247277440E+02   -0.10508E-02   -0.33647E-03  1487   0.268E-01
    124 T=   854. E= -.32760990E+02 F= -.32324728E+02 E0= -.32287043E+02  EK= 0.28695E+01 SP= -.33E+01 SK= 0.25E-01 mag=      0.050
       N       E                     dE             d eps       ncg     rms          rms(c)
DAV:   1    -0.323086803694E+02    0.14997E-01   -0.25847E-02  2976   0.122E+00    0.644E-02
RMM:   2    -0.323100712172E+02   -0.13908E-02   -0.45169E-03  1538   0.252E-01    0.484E-02
RMM:   3    -0.323108058125E+02   -0.73460E-03   -0.13491E-03  1391   0.101E-01
    125 T=   833. E= -.32755266E+02 F= -.32310806E+02 E0= -.32272892E+02  EK= 0.27982E+01 SP= -.33E+01 SK= 0.28E-01 mag=      0.071
       N       E                     dE             d eps       ncg     rms          rms(c)
DAV:   1    -0.322951137992E+02    0.14957E-01   -0.15218E-02  2416   0.105E+00    0.593E-02
RMM:   2    -0.322961289114E+02   -0.10151E-02   -0.33379E-03  1458   0.251E-01
    126 T=   810. E= -.32751045E+02 F= -.32296129E+02 E0= -.32257933E+02  EK= 0.27235E+01 SP= -.32E+01 SK= 0.30E-01 mag=      0.008
       N       E                     dE             d eps       ncg     rms          rms(c)
DAV:   1    -0.322782765700E+02    0.16837E-01   -0.28039E-02  3056   0.118E+00    0.738E-02
RMM:   2    -0.322798737588E+02   -0.15972E-02   -0.47510E-03  1534   0.247E-01    0.538E-02
RMM:   3    -0.322809370974E+02   -0.10633E-02   -0.20734E-03  1409   0.105E-01
    127 T=   788. E= -.32747166E+02 F= -.32280937E+02 E0= -.32242453E+02  EK= 0.26488E+01 SP= -.31E+01 SK= 0.30E-01 mag=     -0.028
       N       E                     dE             d eps       ncg     rms          rms(c)
DAV:   1    -0.322635988063E+02    0.16275E-01   -0.19811E-02  2352   0.104E+00    0.838E-02
RMM:   2    -0.322649479164E+02   -0.13491E-02   -0.38279E-03  1478   0.268E-01
    128 T=   767. E= -.32741914E+02 F= -.32264948E+02 E0= -.32226239E+02  EK= 0.25774E+01 SP= -.31E+01 SK= 0.28E-01 mag=     -0.038
       N       E                     dE             d eps       ncg     rms          rms(c)
DAV:   1    -0.322468142199E+02    0.16785E-01   -0.37202E-02  2952   0.116E+00    0.905E-02
RMM:   2    -0.322487023777E+02   -0.18882E-02   -0.47800E-03  1545   0.252E-01    0.644E-02
RMM:   3    -0.322497593985E+02   -0.10570E-02   -0.17107E-03  1398   0.102E-01
    129 T=   747. E= -.32736910E+02 F= -.32249759E+02 E0= -.32210742E+02  EK= 0.25107E+01 SP= -.30E+01 SK= 0.25E-01 mag=     -0.016
       N       E                     dE             d eps       ncg     rms          rms(c)
DAV:   1    -0.322337631864E+02    0.14939E-01   -0.23441E-02  2384   0.102E+00    0.101E-01
RMM:   2    -0.322352563367E+02   -0.14932E-02   -0.42942E-03  1516   0.270E-01    0.679E-02
RMM:   3    -0.322357592762E+02   -0.50294E-03   -0.11840E-03  1340   0.107E-01
    130 T=   728. E= -.32734991E+02 F= -.32235759E+02 E0= -.32196402E+02  EK= 0.24476E+01 SP= -.30E+01 SK= 0.21E-01 mag=      0.034
       N       E                     dE             d eps       ncg     rms          rms(c)
DAV:   1    -0.322217381571E+02    0.13518E-01   -0.42720E-02  2656   0.108E+00    0.699E-02
RMM:   2    -0.322226318890E+02   -0.89373E-03   -0.44010E-03  1553   0.283E-01
    131 T=   712. E= -.32731294E+02 F= -.32222632E+02 E0= -.32182989E+02  EK= 0.23937E+01 SP= -.29E+01 SK= 0.16E-01 mag=      0.064
       N       E                     dE             d eps       ncg     rms          rms(c)
DAV:   1    -0.322105611889E+02    0.11177E-01   -0.26094E-02  2552   0.104E+00    0.547E-02
RMM:   2    -0.322112881860E+02   -0.72700E-03   -0.40965E-03  1537   0.272E-01
    132 T=   699. E= -.32728342E+02 F= -.32211288E+02 E0= -.32171314E+02  EK= 0.23481E+01 SP= -.29E+01 SK= 0.11E-01 mag=      0.046
       N       E                     dE             d eps       ncg     rms          rms(c)
DAV:   1    -0.322012489439E+02    0.93122E-02   -0.12540E-02  2536   0.985E-01    0.408E-02
RMM:   2    -0.322018483437E+02   -0.59940E-03   -0.38319E-03  1542   0.280E-01
    133 T=   688. E= -.32724270E+02 F= -.32201848E+02 E0= -.32161549E+02  EK= 0.23135E+01 SP= -.28E+01 SK= 0.64E-02 mag=     -0.014
       N       E                     dE             d eps       ncg     rms          rms(c)
DAV:   1    -0.321932578914E+02    0.79911E-02   -0.14287E-02  2472   0.105E+00    0.539E-02
RMM:   2    -0.321940892560E+02   -0.83136E-03   -0.38995E-03  1542   0.256E-01
    134 T=   681. E= -.32718977E+02 F= -.32194089E+02 E0= -.32153615E+02  EK= 0.22901E+01 SP= -.28E+01 SK= 0.29E-02 mag=     -0.073
       N       E                     dE             d eps       ncg     rms          rms(c)
DAV:   1    -0.321887987399E+02    0.44592E-02   -0.83779E-03  2384   0.958E-01    0.450E-02
RMM:   2    -0.321895787512E+02   -0.78001E-03   -0.34724E-03  1536   0.267E-01
    135 T=   678. E= -.32714867E+02 F= -.32189579E+02 E0= -.32148841E+02  EK= 0.22773E+01 SP= -.28E+01 SK= 0.68E-03 mag=     -0.081
       N       E                     dE             d eps       ncg     rms          rms(c)
DAV:   1    -0.321878389157E+02    0.95982E-03   -0.12683E-02  2408   0.103E+00    0.360E-02
RMM:   2    -0.321884348503E+02   -0.59593E-03   -0.40383E-03  1554   0.266E-01
    136 T=   677. E= -.32710943E+02 F= -.32188435E+02 E0= -.32147349E+02  EK= 0.22763E+01 SP= -.28E+01 SK= 0.32E-05 mag=     -0.027
       N       E                     dE             d eps       ncg     rms          rms(c)
DAV:   1    -0.321889389418E+02   -0.11000E-02   -0.13578E-02  2400   0.967E-01    0.470E-02
RMM:   2    -0.321898380021E+02   -0.89906E-03   -0.42888E-03  1542   0.280E-01
    137 T=   681. E= -.32706276E+02 F= -.32189838E+02 E0= -.32148586E+02  EK= 0.22873E+01 SP= -.28E+01 SK= 0.86E-03 mag=      0.059
       N       E                     dE             d eps       ncg     rms          rms(c)
DAV:   1    -0.321938904380E+02   -0.49515E-02   -0.14357E-02  2576   0.102E+00    0.573E-02
RMM:   2    -0.321949461319E+02   -0.10557E-02   -0.40273E-03  1534   0.262E-01
    138 T=   687. E= -.32701604E+02 F= -.32194946E+02 E0= -.32153592E+02  EK= 0.23105E+01 SP= -.28E+01 SK= 0.31E-02 mag=      0.102
       N       E                     dE             d eps       ncg     rms          rms(c)
DAV:   1    -0.322038170860E+02   -0.99266E-02   -0.12603E-02  2424   0.999E-01    0.417E-02
RMM:   2    -0.322045467025E+02   -0.72962E-03   -0.46042E-03  1573   0.296E-01
    139 T=   698. E= -.32697830E+02 F= -.32204547E+02 E0= -.32162813E+02  EK= 0.23455E+01 SP= -.28E+01 SK= 0.64E-02 mag=      0.076
       N       E                     dE             d eps       ncg     rms          rms(c)
DAV:   1    -0.322157001063E+02   -0.11883E-01   -0.19791E-02  2584   0.102E+00    0.619E-02
RMM:   2    -0.322168957544E+02   -0.11956E-02   -0.49684E-03  1539   0.288E-01
    140 T=   712. E= -.32693276E+02 F= -.32216896E+02 E0= -.32175039E+02  EK= 0.23919E+01 SP= -.29E+01 SK= 0.10E-01 mag=     -0.011
       N       E                     dE             d eps       ncg     rms          rms(c)
DAV:   1    -0.322324800945E+02   -0.16780E-01   -0.12185E-02  2448   0.103E+00    0.617E-02
RMM:   2    -0.322336420854E+02   -0.11620E-02   -0.44014E-03  1549   0.282E-01
    141 T=   729. E= -.32689538E+02 F= -.32233642E+02 E0= -.32191702E+02  EK= 0.24492E+01 SP= -.29E+01 SK= 0.14E-01 mag=     -0.116
       N       E                     dE             d eps       ncg     rms          rms(c)
DAV:   1    -0.322534162109E+02   -0.20936E-01   -0.15507E-02  2576   0.105E+00    0.558E-02
RMM:   2    -0.322544047835E+02   -0.98857E-03   -0.46899E-03  1571   0.293E-01
    142 T=   749. E= -.32685506E+02 F= -.32254405E+02 E0= -.32212351E+02  EK= 0.25171E+01 SP= -.30E+01 SK= 0.18E-01 mag=     -0.164
       N       E                     dE             d eps       ncg     rms          rms(c)
DAV:   1    -0.322776877392E+02   -0.24272E-01   -0.17547E-02  2552   0.105E+00    0.608E-02
RMM:   2    -0.322789320369E+02   -0.12443E-02   -0.52125E-03  1546   0.309E-01
    143 T=   772. E= -.32681282E+02 F= -.32278932E+02 E0= -.32236657E+02  EK= 0.25943E+01 SP= -.30E+01 SK= 0.20E-01 mag=     -0.112
       N       E                     dE             d eps       ncg     rms          rms(c)
DAV:   1    -0.323056471083E+02   -0.27959E-01   -0.17288E-02  2680   0.110E+00    0.758E-02
RMM:   2    -0.323072604728E+02   -0.16134E-02   -0.51424E-03  1543   0.298E-01    0.544E-02
RMM:   3    -0.323081297308E+02   -0.86926E-03   -0.20994E-03  1417   0.122E-01
    144 T=   797. E= -.32678577E+02 F= -.32308130E+02 E0= -.32265655E+02  EK= 0.26784E+01 SP= -.31E+01 SK= 0.21E-01 mag=      0.019
       N       E                     dE             d eps       ncg     rms          rms(c)
DAV:   1    -0.323380349179E+02   -0.30774E-01   -0.30091E-02  2528   0.109E+00    0.797E-02
RMM:   2    -0.323396363795E+02   -0.16015E-02   -0.40036E-03  1452   0.274E-01    0.582E-02
RMM:   3    -0.323405464416E+02   -0.91006E-03   -0.16194E-03  1380   0.103E-01
    145 T=   824. E= -.32675415E+02 F= -.32340546E+02 E0= -.32298009E+02  EK= 0.27682E+01 SP= -.31E+01 SK= 0.21E-01 mag=      0.079
       N       E                     dE             d eps       ncg     rms          rms(c)
DAV:   1    -0.323759413493E+02   -0.36305E-01   -0.28142E-02  2624   0.109E+00    0.540E-02
RMM:   2    -0.323766651446E+02   -0.72380E-03   -0.34043E-03  1538   0.254E-01
    146 T=   852. E= -.32671535E+02 F= -.32376665E+02 E0= -.32334005E+02  EK= 0.28621E+01 SP= -.32E+01 SK= 0.18E-01 mag=      0.040
       N       E                     dE             d eps       ncg     rms          rms(c)
DAV:   1    -0.324152509213E+02   -0.39310E-01   -0.20065E-02  2824   0.115E+00    0.345E-02
RMM:   2    -0.324160750491E+02   -0.82413E-03   -0.40580E-03  1568   0.261E-01
    147 T=   879. E= -.32669565E+02 F= -.32416075E+02 E0= -.32373325E+02  EK= 0.29545E+01 SP= -.32E+01 SK= 0.15E-01 mag=     -0.070
       N       E                     dE             d eps       ncg     rms          rms(c)
DAV:   1    -0.324565996081E+02   -0.41349E-01   -0.16014E-02  2320   0.112E+00    0.551E-02
RMM:   2    -0.324577388687E+02   -0.11393E-02   -0.42828E-03  1560   0.303E-01
    148 T=   906. E= -.32666226E+02 F= -.32457739E+02 E0= -.32415149E+02  EK= 0.30449E+01 SP= -.33E+01 SK= 0.10E-01 mag=     -0.167
       N       E                     dE             d eps       ncg     rms          rms(c)
DAV:   1    -0.325012170148E+02   -0.44617E-01   -0.21926E-02  2912   0.128E+00    0.525E-02
RMM:   2    -0.325025073135E+02   -0.12903E-02   -0.48817E-03  1560   0.302E-01
    149 T=   932. E= -.32661727E+02 F= -.32502507E+02 E0= -.32459925E+02  EK= 0.31307E+01 SP= -.33E+01 SK= 0.53E-02 mag=     -0.175
       N       E                     dE             d eps       ncg     rms          rms(c)
DAV:   1    -0.325486990068E+02   -0.47482E-01   -0.14044E-02  2336   0.115E+00    0.371E-02
RMM:   2    -0.325498030279E+02   -0.11040E-02   -0.46176E-03  1551   0.324E-01
    150 T=   954. E= -.32657433E+02 F= -.32549803E+02 E0= -.32507005E+02  EK= 0.32070E+01 SP= -.33E+01 SK= 0.16E-02 mag=     -0.064
       N       E                     dE             d eps       ncg     rms          rms(c)
DAV:   1    -0.325970097904E+02   -0.48311E-01   -0.20734E-02  2792   0.126E+00    0.398E-02
RMM:   2    -0.325981527621E+02   -0.11430E-02   -0.45221E-03  1540   0.296E-01
    151 T=   973. E= -.32652657E+02 F= -.32598153E+02 E0= -.32555425E+02  EK= 0.32700E+01 SP= -.33E+01 SK= 0.85E-05 mag=      0.116
       N       E                     dE             d eps       ncg     rms          rms(c)
DAV:   1    -0.326453123543E+02   -0.48303E-01   -0.17835E-02  2760   0.119E+00    0.646E-02
RMM:   2    -0.326470662489E+02   -0.17539E-02   -0.51627E-03  1516   0.311E-01    0.511E-02
RMM:   3    -0.326479521080E+02   -0.88586E-03   -0.19345E-03  1402   0.126E-01
    152 T=   986. E= -.32649533E+02 F= -.32647952E+02 E0= -.32605389E+02  EK= 0.33153E+01 SP= -.33E+01 SK= 0.14E-02 mag=      0.090
       N       E                     dE             d eps       ncg     rms          rms(c)
DAV:   1    -0.326968128218E+02   -0.49747E-01   -0.25806E-02  2672   0.122E+00    0.554E-02
RMM:   2    -0.326982492337E+02   -0.14364E-02   -0.39453E-03  1515   0.305E-01    0.392E-02
RMM:   3    -0.326985558562E+02   -0.30662E-03   -0.84781E-04  1230   0.107E-01
    153 T=   995. E= -.32645429E+02 F= -.32698556E+02 E0= -.32655860E+02  EK= 0.33433E+01 SP= -.33E+01 SK= 0.66E-02 mag=     -0.050
       N       E                     dE             d eps       ncg     rms          rms(c)
DAV:   1    -0.327471105755E+02   -0.48861E-01   -0.32261E-02  2808   0.123E+00    0.560E-02
RMM:   2    -0.327483526085E+02   -0.12420E-02   -0.43648E-03  1572   0.278E-01
    154 T=   997. E= -.32639502E+02 F= -.32748353E+02 E0= -.32705866E+02  EK= 0.33520E+01 SP= -.33E+01 SK= 0.16E-01 mag=     -0.190
       N       E                     dE             d eps       ncg     rms          rms(c)
DAV:   1    -0.327971516647E+02   -0.50041E-01   -0.21745E-02  2920   0.123E+00    0.549E-02
RMM:   2    -0.327985080527E+02   -0.13564E-02   -0.44458E-03  1571   0.272E-01    0.399E-02
RMM:   3    -0.327989127271E+02   -0.40467E-03   -0.11621E-03  1364   0.111E-01
    155 T=   993. E= -.32637130E+02 F= -.32798913E+02 E0= -.32756391E+02  EK= 0.33377E+01 SP= -.32E+01 SK= 0.29E-01 mag=     -0.100
       N       E                     dE             d eps       ncg     rms          rms(c)
DAV:   1    -0.328470856512E+02   -0.48578E-01   -0.20899E-02  2664   0.123E+00    0.556E-02
RMM:   2    -0.328482240247E+02   -0.11384E-02   -0.33029E-03  1511   0.277E-01
    156 T=   984. E= -.32632069E+02 F= -.32848224E+02 E0= -.32805624E+02  EK= 0.33055E+01 SP= -.31E+01 SK= 0.46E-01 mag=      0.142
       N       E                     dE             d eps       ncg     rms          rms(c)
DAV:   1    -0.328921910474E+02   -0.45105E-01   -0.27689E-02  3064   0.129E+00    0.834E-02
RMM:   2    -0.328942261312E+02   -0.20351E-02   -0.48598E-03  1560   0.257E-01    0.645E-02
RMM:   3    -0.328955131483E+02   -0.12870E-02   -0.18807E-03  1406   0.112E-01
    157 T=   968. E= -.32626341E+02 F= -.32895513E+02 E0= -.32853179E+02  EK= 0.32545E+01 SP= -.30E+01 SK= 0.64E-01 mag=      0.125
       N       E                     dE             d eps       ncg     rms          rms(c)
DAV:   1    -0.329407857663E+02   -0.46560E-01   -0.18811E-02  2544   0.112E+00    0.640E-02
RMM:   2    -0.329420420735E+02   -0.12563E-02   -0.31945E-03  1501   0.262E-01
    158 T=   948. E= -.32621966E+02 F= -.32942042E+02 E0= -.32899345E+02  EK= 0.31866E+01 SP= -.30E+01 SK= 0.84E-01 mag=     -0.097
       N       E                     dE             d eps       ncg     rms          rms(c)
DAV:   1    -0.329818694549E+02   -0.41084E-01   -0.34838E-02  3048   0.126E+00    0.947E-02
RMM:   2    -0.329840547980E+02   -0.21853E-02   -0.49456E-03  1570   0.263E-01    0.696E-02
RMM:   3    -0.329857169292E+02   -0.16621E-02   -0.24113E-03  1403   0.118E-01    0.431E-02
RMM:   4    -0.329863183869E+02   -0.60146E-03   -0.10365E-03  1360   0.763E-02
    159 T=   924. E= -.32617466E+02 F= -.32986318E+02 E0= -.32943497E+02  EK= 0.31050E+01 SP= -.28E+01 SK= 0.10E+00 mag=     -0.051
       N       E                     dE             d eps       ncg     rms          rms(c)
DAV:   1    -0.330248687679E+02   -0.39152E-01   -0.16841E-02  2152   0.109E+00    0.925E-02
RMM:   2    -0.330267126186E+02   -0.18439E-02   -0.42183E-03  1496   0.264E-01    0.633E-02
RMM:   3    -0.330277095951E+02   -0.99698E-03   -0.18628E-03  1398   0.115E-01
    160 T=   896. E= -.32613784E+02 F= -.33027710E+02 E0= -.32984754E+02  EK= 0.30117E+01 SP= -.27E+01 SK= 0.12E+00 mag=      0.072
       N       E                     dE             d eps       ncg     rms          rms(c)
DAV:   1    -0.330657671904E+02   -0.39055E-01   -0.26695E-02  2736   0.114E+00    0.632E-02
RMM:   2    -0.330668445617E+02   -0.10774E-02   -0.38769E-03  1529   0.270E-01
    161 T=   867. E= -.32607959E+02 F= -.33066845E+02 E0= -.33023808E+02  EK= 0.29137E+01 SP= -.26E+01 SK= 0.13E+00 mag=      0.171
       N       E                     dE             d eps       ncg     rms          rms(c)
DAV:   1    -0.331026497690E+02   -0.36883E-01   -0.20059E-02  2800   0.117E+00    0.512E-02
RMM:   2    -0.331037546118E+02   -0.11048E-02   -0.39551E-03  1555   0.254E-01
    162 T=   836. E= -.32605090E+02 F= -.33103755E+02 E0= -.33060392E+02  EK= 0.28096E+01 SP= -.25E+01 SK= 0.14E+00 mag=      0.170
       N       E                     dE             d eps       ncg     rms          rms(c)
DAV:   1    -0.331372931118E+02   -0.34643E-01   -0.12396E-02  2104   0.105E+00    0.503E-02
RMM:   2    -0.331383564491E+02   -0.10633E-02   -0.38654E-03  1546   0.277E-01
    163 T=   805. E= -.32601303E+02 F= -.33138356E+02 E0= -.33094503E+02  EK= 0.27062E+01 SP= -.23E+01 SK= 0.14E+00 mag=      0.051
       N       E                     dE             d eps       ncg     rms          rms(c)
DAV:   1    -0.331695548430E+02   -0.32262E-01   -0.19340E-02  2736   0.114E+00    0.447E-02
RMM:   2    -0.331705993753E+02   -0.10445E-02   -0.41306E-03  1531   0.266E-01
    164 T=   776. E= -.32595593E+02 F= -.33170599E+02 E0= -.33126400E+02  EK= 0.26071E+01 SP= -.22E+01 SK= 0.14E+00 mag=     -0.131
       N       E                     dE             d eps       ncg     rms          rms(c)
DAV:   1    -0.331985257516E+02   -0.28971E-01   -0.10738E-02  2152   0.982E-01    0.583E-02
RMM:   2    -0.331998915622E+02   -0.13658E-02   -0.50649E-03  1587   0.289E-01    0.450E-02
RMM:   3    -0.332004469624E+02   -0.55540E-03   -0.14437E-03  1454   0.118E-01
    165 T=   747. E= -.32591210E+02 F= -.33200447E+02 E0= -.33155927E+02  EK= 0.25112E+01 SP= -.20E+01 SK= 0.14E+00 mag=     -0.114
       N       E                     dE             d eps       ncg     rms          rms(c)
DAV:   1    -0.332275870446E+02   -0.27695E-01   -0.15343E-02  2512   0.100E+00    0.454E-02
RMM:   2    -0.332284612523E+02   -0.87421E-03   -0.25701E-03  1468   0.232E-01
    166 T=   721. E= -.32585658E+02 F= -.33228461E+02 E0= -.33183242E+02  EK= 0.24234E+01 SP= -.19E+01 SK= 0.13E+00 mag=      0.061
       N       E                     dE             d eps       ncg     rms          rms(c)
DAV:   1    -0.332520532453E+02   -0.24466E-01   -0.18522E-02  2768   0.105E+00    0.603E-02
RMM:   2    -0.332532963762E+02   -0.12431E-02   -0.36217E-03  1531   0.229E-01
    167 T=   697. E= -.32580220E+02 F= -.33253296E+02 E0= -.33207884E+02  EK= 0.23421E+01 SP= -.18E+01 SK= 0.11E+00 mag=      0.236
       N       E                     dE             d eps       ncg     rms          rms(c)
DAV:   1    -0.332758420107E+02   -0.23789E-01   -0.84953E-03  1920   0.921E-01    0.629E-02
RMM:   2    -0.332770256960E+02   -0.11837E-02   -0.49161E-03  1560   0.272E-01
    168 T=   675. E= -.32576201E+02 F= -.33277026E+02 E0= -.33231079E+02  EK= 0.22693E+01 SP= -.17E+01 SK= 0.94E-01 mag=      0.263
       N       E                     dE             d eps       ncg     rms          rms(c)
DAV:   1    -0.332988129808E+02   -0.22971E-01   -0.17812E-02  2640   0.105E+00    0.417E-02
RMM:   2    -0.332997275105E+02   -0.91453E-03   -0.39319E-03  1540   0.255E-01
    169 T=   657. E= -.32572016E+02 F= -.33299728E+02 E0= -.33252765E+02  EK= 0.22071E+01 SP= -.16E+01 SK= 0.77E-01 mag=      0.099
       N       E                     dE             d eps       ncg     rms          rms(c)
DAV:   1    -0.333189900203E+02   -0.20177E-01   -0.11967E-02  2208   0.879E-01    0.458E-02
RMM:   2    -0.333201008972E+02   -0.11109E-02   -0.48595E-03  1532   0.292E-01
    170 T=   641. E= -.32566778E+02 F= -.33320101E+02 E0= -.33272551E+02  EK= 0.21556E+01 SP= -.15E+01 SK= 0.59E-01 mag=     -0.173
       N       E                     dE             d eps       ncg     rms          rms(c)
DAV:   1    -0.333364336419E+02   -0.17444E-01   -0.14113E-02  2568   0.965E-01    0.750E-02
RMM:   2    -0.333379044939E+02   -0.14709E-02   -0.41691E-03  1550   0.252E-01    0.591E-02
RMM:   3    -0.333387226864E+02   -0.81819E-03   -0.13898E-03  1467   0.105E-01
    171 T=   629. E= -.32561901E+02 F= -.33338723E+02 E0= -.33290859E+02  EK= 0.21141E+01 SP= -.14E+01 SK= 0.42E-01 mag=     -0.154
       N       E                     dE             d eps       ncg     rms          rms(c)
DAV:   1    -0.333557327081E+02   -0.17828E-01   -0.15027E-02  2280   0.893E-01    0.588E-02
RMM:   2    -0.333566521261E+02   -0.91942E-03   -0.27422E-03  1474   0.210E-01
    172 T=   620. E= -.32558279E+02 F= -.33356652E+02 E0= -.33307699E+02  EK= 0.20827E+01 SP= -.13E+01 SK= 0.27E-01 mag=      0.101
       N       E                     dE             d eps       ncg     rms          rms(c)
DAV:   1    -0.333693033532E+02   -0.13571E-01   -0.21108E-02  2488   0.947E-01    0.892E-02
RMM:   2    -0.333711431119E+02   -0.18398E-02   -0.40751E-03  1534   0.231E-01    0.707E-02
RMM:   3    -0.333723115943E+02   -0.11685E-02   -0.15074E-03  1444   0.105E-01
    173 T=   614. E= -.32553830E+02 F= -.33372312E+02 E0= -.33323168E+02  EK= 0.20622E+01 SP= -.13E+01 SK= 0.15E-01 mag=      0.191
       N       E                     dE             d eps       ncg     rms          rms(c)
DAV:   1    -0.333866532825E+02   -0.15510E-01   -0.17333E-02  2272   0.866E-01    0.782E-02
RMM:   2    -0.333878411469E+02   -0.11879E-02   -0.33508E-03  1428   0.231E-01
    174 T=   611. E= -.32549987E+02 F= -.33387841E+02 E0= -.33337603E+02  EK= 0.20530E+01 SP= -.12E+01 SK= 0.65E-02 mag=      0.087
       N       E                     dE             d eps       ncg     rms          rms(c)
DAV:   1    -0.333992475065E+02   -0.12594E-01   -0.25084E-02  2544   0.966E-01    0.900E-02
RMM:   2    -0.334009765458E+02   -0.17290E-02   -0.39431E-03  1532   0.239E-01    0.645E-02
RMM:   3    -0.334019385781E+02   -0.96203E-03   -0.15306E-03  1442   0.105E-01
    175 T=   611. E= -.32546163E+02 F= -.33401939E+02 E0= -.33350986E+02  EK= 0.20545E+01 SP= -.12E+01 SK= 0.14E-02 mag=     -0.071
       N       E                     dE             d eps       ncg     rms          rms(c)
DAV:   1    -0.334123869335E+02   -0.11410E-01   -0.20806E-02  1920   0.859E-01    0.994E-02
RMM:   2    -0.334139555775E+02   -0.15686E-02   -0.36483E-03  1511   0.234E-01    0.681E-02
RMM:   3    -0.334146128121E+02   -0.65723E-03   -0.11884E-03  1386   0.100E-01
    176 T=   614. E= -.32543830E+02 F= -.33414613E+02 E0= -.33363169E+02  EK= 0.20650E+01 SP= -.12E+01 SK= 0.25E-04 mag=     -0.134
       N       E                     dE             d eps       ncg     rms          rms(c)
DAV:   1    -0.334261054966E+02   -0.12150E-01   -0.27982E-02  2440   0.917E-01    0.592E-02
RMM:   2    -0.334268267223E+02   -0.72123E-03   -0.32867E-03  1528   0.246E-01
    177 T=   621. E= -.32540811E+02 F= -.33426827E+02 E0= -.33374556E+02  EK= 0.20877E+01 SP= -.12E+01 SK= 0.22E-02 mag=     -0.060
       N       E                     dE             d eps       ncg     rms          rms(c)
DAV:   1    -0.334368636399E+02   -0.10758E-01   -0.20605E-02  2592   0.958E-01    0.449E-02
RMM:   2    -0.334375162346E+02   -0.65259E-03   -0.32818E-03  1534   0.234E-01
    178 T=   631. E= -.32538018E+02 F= -.33437516E+02 E0= -.33384702E+02  EK= 0.21203E+01 SP= -.12E+01 SK= 0.74E-02 mag=      0.112
       N       E                     dE             d eps       ncg     rms          rms(c)
DAV:   1    -0.334454213452E+02   -0.85577E-02   -0.11732E-02  2248   0.884E-01    0.565E-02
RMM:   2    -0.334463506826E+02   -0.92934E-03   -0.32708E-03  1523   0.254E-01
    179 T=   644. E= -.32534611E+02 F= -.33446351E+02 E0= -.33393435E+02  EK= 0.21632E+01 SP= -.13E+01 SK= 0.15E-01 mag=      0.274
       N       E                     dE             d eps       ncg     rms          rms(c)
DAV:   1    -0.334532364160E+02   -0.78151E-02   -0.12772E-02  2488   0.992E-01    0.652E-02
RMM:   2    -0.334543266944E+02   -0.10903E-02   -0.34435E-03  1532   0.245E-01
    180 T=   660. E= -.32530613E+02 F= -.33454327E+02 E0= -.33401086E+02  EK= 0.22171E+01 SP= -.13E+01 SK= 0.25E-01 mag=      0.311
       N       E                     dE             d eps       ncg     rms          rms(c)
DAV:   1    -0.334613600803E+02   -0.81237E-02   -0.81182E-03  2096   0.912E-01    0.360E-02
RMM:   2    -0.334621851465E+02   -0.82507E-03   -0.35244E-03  1540   0.264E-01
    181 T=   679. E= -.32527061E+02 F= -.33462185E+02 E0= -.33408022E+02  EK= 0.22813E+01 SP= -.14E+01 SK= 0.35E-01 mag=      0.157
       N       E                     dE             d eps       ncg     rms          rms(c)
DAV:   1    -0.334673915812E+02   -0.60315E-02   -0.14388E-02  2384   0.100E+00    0.464E-02
RMM:   2    -0.334682105165E+02   -0.81894E-03   -0.36498E-03  1531   0.263E-01
    182 T=   701. E= -.32522616E+02 F= -.33468211E+02 E0= -.33413588E+02  EK= 0.23548E+01 SP= -.15E+01 SK= 0.45E-01 mag=     -0.143
       N       E                     dE             d eps       ncg     rms          rms(c)
DAV:   1    -0.334697145513E+02   -0.23230E-02   -0.14234E-02  2416   0.960E-01    0.720E-02
RMM:   2    -0.334712927179E+02   -0.15782E-02   -0.43819E-03  1523   0.275E-01    0.581E-02
RMM:   3    -0.334721691775E+02   -0.87646E-03   -0.15959E-03  1458   0.115E-01
    183 T=   725. E= -.32518870E+02 F= -.33472169E+02 E0= -.33417889E+02  EK= 0.24350E+01 SP= -.15E+01 SK= 0.54E-01 mag=     -0.240
       N       E                     dE             d eps       ncg     rms          rms(c)
DAV:   1    -0.334755021289E+02   -0.42094E-02   -0.16602E-02  2536   0.983E-01    0.554E-02
RMM:   2    -0.334763793095E+02   -0.87718E-03   -0.27962E-03  1475   0.230E-01
    184 T=   751. E= -.32515507E+02 F= -.33476379E+02 E0= -.33421195E+02  EK= 0.25233E+01 SP= -.16E+01 SK= 0.60E-01 mag=     -0.095
       N       E                     dE             d eps       ncg     rms          rms(c)
DAV:   1    -0.334765143912E+02   -0.10123E-02   -0.22754E-02  2880   0.109E+00    0.622E-02
RMM:   2    -0.334777548670E+02   -0.12405E-02   -0.36454E-03  1545   0.229E-01
    185 T=   778. E= -.32511554E+02 F= -.33477755E+02 E0= -.33422645E+02  EK= 0.26162E+01 SP= -.17E+01 SK= 0.65E-01 mag=      0.207
       N       E                     dE             d eps       ncg     rms          rms(c)
DAV:   1    -0.334753896397E+02    0.11248E-02   -0.85327E-03  1928   0.976E-01    0.768E-02
RMM:   2    -0.334769924797E+02   -0.16028E-02   -0.53505E-03  1562   0.304E-01    0.576E-02
RMM:   3    -0.334779048181E+02   -0.91234E-03   -0.20523E-03  1395   0.131E-01
    186 T=   807. E= -.32509726E+02 F= -.33477905E+02 E0= -.33423250E+02  EK= 0.27108E+01 SP= -.18E+01 SK= 0.65E-01 mag=      0.292
       N       E                     dE             d eps       ncg     rms          rms(c)
DAV:   1    -0.334757347971E+02    0.12577E-02   -0.21755E-02  2616   0.111E+00    0.568E-02
RMM:   2    -0.334769153835E+02   -0.11806E-02   -0.35832E-03  1474   0.275E-01
    187 T=   836. E= -.32505650E+02 F= -.33476915E+02 E0= -.33421523E+02  EK= 0.28092E+01 SP= -.19E+01 SK= 0.63E-01 mag=      0.111
       N       E                     dE             d eps       ncg     rms          rms(c)
DAV:   1    -0.334717272326E+02    0.40076E-02   -0.22780E-02  3032   0.118E+00    0.720E-02
RMM:   2    -0.334734017086E+02   -0.16745E-02   -0.43368E-03  1533   0.239E-01    0.535E-02
RMM:   3    -0.334742011684E+02   -0.79946E-03   -0.14504E-03  1407   0.101E-01
    188 T=   864. E= -.32502623E+02 F= -.33474201E+02 E0= -.33418979E+02  EK= 0.29050E+01 SP= -.20E+01 SK= 0.57E-01 mag=     -0.159
       N       E                     dE             d eps       ncg     rms          rms(c)
DAV:   1    -0.334670148192E+02    0.63869E-02   -0.19800E-02  2080   0.104E+00    0.847E-02
RMM:   2    -0.334687933119E+02   -0.17785E-02   -0.41112E-03  1517   0.263E-01    0.602E-02
RMM:   3    -0.334694698517E+02   -0.67654E-03   -0.12858E-03  1418   0.107E-01
    189 T=   891. E= -.32500408E+02 F= -.33469470E+02 E0= -.33414781E+02  EK= 0.29952E+01 SP= -.21E+01 SK= 0.49E-01 mag=     -0.227
       N       E                     dE             d eps       ncg     rms          rms(c)
DAV:   1    -0.334626813665E+02    0.61119E-02   -0.29092E-02  3008   0.115E+00    0.485E-02
RMM:   2    -0.334637651758E+02   -0.10838E-02   -0.35356E-03  1561   0.264E-01
    190 T=   916. E= -.32497370E+02 F= -.33463765E+02 E0= -.33408764E+02  EK= 0.30795E+01 SP= -.22E+01 SK= 0.39E-01 mag=     -0.060
       N       E                     dE             d eps       ncg     rms          rms(c)
DAV:   1    -0.334541286863E+02    0.85527E-02   -0.25746E-02  3056   0.121E+00    0.529E-02
RMM:   2    -0.334554307264E+02   -0.13020E-02   -0.42352E-03  1564   0.256E-01
    191 T=   937. E= -.32495958E+02 F= -.33455431E+02 E0= -.33401101E+02  EK= 0.31506E+01 SP= -.22E+01 SK= 0.29E-01 mag=      0.236
       N       E                     dE             d eps       ncg     rms          rms(c)
DAV:   1    -0.334425785091E+02    0.11550E-01   -0.16845E-02  2216   0.112E+00    0.774E-02
RMM:   2    -0.334446066180E+02   -0.20281E-02   -0.51341E-03  1569   0.306E-01    0.598E-02
RMM:   3    -0.334455272324E+02   -0.92061E-03   -0.18740E-03  1462   0.127E-01
    192 T=   955. E= -.32494609E+02 F= -.33445527E+02 E0= -.33392068E+02  EK= 0.32082E+01 SP= -.23E+01 SK= 0.19E-01 mag=      0.191
       N       E                     dE             d eps       ncg     rms          rms(c)
DAV:   1    -0.334333372425E+02    0.11269E-01   -0.29703E-02  2968   0.123E+00    0.514E-02
RMM:   2    -0.334347798037E+02   -0.14426E-02   -0.34863E-03  1477   0.264E-01    0.338E-02
RMM:   3    -0.334349932620E+02   -0.21346E-03   -0.73501E-04  1130   0.914E-02
    193 T=   968. E= -.32491988E+02 F= -.33434993E+02 E0= -.33381438E+02  EK= 0.32521E+01 SP= -.23E+01 SK= 0.99E-02 mag=     -0.072
       N       E                     dE             d eps       ncg     rms          rms(c)
DAV:   1    -0.334190473923E+02    0.15732E-01   -0.26745E-02  2968   0.116E+00    0.661E-02
RMM:   2    -0.334207848638E+02   -0.17375E-02   -0.42048E-03  1509   0.246E-01    0.524E-02
RMM:   3    -0.334213426134E+02   -0.55775E-03   -0.10916E-03  1420   0.102E-01
    194 T=   975. E= -.32488654E+02 F= -.33421343E+02 E0= -.33368953E+02  EK= 0.32773E+01 SP= -.23E+01 SK= 0.37E-02 mag=     -0.235
       N       E                     dE             d eps       ncg     rms          rms(c)
DAV:   1    -0.334058546196E+02    0.14930E-01   -0.20676E-02  2560   0.122E+00    0.517E-02
RMM:   2    -0.334072083768E+02   -0.13538E-02   -0.35623E-03  1577   0.257E-01    0.312E-02
RMM:   3    -0.334075272686E+02   -0.31889E-03   -0.10363E-03  1313   0.104E-01
    195 T=   977. E= -.32486903E+02 F= -.33407527E+02 E0= -.33355492E+02  EK= 0.32832E+01 SP= -.24E+01 SK= 0.42E-03 mag=     -0.137
       N       E                     dE             d eps       ncg     rms          rms(c)
DAV:   1    -0.333906536111E+02    0.16555E-01   -0.21773E-02  2360   0.116E+00    0.360E-02
RMM:   2    -0.333918456288E+02   -0.11920E-02   -0.32807E-03  1553   0.255E-01
    196 T=   974. E= -.32482487E+02 F= -.33391846E+02 E0= -.33340494E+02  EK= 0.32721E+01 SP= -.24E+01 SK= 0.38E-03 mag=      0.155
       N       E                     dE             d eps       ncg     rms          rms(c)
DAV:   1    -0.333716259507E+02    0.19028E-01   -0.27672E-02  3032   0.125E+00    0.808E-02
RMM:   2    -0.333736039056E+02   -0.19780E-02   -0.41999E-03  1541   0.245E-01    0.608E-02
RMM:   3    -0.333749057822E+02   -0.13019E-02   -0.21315E-03  1400   0.118E-01
    197 T=   964. E= -.32478940E+02 F= -.33374906E+02 E0= -.33324735E+02  EK= 0.32415E+01 SP= -.23E+01 SK= 0.34E-02 mag=      0.146
       N       E                     dE             d eps       ncg     rms          rms(c)
DAV:   1    -0.333560220616E+02    0.17582E-01   -0.20726E-02  2264   0.113E+00    0.481E-02
RMM:   2    -0.333574885723E+02   -0.14665E-02   -0.35217E-03  1567   0.269E-01    0.297E-02
RMM:   3    -0.333577256183E+02   -0.23705E-03   -0.10961E-03  1279   0.990E-02
    198 T=   950. E= -.32476826E+02 F= -.33357726E+02 E0= -.33308131E+02  EK= 0.31930E+01 SP= -.23E+01 SK= 0.88E-02 mag=     -0.059
       N       E                     dE             d eps       ncg     rms          rms(c)
DAV:   1    -0.333365111879E+02    0.20977E-01   -0.28584E-02  3016   0.117E+00    0.646E-02
RMM:   2    -0.333380566279E+02   -0.15454E-02   -0.35135E-03  1536   0.238E-01    0.483E-02
RMM:   3    -0.333385458704E+02   -0.48924E-03   -0.95007E-04  1289   0.947E-02
    199 T=   931. E= -.32472878E+02 F= -.33338546E+02 E0= -.33290104E+02  EK= 0.31304E+01 SP= -.23E+01 SK= 0.16E-01 mag=     -0.163
       N       E                     dE             d eps       ncg     rms          rms(c)
DAV:   1    -0.333186463276E+02    0.19410E-01   -0.18777E-02  2552   0.115E+00    0.418E-02
RMM:   2    -0.333197833662E+02   -0.11370E-02   -0.31354E-03  1567   0.242E-01
    200 T=   909. E= -.32469802E+02 F= -.33319783E+02 E0= -.33272188E+02  EK= 0.30558E+01 SP= -.22E+01 SK= 0.23E-01 mag=     -0.114
       N       E                     dE             d eps       ncg     rms          rms(c)
DAV:   1    -0.332994409382E+02    0.19205E-01   -0.23374E-02  2920   0.116E+00    0.334E-02
RMM:   2    -0.333006228486E+02   -0.11819E-02   -0.39312E-03  1565   0.240E-01
    201 T=   884. E= -.32467653E+02 F= -.33300623E+02 E0= -.33253830E+02  EK= 0.29713E+01 SP= -.22E+01 SK= 0.31E-01 mag=      0.049
       N       E                     dE             d eps       ncg     rms          rms(c)
DAV:   1    -0.332794159078E+02    0.20025E-01   -0.19375E-02  2728   0.110E+00    0.513E-02
RMM:   2    -0.332808248242E+02   -0.14089E-02   -0.36569E-03  1555   0.265E-01    0.359E-02
RMM:   3    -0.332812027818E+02   -0.37796E-03   -0.10857E-03  1384   0.104E-01
    202 T=   857. E= -.32465876E+02 F= -.33281203E+02 E0= -.33235478E+02  EK= 0.28805E+01 SP= -.21E+01 SK= 0.37E-01 mag=      0.090
       N       E                     dE             d eps       ncg     rms          rms(c)
DAV:   1    -0.332611793345E+02    0.19645E-01   -0.23208E-02  2808   0.108E+00    0.339E-02
RMM:   2    -0.332623265809E+02   -0.11472E-02   -0.27423E-03  1500   0.230E-01
    203 T=   830. E= -.32461521E+02 F= -.33262327E+02 E0= -.33217485E+02  EK= 0.27901E+01 SP= -.20E+01 SK= 0.40E-01 mag=      0.020
       N       E                     dE             d eps       ncg     rms          rms(c)
DAV:   1    -0.332427403602E+02    0.18439E-01   -0.21910E-02  2848   0.114E+00    0.380E-02
RMM:   2    -0.332438316603E+02   -0.10913E-02   -0.36856E-03  1544   0.228E-01
    204 T=   803. E= -.32458402E+02 F= -.33243832E+02 E0= -.33199864E+02  EK= 0.26987E+01 SP= -.20E+01 SK= 0.42E-01 mag=     -0.094
       N       E                     dE             d eps       ncg     rms          rms(c)
DAV:   1    -0.332251311628E+02    0.17609E-01   -0.14025E-02  2200   0.987E-01    0.430E-02
RMM:   2    -0.332263707662E+02   -0.12396E-02   -0.40075E-03  1554   0.273E-01
    205 T=   777. E= -.32454738E+02 F= -.33226371E+02 E0= -.33183376E+02  EK= 0.26110E+01 SP= -.19E+01 SK= 0.41E-01 mag=     -0.135
       N       E                     dE             d eps       ncg     rms          rms(c)
DAV:   1    -0.332092635661E+02    0.15868E-01   -0.26411E-02  3008   0.113E+00    0.371E-02
RMM:   2    -0.332104196312E+02   -0.11561E-02   -0.40570E-03  1548   0.258E-01
    206 T=   753. E= -.32450648E+02 F= -.33210420E+02 E0= -.33168185E+02  EK= 0.25295E+01 SP= -.18E+01 SK= 0.38E-01 mag=     -0.079
       N       E                     dE             d eps       ncg     rms          rms(c)
DAV:   1    -0.331943708099E+02    0.14893E-01   -0.13849E-02  2376   0.943E-01    0.318E-02
RMM:   2    -0.331955122996E+02   -0.11415E-02   -0.41696E-03  1532   0.269E-01
    207 T=   730. E= -.32447720E+02 F= -.33195512E+02 E0= -.33153982E+02  EK= 0.24537E+01 SP= -.17E+01 SK= 0.33E-01 mag=      0.038
       N       E                     dE             d eps       ncg     rms          rms(c)
DAV:   1    -0.331810701814E+02    0.13301E-01   -0.18071E-02  2688   0.104E+00    0.406E-02
RMM:   2    -0.331821485278E+02   -0.10783E-02   -0.35469E-03  1546   0.249E-01
    208 T=   710. E= -.32444131E+02 F= -.33182149E+02 E0= -.33141462E+02  EK= 0.23870E+01 SP= -.17E+01 SK= 0.27E-01 mag=      0.128
       N       E                     dE             d eps       ncg     rms          rms(c)
DAV:   1    -0.331694998029E+02    0.11570E-01   -0.15522E-02  2560   0.960E-01    0.435E-02
RMM:   2    -0.331706682222E+02   -0.11684E-02   -0.36511E-03  1537   0.253E-01
    209 T=   694. E= -.32440064E+02 F= -.33170668E+02 E0= -.33130673E+02  EK= 0.23307E+01 SP= -.16E+01 SK= 0.20E-01 mag=      0.128
       N       E                     dE             d eps       ncg     rms          rms(c)
DAV:   1    -0.331608329831E+02    0.86668E-02   -0.14784E-02  2448   0.101E+00    0.299E-02
RMM:   2    -0.331618197368E+02   -0.98675E-03   -0.39241E-03  1558   0.257E-01
    210 T=   680. E= -.32436285E+02 F= -.33161820E+02 E0= -.33122322E+02  EK= 0.22854E+01 SP= -.16E+01 SK= 0.13E-01 mag=      0.029
       N       E                     dE             d eps       ncg     rms          rms(c)
DAV:   1    -0.331536549277E+02    0.71781E-02   -0.12970E-02  2288   0.935E-01    0.366E-02
RMM:   2    -0.331546413955E+02   -0.98647E-03   -0.38004E-03  1539   0.254E-01
    211 T=   670. E= -.32432608E+02 F= -.33154641E+02 E0= -.33115755E+02  EK= 0.22507E+01 SP= -.15E+01 SK= 0.75E-02 mag=     -0.106
       N       E                     dE             d eps       ncg     rms          rms(c)
DAV:   1    -0.331479604480E+02    0.56945E-02   -0.15553E-02  2616   0.977E-01    0.540E-02
RMM:   2    -0.331492926190E+02   -0.13322E-02   -0.41013E-03  1544   0.248E-01
    212 T=   663. E= -.32428730E+02 F= -.33149293E+02 E0= -.33111078E+02  EK= 0.22275E+01 SP= -.15E+01 SK= 0.31E-02 mag=     -0.158
       N       E                     dE             d eps       ncg     rms          rms(c)
DAV:   1    -0.331466219111E+02    0.13385E-02   -0.14551E-02  2472   0.924E-01    0.388E-02
RMM:   2    -0.331475594414E+02   -0.93753E-03   -0.38169E-03  1538   0.260E-01
    213 T=   659. E= -.32426008E+02 F= -.33147559E+02 E0= -.33109613E+02  EK= 0.22163E+01 SP= -.15E+01 SK= 0.59E-03 mag=     -0.083
       N       E                     dE             d eps       ncg     rms          rms(c)
DAV:   1    -0.331467269890E+02   -0.10508E-03   -0.13798E-02  2496   0.947E-01    0.372E-02
RMM:   2    -0.331476718569E+02   -0.94487E-03   -0.38370E-03  1549   0.257E-01
    214 T=   660. E= -.32422535E+02 F= -.33147672E+02 E0= -.33110106E+02  EK= 0.22174E+01 SP= -.15E+01 SK= 0.58E-04 mag=      0.080
       N       E                     dE             d eps       ncg     rms          rms(c)
DAV:   1    -0.331479786354E+02   -0.12516E-02   -0.11754E-02  2528   0.943E-01    0.617E-02
RMM:   2    -0.331493556162E+02   -0.13770E-02   -0.38553E-03  1528   0.242E-01    0.477E-02
RMM:   3    -0.331500663574E+02   -0.71074E-03   -0.15862E-03  1439   0.103E-01
    215 T=   663. E= -.32419829E+02 F= -.33150066E+02 E0= -.33112930E+02  EK= 0.22296E+01 SP= -.15E+01 SK= 0.15E-02 mag=      0.059
       N       E                     dE             d eps       ncg     rms          rms(c)
DAV:   1    -0.331542831595E+02   -0.49275E-02   -0.12353E-02  2264   0.914E-01    0.499E-02
RMM:   2    -0.331552578055E+02   -0.97465E-03   -0.22984E-03  1429   0.216E-01
    216 T=   671. E= -.32416155E+02 F= -.33155258E+02 E0= -.33118333E+02  EK= 0.22552E+01 SP= -.15E+01 SK= 0.48E-02 mag=     -0.094
       N       E                     dE             d eps       ncg     rms          rms(c)
DAV:   1    -0.331602790687E+02   -0.59959E-02   -0.21640E-02  2696   0.101E+00    0.772E-02
RMM:   2    -0.331618212569E+02   -0.15422E-02   -0.33060E-03  1528   0.210E-01    0.574E-02
RMM:   3    -0.331628875722E+02   -0.10663E-02   -0.15727E-03  1400   0.989E-02
    217 T=   682. E= -.32412814E+02 F= -.33162888E+02 E0= -.33126250E+02  EK= 0.22921E+01 SP= -.16E+01 SK= 0.95E-02 mag=     -0.060
       N       E                     dE             d eps       ncg     rms          rms(c)
DAV:   1    -0.331712795691E+02   -0.94583E-02   -0.97398E-03  1992   0.895E-01    0.668E-02
RMM:   2    -0.331726004393E+02   -0.13209E-02   -0.32132E-03  1525   0.233E-01
    218 T=   696. E= -.32409461E+02 F= -.33172600E+02 E0= -.33136052E+02  EK= 0.23400E+01 SP= -.16E+01 SK= 0.15E-01 mag=      0.096
       N       E                     dE             d eps       ncg     rms          rms(c)
DAV:   1    -0.331820532233E+02   -0.10774E-01   -0.23626E-02  2808   0.106E+00    0.852E-02
RMM:   2    -0.331837741570E+02   -0.17209E-02   -0.35178E-03  1525   0.221E-01    0.632E-02
RMM:   3    -0.331847774930E+02   -0.10033E-02   -0.14381E-03  1400   0.992E-02
    219 T=   714. E= -.32406709E+02 F= -.33184777E+02 E0= -.33148445E+02  EK= 0.23982E+01 SP= -.16E+01 SK= 0.21E-01 mag=      0.058
       N       E                     dE             d eps       ncg     rms          rms(c)
DAV:   1    -0.331967356605E+02   -0.12962E-01   -0.18313E-02  2368   0.923E-01    0.880E-02
RMM:   2    -0.331984664056E+02   -0.17307E-02   -0.35019E-03  1514   0.249E-01    0.609E-02
RMM:   3    -0.331990599698E+02   -0.59356E-03   -0.11750E-03  1364   0.986E-02
    220 T=   733. E= -.32405180E+02 F= -.33199060E+02 E0= -.33162675E+02  EK= 0.24648E+01 SP= -.17E+01 SK= 0.26E-01 mag=     -0.036
       N       E                     dE             d eps       ncg     rms          rms(c)
DAV:   1    -0.332137549788E+02   -0.15289E-01   -0.36893E-02  2624   0.103E+00    0.520E-02
RMM:   2    -0.332147105707E+02   -0.95559E-03   -0.36952E-03  1536   0.256E-01
    221 T=   756. E= -.32401875E+02 F= -.33214711E+02 E0= -.33178405E+02  EK= 0.25413E+01 SP= -.18E+01 SK= 0.30E-01 mag=     -0.111
       N       E                     dE             d eps       ncg     rms          rms(c)
DAV:   1    -0.332311132374E+02   -0.17358E-01   -0.25113E-02  2776   0.105E+00    0.466E-02
RMM:   2    -0.332320883218E+02   -0.97508E-03   -0.36788E-03  1538   0.241E-01
    222 T=   780. E= -.32400744E+02 F= -.33232088E+02 E0= -.33195735E+02  EK= 0.26226E+01 SP= -.18E+01 SK= 0.33E-01 mag=     -0.097
       N       E                     dE             d eps       ncg     rms          rms(c)
DAV:   1    -0.332501304880E+02   -0.19017E-01   -0.12139E-02  2408   0.101E+00    0.354E-02
RMM:   2    -0.332509933808E+02   -0.86289E-03   -0.36846E-03  1530   0.278E-01
    223 T=   806. E= -.32398971E+02 F= -.33250993E+02 E0= -.33214434E+02  EK= 0.27096E+01 SP= -.19E+01 SK= 0.34E-01 mag=      0.004
       N       E                     dE             d eps       ncg     rms          rms(c)
DAV:   1    -0.332691674767E+02   -0.19037E-01   -0.17182E-02  2592   0.113E+00    0.419E-02
RMM:   2    -0.332701949496E+02   -0.10275E-02   -0.42695E-03  1553   0.261E-01
    224 T=   833. E= -.32395571E+02 F= -.33270195E+02 E0= -.33233608E+02  EK= 0.28003E+01 SP= -.20E+01 SK= 0.32E-01 mag=      0.111
       N       E                     dE             d eps       ncg     rms          rms(c)
DAV:   1    -0.332885388037E+02   -0.19371E-01   -0.12300E-02  2496   0.103E+00    0.495E-02
RMM:   2    -0.332897197234E+02   -0.11809E-02   -0.42359E-03  1559   0.282E-01
    225 T=   860. E= -.32392062E+02 F= -.33289720E+02 E0= -.33253031E+02  EK= 0.28907E+01 SP= -.20E+01 SK= 0.28E-01 mag=      0.132
       N       E                     dE             d eps       ncg     rms          rms(c)
DAV:   1    -0.333092559765E+02   -0.20717E-01   -0.18076E-02  2584   0.113E+00    0.366E-02
RMM:   2    -0.333102358698E+02   -0.97989E-03   -0.40883E-03  1543   0.273E-01
    226 T=   886. E= -.32388787E+02 F= -.33310236E+02 E0= -.33273141E+02  EK= 0.29786E+01 SP= -.21E+01 SK= 0.23E-01 mag=      0.041
       N       E                     dE             d eps       ncg     rms          rms(c)
DAV:   1    -0.333287530696E+02   -0.19497E-01   -0.11531E-02  2528   0.107E+00    0.351E-02
RMM:   2    -0.333298827823E+02   -0.11297E-02   -0.51091E-03  1558   0.301E-01
    227 T=   910. E= -.32385321E+02 F= -.33329883E+02 E0= -.33292533E+02  EK= 0.30595E+01 SP= -.21E+01 SK= 0.17E-01 mag=     -0.105
       N       E                     dE             d eps       ncg     rms          rms(c)
DAV:   1    -0.333466353497E+02   -0.17882E-01   -0.18627E-02  2936   0.115E+00    0.607E-02
RMM:   2    -0.333481503992E+02   -0.15150E-02   -0.48152E-03  1566   0.281E-01    0.458E-02
RMM:   3    -0.333488123030E+02   -0.66190E-03   -0.17623E-03  1446   0.112E-01
    228 T=   931. E= -.32382596E+02 F= -.33348812E+02 E0= -.33311238E+02  EK= 0.31300E+01 SP= -.22E+01 SK= 0.10E-01 mag=     -0.057
       N       E                     dE             d eps       ncg     rms          rms(c)
DAV:   1    -0.333655408763E+02   -0.17390E-01   -0.15754E-02  2520   0.110E+00    0.561E-02
RMM:   2    -0.333667327294E+02   -0.11919E-02   -0.34081E-03  1533   0.268E-01
    229 T=   949. E= -.32377228E+02 F= -.33366733E+02 E0= -.33328771E+02  EK= 0.31903E+01 SP= -.22E+01 SK= 0.49E-02 mag=      0.108
       N       E                     dE             d eps       ncg     rms          rms(c)
DAV:   1    -0.333803412677E+02   -0.14800E-01   -0.32444E-02  2952   0.123E+00    0.719E-02
RMM:   2    -0.333820255557E+02   -0.16843E-02   -0.46396E-03  1577   0.252E-01    0.541E-02
RMM:   3    -0.333826937536E+02   -0.66820E-03   -0.13110E-03  1452   0.101E-01
    230 T=   962. E= -.32371865E+02 F= -.33382694E+02 E0= -.33344495E+02  EK= 0.32344E+01 SP= -.22E+01 SK= 0.12E-02 mag=      0.095
       N       E                     dE             d eps       ncg     rms          rms(c)
DAV:   1    -0.333960742058E+02   -0.14049E-01   -0.12547E-02  2320   0.108E+00    0.592E-02
RMM:   2    -0.333972166401E+02   -0.11424E-02   -0.36648E-03  1523   0.261E-01
    231 T=   970. E= -.32367327E+02 F= -.33397217E+02 E0= -.33358413E+02  EK= 0.32604E+01 SP= -.22E+01 SK= 0.14E-04 mag=     -0.066
       N       E                     dE             d eps       ncg     rms          rms(c)
DAV:   1    -0.334066989149E+02   -0.10625E-01   -0.30086E-02  3064   0.123E+00    0.741E-02
RMM:   2    -0.334083460984E+02   -0.16472E-02   -0.48173E-03  1567   0.257E-01    0.527E-02
RMM:   3    -0.334093441023E+02   -0.99800E-03   -0.21132E-03  1439   0.115E-01
    232 T=   972. E= -.32362590E+02 F= -.33409344E+02 E0= -.33370213E+02  EK= 0.32670E+01 SP= -.22E+01 SK= 0.18E-02 mag=     -0.072
       N       E                     dE             d eps       ncg     rms          rms(c)
DAV:   1    -0.334180660761E+02   -0.97200E-02   -0.12216E-02  2312   0.109E+00    0.743E-02
RMM:   2    -0.334193443552E+02   -0.12783E-02   -0.39146E-03  1533   0.282E-01
    233 T=   969. E= -.32357100E+02 F= -.33419344E+02 E0= -.33379694E+02  EK= 0.32550E+01 SP= -.22E+01 SK= 0.66E-02 mag=      0.039
       N       E                     dE             d eps       ncg     rms          rms(c)
DAV:   1    -0.334249752301E+02   -0.69092E-02   -0.32986E-02  3024   0.125E+00    0.701E-02
RMM:   2    -0.334263330355E+02   -0.13578E-02   -0.41842E-03  1567   0.249E-01    0.483E-02
RMM:   3    -0.334267062007E+02   -0.37317E-03   -0.10988E-03  1313   0.950E-02
    234 T=   959. E= -.32351035E+02 F= -.33426706E+02 E0= -.33386711E+02  EK= 0.32244E+01 SP= -.22E+01 SK= 0.14E-01 mag=      0.087
       N       E                     dE             d eps       ncg     rms          rms(c)
DAV:   1    -0.334303071290E+02   -0.39741E-02   -0.15002E-02  2368   0.109E+00    0.726E-02
RMM:   2    -0.334313776055E+02   -0.10705E-02   -0.37289E-03  1533   0.282E-01
    235 T=   945. E= -.32345795E+02 F= -.33431378E+02 E0= -.33390872E+02  EK= 0.31750E+01 SP= -.21E+01 SK= 0.24E-01 mag=      0.048
       N       E                     dE             d eps       ncg     rms          rms(c)
DAV:   1    -0.334316341640E+02   -0.13270E-02   -0.28438E-02  3064   0.120E+00    0.654E-02
RMM:   2    -0.334330926245E+02   -0.14585E-02   -0.49701E-03  1566   0.259E-01    0.436E-02
RMM:   3    -0.334336931204E+02   -0.60050E-03   -0.16055E-03  1486   0.113E-01
    236 T=   925. E= -.32341125E+02 F= -.33433693E+02 E0= -.33392715E+02  EK= 0.31098E+01 SP= -.21E+01 SK= 0.34E-01 mag=     -0.014
       N       E                     dE             d eps       ncg     rms          rms(c)
DAV:   1    -0.334318035951E+02    0.12890E-02   -0.13155E-02  2136   0.110E+00    0.764E-02
RMM:   2    -0.334331492215E+02   -0.13456E-02   -0.43065E-03  1504   0.286E-01
    237 T=   902. E= -.32335193E+02 F= -.33433149E+02 E0= -.33391748E+02  EK= 0.30328E+01 SP= -.20E+01 SK= 0.44E-01 mag=     -0.064
       N       E                     dE             d eps       ncg     rms          rms(c)
DAV:   1    -0.334294553463E+02    0.23482E-02   -0.29534E-02  2944   0.121E+00    0.739E-02
RMM:   2    -0.334307009103E+02   -0.12456E-02   -0.40268E-03  1560   0.240E-01
    238 T=   877. E= -.32328873E+02 F= -.33430701E+02 E0= -.33388916E+02  EK= 0.29470E+01 SP= -.19E+01 SK= 0.53E-01 mag=     -0.071
       N       E                     dE             d eps       ncg     rms          rms(c)
DAV:   1    -0.334256539056E+02    0.38014E-02   -0.12206E-02  2312   0.102E+00    0.394E-02
RMM:   2    -0.334265833932E+02   -0.92949E-03   -0.41236E-03  1560   0.291E-01
    239 T=   849. E= -.32324894E+02 F= -.33426583E+02 E0= -.33384340E+02  EK= 0.28530E+01 SP= -.18E+01 SK= 0.60E-01 mag=     -0.019
       N       E                     dE             d eps       ncg     rms          rms(c)
DAV:   1    -0.334190363765E+02    0.66175E-02   -0.17922E-02  2648   0.115E+00    0.595E-02
RMM:   2    -0.334200432034E+02   -0.10068E-02   -0.44435E-03  1551   0.272E-01
    240 T=   820. E= -.32320024E+02 F= -.33420043E+02 E0= -.33377365E+02  EK= 0.27563E+01 SP= -.17E+01 SK= 0.64E-01 mag=      0.064
       N       E                     dE             d eps       ncg     rms          rms(c)
DAV:   1    -0.334101566261E+02    0.88798E-02   -0.12586E-02  2576   0.100E+00    0.652E-02
RMM:   2    -0.334115482095E+02   -0.13916E-02   -0.48397E-03  1539   0.297E-01    0.468E-02
RMM:   3    -0.334122476777E+02   -0.69947E-03   -0.19414E-03  1428   0.119E-01
    241 T=   791. E= -.32316713E+02 F= -.33412248E+02 E0= -.33369174E+02  EK= 0.26584E+01 SP= -.16E+01 SK= 0.64E-01 mag=      0.053
       N       E                     dE             d eps       ncg     rms          rms(c)
DAV:   1    -0.334017992438E+02    0.97490E-02   -0.16075E-02  2368   0.107E+00    0.733E-02
RMM:   2    -0.334029540034E+02   -0.11548E-02   -0.30896E-03  1463   0.262E-01
    242 T=   764. E= -.32309247E+02 F= -.33402954E+02 E0= -.33359453E+02  EK= 0.25671E+01 SP= -.15E+01 SK= 0.62E-01 mag=     -0.035
       N       E                     dE             d eps       ncg     rms          rms(c)
DAV:   1    -0.333919043664E+02    0.98949E-02   -0.24866E-02  2792   0.110E+00    0.682E-02
RMM:   2    -0.333929802806E+02   -0.10759E-02   -0.38425E-03  1550   0.238E-01
    243 T=   738. E= -.32302528E+02 F= -.33392980E+02 E0= -.33349142E+02  EK= 0.24803E+01 SP= -.14E+01 SK= 0.56E-01 mag=     -0.138
       N       E                     dE             d eps       ncg     rms          rms(c)
DAV:   1    -0.333815132253E+02    0.10391E-01   -0.11745E-02  2336   0.937E-01    0.546E-02
RMM:   2    -0.333823797090E+02   -0.86648E-03   -0.33558E-03  1542   0.259E-01
    244 T=   713. E= -.32298617E+02 F= -.33382380E+02 E0= -.33338180E+02  EK= 0.23974E+01 SP= -.14E+01 SK= 0.49E-01 mag=     -0.161
       N       E                     dE             d eps       ncg     rms          rms(c)
DAV:   1    -0.333708477639E+02    0.10665E-01   -0.14359E-02  2488   0.105E+00    0.551E-02
RMM:   2    -0.333716300573E+02   -0.78229E-03   -0.35451E-03  1532   0.247E-01
    245 T=   691. E= -.32294839E+02 F= -.33371630E+02 E0= -.33326861E+02  EK= 0.23230E+01 SP= -.13E+01 SK= 0.39E-01 mag=     -0.069
       N       E                     dE             d eps       ncg     rms          rms(c)
DAV:   1    -0.333593448367E+02    0.11503E-01   -0.85518E-03  2240   0.905E-01    0.576E-02
RMM:   2    -0.333603151539E+02   -0.97032E-03   -0.38731E-03  1522   0.271E-01
    246 T=   672. E= -.32289196E+02 F= -.33360315E+02 E0= -.33315126E+02  EK= 0.22596E+01 SP= -.12E+01 SK= 0.29E-01 mag=      0.083
       N       E                     dE             d eps       ncg     rms          rms(c)
DAV:   1    -0.333486056916E+02    0.10739E-01   -0.13345E-02  2680   0.103E+00    0.645E-02
RMM:   2    -0.333494220425E+02   -0.81635E-03   -0.34243E-03  1527   0.252E-01
    247 T=   657. E= -.32283151E+02 F= -.33349422E+02 E0= -.33303966E+02  EK= 0.22073E+01 SP= -.12E+01 SK= 0.20E-01 mag=      0.202
       N       E                     dE             d eps       ncg     rms          rms(c)
DAV:   1    -0.333376774073E+02    0.10928E-01   -0.10694E-02  2224   0.906E-01    0.615E-02
RMM:   2    -0.333386666357E+02   -0.98923E-03   -0.37442E-03  1533   0.261E-01
    248 T=   644. E= -.32278034E+02 F= -.33338667E+02 E0= -.33292772E+02  EK= 0.21648E+01 SP= -.11E+01 SK= 0.11E-01 mag=      0.171
       N       E                     dE             d eps       ncg     rms          rms(c)
DAV:   1    -0.333281088775E+02    0.95685E-02   -0.11817E-02  2496   0.972E-01    0.597E-02
RMM:   2    -0.333288330678E+02   -0.72419E-03   -0.36568E-03  1534   0.247E-01
    249 T=   635. E= -.32273636E+02 F= -.33328833E+02 E0= -.33282220E+02  EK= 0.21335E+01 SP= -.11E+01 SK= 0.49E-02 mag=     -0.006
       N       E                     dE             d eps       ncg     rms          rms(c)
DAV:   1    -0.333177372150E+02    0.10372E-01   -0.96354E-03  2160   0.901E-01    0.682E-02
RMM:   2    -0.333187938383E+02   -0.10566E-02   -0.41326E-03  1532   0.272E-01
    250 T=   629. E= -.32268222E+02 F= -.33318794E+02 E0= -.33271942E+02  EK= 0.21142E+01 SP= -.11E+01 SK= 0.99E-03 mag=     -0.220
       N       E                     dE             d eps       ncg     rms          rms(c)
DAV:   1    -0.333082797243E+02    0.94575E-02   -0.12229E-02  2448   0.949E-01    0.727E-02
RMM:   2    -0.333095807876E+02   -0.13011E-02   -0.40847E-03  1525   0.261E-01
    251 T=   627. E= -.32262792E+02 F= -.33309581E+02 E0= -.33262539E+02  EK= 0.21069E+01 SP= -.11E+01 SK= 0.58E-04 mag=     -0.311
       N       E                     dE             d eps       ncg     rms          rms(c)
DAV:   1    -0.333009736827E+02    0.73060E-02   -0.98323E-03  2216   0.906E-01    0.569E-02
RMM:   2    -0.333020359523E+02   -0.10623E-02   -0.50154E-03  1585   0.270E-01
    252 T=   628. E= -.32258598E+02 F= -.33302036E+02 E0= -.33254153E+02  EK= 0.21114E+01 SP= -.11E+01 SK= 0.22E-02 mag=     -0.156
       N       E                     dE             d eps       ncg     rms          rms(c)
DAV:   1    -0.332937544318E+02    0.72193E-02   -0.15290E-02  2568   0.974E-01    0.598E-02
RMM:   2    -0.332947063923E+02   -0.95196E-03   -0.44898E-03  1536   0.280E-01
    253 T=   633. E= -.32254011E+02 F= -.33294706E+02 E0= -.33246120E+02  EK= 0.21278E+01 SP= -.11E+01 SK= 0.73E-02 mag=      0.158
       N       E                     dE             d eps       ncg     rms          rms(c)
DAV:   1    -0.332843865956E+02    0.93678E-02   -0.16378E-02  2376   0.911E-01    0.919E-02
RMM:   2    -0.332862519590E+02   -0.18654E-02   -0.48630E-03  1521   0.272E-01    0.704E-02
RMM:   3    -0.332874489388E+02   -0.11970E-02   -0.20292E-03  1449   0.116E-01
    254 T=   641. E= -.32250148E+02 F= -.33287449E+02 E0= -.33238740E+02  EK= 0.21547E+01 SP= -.11E+01 SK= 0.15E-01 mag=      0.212
       N       E                     dE             d eps       ncg     rms          rms(c)
DAV:   1    -0.332810023352E+02    0.52496E-02   -0.14117E-02  2456   0.940E-01    0.794E-02
RMM:   2    -0.332818301669E+02   -0.82783E-03   -0.30016E-03  1426   0.233E-01
    255 T=   653. E= -.32246524E+02 F= -.33281830E+02 E0= -.33232096E+02  EK= 0.21942E+01 SP= -.12E+01 SK= 0.25E-01 mag=      0.011
       N       E                     dE             d eps       ncg     rms          rms(c)
DAV:   1    -0.332729100463E+02    0.80923E-02   -0.22102E-02  2784   0.994E-01    0.904E-02
RMM:   2    -0.332746647537E+02   -0.17547E-02   -0.44950E-03  1540   0.222E-01    0.658E-02
RMM:   3    -0.332758998316E+02   -0.12351E-02   -0.20770E-03  1400   0.103E-01
    256 T=   668. E= -.32243202E+02 F= -.33275900E+02 E0= -.33225709E+02  EK= 0.22441E+01 SP= -.12E+01 SK= 0.36E-01 mag=     -0.144
       N       E                     dE             d eps       ncg     rms          rms(c)
DAV:   1    -0.332689574020E+02    0.57074E-02   -0.13805E-02  1872   0.955E-01    0.103E-01
RMM:   2    -0.332701352444E+02   -0.11778E-02   -0.38350E-03  1488   0.254E-01
    257 T=   686. E= -.32239993E+02 F= -.33270135E+02 E0= -.33219403E+02  EK= 0.23045E+01 SP= -.13E+01 SK= 0.47E-01 mag=     -0.190
       N       E                     dE             d eps       ncg     rms          rms(c)
DAV:   1    -0.332622012481E+02    0.67562E-02   -0.24613E-02  2848   0.108E+00    0.951E-02
RMM:   2    -0.332639839034E+02   -0.17827E-02   -0.44253E-03  1520   0.233E-01    0.664E-02
RMM:   3    -0.332652539961E+02   -0.12701E-02   -0.24036E-03  1400   0.111E-01
    258 T=   707. E= -.32237465E+02 F= -.33265254E+02 E0= -.33213737E+02  EK= 0.23752E+01 SP= -.14E+01 SK= 0.58E-01 mag=     -0.075
       N       E                     dE             d eps       ncg     rms          rms(c)
DAV:   1    -0.332576553118E+02    0.63286E-02   -0.19449E-02  2312   0.973E-01    0.122E-01
RMM:   2    -0.332590660158E+02   -0.14107E-02   -0.42499E-03  1527   0.274E-01    0.785E-02
RMM:   3    -0.332596481732E+02   -0.58216E-03   -0.14399E-03  1395   0.113E-01
    259 T=   730. E= -.32235480E+02 F= -.33259648E+02 E0= -.33207539E+02  EK= 0.24540E+01 SP= -.15E+01 SK= 0.67E-01 mag=      0.112
       N       E                     dE             d eps       ncg     rms          rms(c)
DAV:   1    -0.332519219866E+02    0.71440E-02   -0.32341E-02  2720   0.106E+00    0.900E-02
RMM:   2    -0.332529738807E+02   -0.10519E-02   -0.37672E-03  1527   0.256E-01
    260 T=   756. E= -.32231792E+02 F= -.33252974E+02 E0= -.33200621E+02  EK= 0.25415E+01 SP= -.16E+01 SK= 0.74E-01 mag=      0.244
       N       E                     dE             d eps       ncg     rms          rms(c)
DAV:   1    -0.332452907501E+02    0.66312E-02   -0.22239E-02  2752   0.108E+00    0.732E-02
RMM:   2    -0.332463032502E+02   -0.10125E-02   -0.41402E-03  1531   0.262E-01
    261 T=   784. E= -.32230454E+02 F= -.33246303E+02 E0= -.33193224E+02  EK= 0.26334E+01 SP= -.17E+01 SK= 0.78E-01 mag=      0.237
       N       E                     dE             d eps       ncg     rms          rms(c)
DAV:   1    -0.332378148415E+02    0.74759E-02   -0.13500E-02  2440   0.106E+00    0.595E-02
RMM:   2    -0.332386293823E+02   -0.81454E-03   -0.44001E-03  1558   0.300E-01
    262 T=   813. E= -.32227441E+02 F= -.33238629E+02 E0= -.33184696E+02  EK= 0.27309E+01 SP= -.18E+01 SK= 0.78E-01 mag=      0.060
       N       E                     dE             d eps       ncg     rms          rms(c)
DAV:   1    -0.332267513550E+02    0.11063E-01   -0.19629E-02  2704   0.119E+00    0.594E-02
RMM:   2    -0.332279085427E+02   -0.11572E-02   -0.47003E-03  1555   0.282E-01
    263 T=   842. E= -.32222068E+02 F= -.33227909E+02 E0= -.33173714E+02  EK= 0.28304E+01 SP= -.19E+01 SK= 0.75E-01 mag=     -0.197
       N       E                     dE             d eps       ncg     rms          rms(c)
DAV:   1    -0.332136431693E+02    0.13108E-01   -0.11986E-02  2544   0.111E+00    0.715E-02
RMM:   2    -0.332151128669E+02   -0.14697E-02   -0.47653E-03  1543   0.310E-01    0.548E-02
RMM:   3    -0.332159498535E+02   -0.83699E-03   -0.17511E-03  1442   0.125E-01
    264 T=   871. E= -.32218843E+02 F= -.33215950E+02 E0= -.33161468E+02  EK= 0.29264E+01 SP= -.20E+01 SK= 0.68E-01 mag=     -0.206
       N       E                     dE             d eps       ncg     rms          rms(c)
DAV:   1    -0.332008573526E+02    0.14256E-01   -0.23097E-02  2432   0.117E+00    0.594E-02
RMM:   2    -0.332019899742E+02   -0.11326E-02   -0.38950E-03  1504   0.277E-01
    265 T=   899. E= -.32213261E+02 F= -.33201990E+02 E0= -.33146631E+02  EK= 0.30197E+01 SP= -.21E+01 SK= 0.58E-01 mag=      0.026
       N       E                     dE             d eps       ncg     rms          rms(c)
DAV:   1    -0.331812069159E+02    0.19650E-01   -0.26242E-02  2960   0.125E+00    0.905E-02
RMM:   2    -0.331833568274E+02   -0.21499E-02   -0.56658E-03  1544   0.263E-01    0.672E-02
RMM:   3    -0.331848144440E+02   -0.14576E-02   -0.23905E-03  1405   0.119E-01    0.430E-02
RMM:   4    -0.331854007987E+02   -0.58635E-03   -0.98521E-04  1350   0.749E-02
    266 T=   923. E= -.32209559E+02 F= -.33185401E+02 E0= -.33129770E+02  EK= 0.31022E+01 SP= -.22E+01 SK= 0.47E-01 mag=      0.125
       N       E                     dE             d eps       ncg     rms          rms(c)
DAV:   1    -0.331618408221E+02    0.22974E-01   -0.23593E-02  2512   0.113E+00    0.989E-02
RMM:   2    -0.331642247742E+02   -0.23840E-02   -0.62233E-03  1455   0.282E-01    0.703E-02
RMM:   3    -0.331657502763E+02   -0.15255E-02   -0.33587E-03  1400   0.123E-01    0.388E-02
RMM:   4    -0.331661616325E+02   -0.41136E-03   -0.10756E-03  1362   0.784E-02
    267 T=   943. E= -.32208050E+02 F= -.33166162E+02 E0= -.33109976E+02  EK= 0.31703E+01 SP= -.22E+01 SK= 0.35E-01 mag=      0.042
       N       E                     dE             d eps       ncg     rms          rms(c)
DAV:   1    -0.331422873042E+02    0.23463E-01   -0.19445E-02  2864   0.123E+00    0.515E-02
RMM:   2    -0.331432136466E+02   -0.92634E-03   -0.35567E-03  1549   0.247E-01
    268 T=   960. E= -.32203416E+02 F= -.33143214E+02 E0= -.33086960E+02  EK= 0.32254E+01 SP= -.23E+01 SK= 0.23E-01 mag=     -0.166
       N       E                     dE             d eps       ncg     rms          rms(c)
DAV:   1    -0.331151663281E+02    0.27121E-01   -0.19900E-02  2856   0.117E+00    0.595E-02
RMM:   2    -0.331165374127E+02   -0.13711E-02   -0.48324E-03  1569   0.273E-01    0.450E-02
RMM:   3    -0.331170851589E+02   -0.54775E-03   -0.13414E-03  1418   0.111E-01
    269 T=   970. E= -.32200498E+02 F= -.33117085E+02 E0= -.33061030E+02  EK= 0.32607E+01 SP= -.24E+01 SK= 0.13E-01 mag=     -0.207
       N       E                     dE             d eps       ncg     rms          rms(c)
DAV:   1    -0.330876222808E+02    0.28915E-01   -0.16991E-02  2464   0.120E+00    0.515E-02
RMM:   2    -0.330886720947E+02   -0.10498E-02   -0.33047E-03  1562   0.264E-01
    270 T=   976. E= -.32195994E+02 F= -.33088672E+02 E0= -.33031909E+02  EK= 0.32787E+01 SP= -.24E+01 SK= 0.56E-02 mag=     -0.052
       N       E                     dE             d eps       ncg     rms          rms(c)
DAV:   1    -0.330551728423E+02    0.32449E-01   -0.29737E-02  2992   0.128E+00    0.467E-02
RMM:   2    -0.330563233058E+02   -0.11505E-02   -0.43397E-03  1570   0.251E-01
    271 T=   975. E= -.32189439E+02 F= -.33056323E+02 E0= -.32999835E+02  EK= 0.32771E+01 SP= -.24E+01 SK= 0.12E-02 mag=      0.229
       N       E                     dE             d eps       ncg     rms          rms(c)
DAV:   1    -0.330192434234E+02    0.35929E-01   -0.11195E-02  2096   0.111E+00    0.635E-02
RMM:   2    -0.330207955050E+02   -0.15521E-02   -0.54904E-03  1574   0.321E-01    0.493E-02
RMM:   3    -0.330214547934E+02   -0.65929E-03   -0.18333E-03  1427   0.133E-01
    272 T=   968. E= -.32186173E+02 F= -.33021455E+02 E0= -.32965589E+02  EK= 0.32521E+01 SP= -.24E+01 SK= 0.19E-04 mag=      0.266
       N       E                     dE             d eps       ncg     rms          rms(c)
DAV:   1    -0.329836450901E+02    0.37150E-01   -0.23327E-02  2568   0.121E+00    0.461E-02
RMM:   2    -0.329847672113E+02   -0.11221E-02   -0.39631E-03  1519   0.287E-01
    273 T=   956. E= -.32179835E+02 F= -.32984767E+02 E0= -.32928140E+02  EK= 0.32116E+01 SP= -.24E+01 SK= 0.17E-02 mag=      0.051
       N       E                     dE             d eps       ncg     rms          rms(c)
DAV:   1    -0.329435806051E+02    0.40064E-01   -0.26526E-02  3016   0.126E+00    0.516E-02
RMM:   2    -0.329449081967E+02   -0.13276E-02   -0.48111E-03  1560   0.255E-01
    274 T=   938. E= -.32173933E+02 F= -.32944908E+02 E0= -.32888994E+02  EK= 0.31523E+01 SP= -.24E+01 SK= 0.56E-02 mag=     -0.312
       N       E                     dE             d eps       ncg     rms          rms(c)
DAV:   1    -0.329004748946E+02    0.43106E-01   -0.14135E-02  2144   0.112E+00    0.805E-02
RMM:   2    -0.329022903410E+02   -0.18154E-02   -0.58085E-03  1583   0.311E-01    0.618E-02
RMM:   3    -0.329035920012E+02   -0.13017E-02   -0.25021E-03  1401   0.137E-01
    275 T=   915. E= -.32170562E+02 F= -.32903592E+02 E0= -.32848675E+02  EK= 0.30764E+01 SP= -.24E+01 SK= 0.11E-01 mag=     -0.344
       N       E                     dE             d eps       ncg     rms          rms(c)
DAV:   1    -0.328612181244E+02    0.41072E-01   -0.26033E-02  2840   0.117E+00    0.511E-02
RMM:   2    -0.328623236785E+02   -0.11056E-02   -0.41558E-03  1517   0.279E-01
    276 T=   890. E= -.32165135E+02 F= -.32862324E+02 E0= -.32806427E+02  EK= 0.29927E+01 SP= -.23E+01 SK= 0.16E-01 mag=     -0.042
       N       E                     dE             d eps       ncg     rms          rms(c)
DAV:   1    -0.328167428110E+02    0.44475E-01   -0.25039E-02  2976   0.122E+00    0.708E-02
RMM:   2    -0.328183432696E+02   -0.16005E-02   -0.49567E-03  1567   0.257E-01    0.552E-02
RMM:   3    -0.328190612678E+02   -0.71800E-03   -0.13006E-03  1431   0.107E-01
    277 T=   863. E= -.32160249E+02 F= -.32819061E+02 E0= -.32764208E+02  EK= 0.28997E+01 SP= -.23E+01 SK= 0.21E-01 mag=      0.302
       N       E                     dE             d eps       ncg     rms          rms(c)
DAV:   1    -0.327735308603E+02    0.44812E-01   -0.18448E-02  2040   0.106E+00    0.828E-02
RMM:   2    -0.327751220608E+02   -0.15912E-02   -0.51116E-03  1550   0.277E-01    0.602E-02
RMM:   3    -0.327759263352E+02   -0.80427E-03   -0.15578E-03  1440   0.115E-01
    278 T=   834. E= -.32156445E+02 F= -.32775926E+02 E0= -.32722064E+02  EK= 0.28020E+01 SP= -.22E+01 SK= 0.24E-01 mag=      0.324
       N       E                     dE             d eps       ncg     rms          rms(c)
DAV:   1    -0.327345708069E+02    0.40551E-01   -0.24844E-02  2792   0.110E+00    0.429E-02
RMM:   2    -0.327354029033E+02   -0.83210E-03   -0.37758E-03  1566   0.269E-01
    279 T=   805. E= -.32151915E+02 F= -.32735403E+02 E0= -.32680451E+02  EK= 0.27067E+01 SP= -.21E+01 SK= 0.25E-01 mag=      0.012
       N       E                     dE             d eps       ncg     rms          rms(c)
DAV:   1    -0.326919096608E+02    0.42661E-01   -0.27211E-02  2840   0.115E+00    0.728E-02
RMM:   2    -0.326932717900E+02   -0.13621E-02   -0.48914E-03  1566   0.274E-01    0.524E-02
RMM:   3    -0.326940126440E+02   -0.74085E-03   -0.13996E-03  1487   0.112E-01
    280 T=   777. E= -.32147596E+02 F= -.32694013E+02 E0= -.32640393E+02  EK= 0.26119E+01 SP= -.21E+01 SK= 0.25E-01 mag=     -0.304
       N       E                     dE             d eps       ncg     rms          rms(c)
DAV:   1    -0.326531535081E+02    0.40118E-01   -0.14566E-02  2416   0.106E+00    0.781E-02
RMM:   2    -0.326543247679E+02   -0.11713E-02   -0.28518E-03  1510   0.243E-01
    281 T=   751. E= -.32142415E+02 F= -.32654325E+02 E0= -.32601772E+02  EK= 0.25234E+01 SP= -.20E+01 SK= 0.22E-01 mag=     -0.442
       N       E                     dE             d eps       ncg     rms          rms(c)
DAV:   1    -0.326173564421E+02    0.35797E-01   -0.17555E-02  2488   0.114E+00    0.597E-02
RMM:   2    -0.326184826442E+02   -0.11262E-02   -0.42403E-03  1538   0.238E-01
    282 T=   727. E= -.32137972E+02 F= -.32618483E+02 E0= -.32565601E+02  EK= 0.24436E+01 SP= -.20E+01 SK= 0.18E-01 mag=     -0.312
       N       E                     dE             d eps       ncg     rms          rms(c)
DAV:   1    -0.325848879338E+02    0.32469E-01   -0.99257E-03  2544   0.102E+00    0.445E-02
RMM:   2    -0.325857727479E+02   -0.88481E-03   -0.41945E-03  1560   0.288E-01
    283 T=   706. E= -.32135081E+02 F= -.32585773E+02 E0= -.32532622E+02  EK= 0.23722E+01 SP= -.19E+01 SK= 0.14E-01 mag=      0.057
       N       E                     dE             d eps       ncg     rms          rms(c)
DAV:   1    -0.325523849278E+02    0.32503E-01   -0.19476E-02  2776   0.109E+00    0.727E-02
RMM:   2    -0.325538426344E+02   -0.14577E-02   -0.48757E-03  1544   0.271E-01    0.590E-02
RMM:   3    -0.325546175642E+02   -0.77493E-03   -0.15290E-03  1451   0.108E-01
    284 T=   688. E= -.32130761E+02 F= -.32554618E+02 E0= -.32502940E+02  EK= 0.23118E+01 SP= -.19E+01 SK= 0.86E-02 mag=      0.311
       N       E                     dE             d eps       ncg     rms          rms(c)
DAV:   1    -0.325275357275E+02    0.26307E-01   -0.14148E-02  2504   0.966E-01    0.707E-02
RMM:   2    -0.325285486913E+02   -0.10130E-02   -0.32213E-03  1465   0.238E-01
    285 T=   674. E= -.32126043E+02 F= -.32528549E+02 E0= -.32477277E+02  EK= 0.22655E+01 SP= -.19E+01 SK= 0.43E-02 mag=      0.326
       N       E                     dE             d eps       ncg     rms          rms(c)
DAV:   1    -0.325070376060E+02    0.20498E-01   -0.15824E-02  2688   0.109E+00    0.514E-02
RMM:   2    -0.325079420014E+02   -0.90440E-03   -0.37557E-03  1528   0.223E-01
    286 T=   664. E= -.32122219E+02 F= -.32507942E+02 E0= -.32456294E+02  EK= 0.22329E+01 SP= -.18E+01 SK= 0.13E-02 mag=      0.086
       N       E                     dE             d eps       ncg     rms          rms(c)
DAV:   1    -0.324900613161E+02    0.16976E-01   -0.83115E-03  2056   0.945E-01    0.539E-02
RMM:   2    -0.324909753298E+02   -0.91401E-03   -0.39772E-03  1550   0.286E-01
    287 T=   659. E= -.32118611E+02 F= -.32490975E+02 E0= -.32440107E+02  EK= 0.22133E+01 SP= -.18E+01 SK= 0.21E-04 mag=     -0.286
       N       E                     dE             d eps       ncg     rms          rms(c)
DAV:   1    -0.324749109641E+02    0.15150E-01   -0.21479E-02  2824   0.113E+00    0.985E-02
RMM:   2    -0.324770465842E+02   -0.21356E-02   -0.54901E-03  1527   0.285E-01    0.788E-02
RMM:   3    -0.324783742091E+02   -0.13276E-02   -0.21390E-03  1432   0.118E-01
    288 T=   657. E= -.32114162E+02 F= -.32478374E+02 E0= -.32428989E+02  EK= 0.22086E+01 SP= -.18E+01 SK= 0.77E-03 mag=     -0.267
       N       E                     dE             d eps       ncg     rms          rms(c)
DAV:   1    -0.324737385384E+02    0.33080E-02   -0.21201E-02  2472   0.936E-01    0.589E-02
RMM:   2    -0.324745082542E+02   -0.76972E-03   -0.34575E-03  1517   0.258E-01
    289 T=   661. E= -.32112198E+02 F= -.32474508E+02 E0= -.32424141E+02  EK= 0.22199E+01 SP= -.19E+01 SK= 0.36E-02 mag=      0.110
       N       E                     dE             d eps       ncg     rms          rms(c)
DAV:   1    -0.324693384704E+02    0.44001E-02   -0.38231E-02  2832   0.109E+00    0.109E-01
RMM:   2    -0.324714739478E+02   -0.21355E-02   -0.50322E-03  1531   0.261E-01    0.819E-02
RMM:   3    -0.324733697962E+02   -0.18958E-02   -0.21341E-03  1457   0.114E-01    0.589E-02
RMM:   4    -0.324743130588E+02   -0.94326E-03   -0.99852E-04  1372   0.770E-02
    290 T=   668. E= -.32108513E+02 F= -.32474313E+02 E0= -.32424784E+02  EK= 0.22464E+01 SP= -.19E+01 SK= 0.82E-02 mag=      0.101
       N       E                     dE             d eps       ncg     rms          rms(c)
DAV:   1    -0.324786364739E+02   -0.52667E-02   -0.13217E-02  2368   0.981E-01    0.903E-02
RMM:   2    -0.324799840324E+02   -0.13476E-02   -0.40439E-03  1538   0.271E-01
    291 T=   681. E= -.32105314E+02 F= -.32479984E+02 E0= -.32430538E+02  EK= 0.22878E+01 SP= -.19E+01 SK= 0.14E-01 mag=     -0.174
       N       E                     dE             d eps       ncg     rms          rms(c)
DAV:   1    -0.324878967758E+02   -0.92603E-02   -0.37186E-02  2984   0.112E+00    0.101E-01
RMM:   2    -0.324900941958E+02   -0.21974E-02   -0.51347E-03  1542   0.276E-01    0.781E-02
RMM:   3    -0.324912117883E+02   -0.11176E-02   -0.15002E-03  1493   0.110E-01
    292 T=   697. E= -.32102300E+02 F= -.32491212E+02 E0= -.32442870E+02  EK= 0.23438E+01 SP= -.20E+01 SK= 0.21E-01 mag=     -0.209
       N       E                     dE             d eps       ncg     rms          rms(c)
DAV:   1    -0.325076362468E+02   -0.17542E-01   -0.20440E-02  2496   0.100E+00    0.104E-01
RMM:   2    -0.325092686650E+02   -0.16324E-02   -0.50007E-03  1455   0.276E-01    0.685E-02
RMM:   3    -0.325098446362E+02   -0.57597E-03   -0.13788E-03  1388   0.110E-01
    293 T=   718. E= -.32102466E+02 F= -.32509845E+02 E0= -.32461121E+02  EK= 0.24127E+01 SP= -.20E+01 SK= 0.27E-01 mag=     -0.031
       N       E                     dE             d eps       ncg     rms          rms(c)
DAV:   1    -0.325318075099E+02   -0.22539E-01   -0.40358E-02  2808   0.114E+00    0.691E-02
RMM:   2    -0.325328198359E+02   -0.10123E-02   -0.48506E-03  1550   0.288E-01
    294 T=   743. E= -.32099716E+02 F= -.32532820E+02 E0= -.32484655E+02  EK= 0.24967E+01 SP= -.21E+01 SK= 0.33E-01 mag=      0.257
       N       E                     dE             d eps       ncg     rms          rms(c)
DAV:   1    -0.325576041869E+02   -0.25797E-01   -0.32285E-02  2808   0.108E+00    0.971E-02
RMM:   2    -0.325594590698E+02   -0.18549E-02   -0.50515E-03  1559   0.273E-01    0.735E-02
RMM:   3    -0.325606941047E+02   -0.12350E-02   -0.17576E-03  1472   0.120E-01
    295 T=   771. E= -.32098090E+02 F= -.32560694E+02 E0= -.32513281E+02  EK= 0.25910E+01 SP= -.22E+01 SK= 0.37E-01 mag=      0.196
       N       E                     dE             d eps       ncg     rms          rms(c)
DAV:   1    -0.325939773940E+02   -0.34518E-01   -0.18146E-02  2552   0.108E+00    0.845E-02
RMM:   2    -0.325947418573E+02   -0.76446E-03   -0.34215E-03  1521   0.267E-01
    296 T=   802. E= -.32096286E+02 F= -.32594742E+02 E0= -.32547171E+02  EK= 0.26965E+01 SP= -.22E+01 SK= 0.38E-01 mag=     -0.140
       N       E                     dE             d eps       ncg     rms          rms(c)
DAV:   1    -0.326267433473E+02   -0.32766E-01   -0.31750E-02  3024   0.119E+00    0.107E-01
RMM:   2    -0.326290407131E+02   -0.22974E-02   -0.52886E-03  1548   0.265E-01    0.841E-02
RMM:   3    -0.326303982211E+02   -0.13575E-02   -0.17373E-03  1470   0.114E-01    0.653E-02
RMM:   4    -0.326316445028E+02   -0.12463E-02   -0.11210E-03  1387   0.789E-02
    297 T=   836. E= -.32093062E+02 F= -.32631645E+02 E0= -.32584551E+02  EK= 0.28090E+01 SP= -.23E+01 SK= 0.36E-01 mag=     -0.076
       N       E                     dE             d eps       ncg     rms          rms(c)
DAV:   1    -0.326697435176E+02   -0.39345E-01   -0.14436E-02  2528   0.114E+00    0.114E-01
RMM:   2    -0.326711513271E+02   -0.14078E-02   -0.44002E-03  1534   0.290E-01    0.766E-02
RMM:   3    -0.326716572291E+02   -0.50590E-03   -0.12301E-03  1257   0.114E-01
    298 T=   870. E= -.32091435E+02 F= -.32671657E+02 E0= -.32624692E+02  EK= 0.29228E+01 SP= -.24E+01 SK= 0.32E-01 mag=      0.143
       N       E                     dE             d eps       ncg     rms          rms(c)
DAV:   1    -0.327114891809E+02   -0.40338E-01   -0.35774E-02  2872   0.121E+00    0.878E-02
RMM:   2    -0.327129487797E+02   -0.14596E-02   -0.50793E-03  1577   0.306E-01    0.651E-02
RMM:   3    -0.327136846842E+02   -0.73590E-03   -0.14588E-03  1455   0.119E-01
    299 T=   903. E= -.32088978E+02 F= -.32713685E+02 E0= -.32667239E+02  EK= 0.30358E+01 SP= -.24E+01 SK= 0.25E-01 mag=      0.165
       N       E                     dE             d eps       ncg     rms          rms(c)
DAV:   1    -0.327565920639E+02   -0.43643E-01   -0.17208E-02  2520   0.119E+00    0.570E-02
RMM:   2    -0.327574799490E+02   -0.88789E-03   -0.43340E-03  1578   0.296E-01
    300 T=   935. E= -.32087504E+02 F= -.32757480E+02 E0= -.32710849E+02  EK= 0.31424E+01 SP= -.25E+01 SK= 0.17E-01 mag=     -0.001
       N       E                     dE             d eps       ncg     rms          rms(c)
DAV:   1    -0.327987879308E+02   -0.42196E-01   -0.25124E-02  3112   0.127E+00    0.655E-02
RMM:   2    -0.328000809126E+02   -0.12930E-02   -0.46841E-03  1581   0.272E-01
    301 T=   963. E= -.32086180E+02 F= -.32800081E+02 E0= -.32753870E+02  EK= 0.32362E+01 SP= -.25E+01 SK= 0.95E-02 mag=     -0.202
       N       E                     dE             d eps       ncg     rms          rms(c)
DAV:   1    -0.328406832000E+02   -0.41895E-01   -0.17751E-02  2368   0.120E+00    0.735E-02
RMM:   2    -0.328421509331E+02   -0.14677E-02   -0.59014E-03  1593   0.336E-01    0.515E-02
RMM:   3    -0.328427943276E+02   -0.64339E-03   -0.19409E-03  1473   0.132E-01
    302 T=   986. E= -.32085827E+02 F= -.32842794E+02 E0= -.32796883E+02  EK= 0.33142E+01 SP= -.26E+01 SK= 0.33E-02 mag=     -0.145
       N       E                     dE             d eps       ncg     rms          rms(c)
DAV:   1    -0.328821294548E+02   -0.39979E-01   -0.28520E-02  2528   0.129E+00    0.580E-02
RMM:   2    -0.328832479969E+02   -0.11185E-02   -0.38579E-03  1536   0.301E-01
    303 T=  1005. E= -.32080328E+02 F= -.32883248E+02 E0= -.32837214E+02  EK= 0.33766E+01 SP= -.26E+01 SK= 0.17E-03 mag=      0.103
       N       E                     dE             d eps       ncg     rms          rms(c)
DAV:   1    -0.329167577962E+02   -0.34628E-01   -0.29028E-02  3192   0.134E+00    0.897E-02
RMM:   2    -0.329188384789E+02   -0.20807E-02   -0.60944E-03  1600   0.271E-01    0.662E-02
RMM:   3    -0.329202068613E+02   -0.13684E-02   -0.22032E-03  1402   0.125E-01    0.425E-02
RMM:   4    -0.329206972310E+02   -0.49037E-03   -0.76855E-04  1312   0.740E-02
    304 T=  1015. E= -.32076754E+02 F= -.32920697E+02 E0= -.32874847E+02  EK= 0.34129E+01 SP= -.26E+01 SK= 0.12E-02 mag=      0.058
       N       E                     dE             d eps       ncg     rms          rms(c)
DAV:   1    -0.329500812459E+02   -0.29874E-01   -0.21689E-02  2416   0.118E+00    0.968E-02
RMM:   2    -0.329522339162E+02   -0.21527E-02   -0.54529E-03  1469   0.282E-01    0.682E-02
RMM:   3    -0.329534635718E+02   -0.12297E-02   -0.23629E-03  1401   0.116E-01
    305 T=  1018. E= -.32074205E+02 F= -.32953464E+02 E0= -.32907635E+02  EK= 0.34208E+01 SP= -.25E+01 SK= 0.71E-02 mag=     -0.047
       N       E                     dE             d eps       ncg     rms          rms(c)
DAV:   1    -0.329809757796E+02   -0.28742E-01   -0.35870E-02  3008   0.130E+00    0.606E-02
RMM:   2    -0.329820527403E+02   -0.10770E-02   -0.41937E-03  1558   0.288E-01
    306 T=  1013. E= -.32070171E+02 F= -.32982053E+02 E0= -.32936413E+02  EK= 0.34031E+01 SP= -.25E+01 SK= 0.18E-01 mag=     -0.150
       N       E                     dE             d eps       ncg     rms          rms(c)
DAV:   1    -0.330040714575E+02   -0.23096E-01   -0.29693E-02  2896   0.132E+00    0.515E-02
RMM:   2    -0.330053549724E+02   -0.12835E-02   -0.51128E-03  1604   0.288E-01
    307 T=   999. E= -.32068477E+02 F= -.33005355E+02 E0= -.32959823E+02  EK= 0.33563E+01 SP= -.25E+01 SK= 0.32E-01 mag=     -0.175
       N       E                     dE             d eps       ncg     rms          rms(c)
DAV:   1    -0.330229491507E+02   -0.18878E-01   -0.19597E-02  2424   0.119E+00    0.466E-02
RMM:   2    -0.330241187305E+02   -0.11696E-02   -0.46839E-03  1577   0.305E-01
    308 T=   978. E= -.32065131E+02 F= -.33024119E+02 E0= -.32978400E+02  EK= 0.32874E+01 SP= -.24E+01 SK= 0.50E-01 mag=     -0.087
       N       E                     dE             d eps       ncg     rms          rms(c)
DAV:   1    -0.330364994091E+02   -0.13550E-01   -0.26299E-02  2976   0.133E+00    0.310E-02
RMM:   2    -0.330375616932E+02   -0.10623E-02   -0.54003E-03  1587   0.305E-01
    309 T=   952. E= -.32059758E+02 F= -.33037562E+02 E0= -.32991761E+02  EK= 0.31996E+01 SP= -.23E+01 SK= 0.68E-01 mag=      0.087
       N       E                     dE             d eps       ncg     rms          rms(c)
DAV:   1    -0.330438522249E+02   -0.73528E-02   -0.17520E-02  2832   0.115E+00    0.516E-02
RMM:   2    -0.330451766610E+02   -0.13244E-02   -0.50396E-03  1572   0.303E-01
    310 T=   920. E= -.32055589E+02 F= -.33045177E+02 E0= -.32999771E+02  EK= 0.30933E+01 SP= -.22E+01 SK= 0.85E-01 mag=      0.235
       N       E                     dE             d eps       ncg     rms          rms(c)
DAV:   1    -0.330473264543E+02   -0.34742E-02   -0.20960E-02  2816   0.124E+00    0.552E-02
RMM:   2    -0.330486719290E+02   -0.13455E-02   -0.47439E-03  1567   0.295E-01
    311 T=   885. E= -.32051608E+02 F= -.33048672E+02 E0= -.33003252E+02  EK= 0.29756E+01 SP= -.21E+01 SK= 0.99E-01 mag=      0.253
       N       E                     dE             d eps       ncg     rms          rms(c)
DAV:   1    -0.330479489494E+02   -0.62250E-03   -0.16453E-02  2912   0.114E+00    0.297E-02
RMM:   2    -0.330488592317E+02   -0.91028E-03   -0.43880E-03  1546   0.291E-01
    312 T=   848. E= -.32048350E+02 F= -.33048859E+02 E0= -.33002884E+02  EK= 0.28512E+01 SP= -.20E+01 SK= 0.11E+00 mag=      0.097
       N       E                     dE             d eps       ncg     rms          rms(c)
DAV:   1    -0.330432037002E+02    0.47452E-02   -0.16364E-02  2736   0.114E+00    0.358E-02
RMM:   2    -0.330442126310E+02   -0.10089E-02   -0.50402E-03  1576   0.287E-01
    313 T=   811. E= -.32044089E+02 F= -.33044213E+02 E0= -.32998313E+02  EK= 0.27242E+01 SP= -.18E+01 SK= 0.11E+00 mag=     -0.169
       N       E                     dE             d eps       ncg     rms          rms(c)
DAV:   1    -0.330333171502E+02    0.98866E-02   -0.18020E-02  2672   0.109E+00    0.726E-02
RMM:   2    -0.330350114729E+02   -0.16943E-02   -0.49389E-03  1528   0.287E-01    0.596E-02
RMM:   3    -0.330362036530E+02   -0.11922E-02   -0.23393E-03  1405   0.120E-01
    314 T=   773. E= -.32040405E+02 F= -.33036204E+02 E0= -.32990618E+02  EK= 0.25982E+01 SP= -.17E+01 SK= 0.11E+00 mag=     -0.124
       N       E                     dE             d eps       ncg     rms          rms(c)
DAV:   1    -0.330249089599E+02    0.10103E-01   -0.25369E-02  2472   0.107E+00    0.623E-02
RMM:   2    -0.330262741356E+02   -0.13652E-02   -0.43937E-03  1514   0.302E-01    0.452E-02
RMM:   3    -0.330266345882E+02   -0.36045E-03   -0.11073E-03  1302   0.104E-01
    315 T=   737. E= -.32036682E+02 F= -.33026635E+02 E0= -.32980553E+02  EK= 0.24784E+01 SP= -.16E+01 SK= 0.11E+00 mag=      0.105
       N       E                     dE             d eps       ncg     rms          rms(c)
DAV:   1    -0.330125197405E+02    0.13754E-01   -0.38568E-02  2560   0.105E+00    0.721E-02
RMM:   2    -0.330137230133E+02   -0.12033E-02   -0.44744E-03  1541   0.266E-01
    316 T=   705. E= -.32030023E+02 F= -.33013723E+02 E0= -.32968280E+02  EK= 0.23680E+01 SP= -.15E+01 SK= 0.94E-01 mag=      0.354
       N       E                     dE             d eps       ncg     rms          rms(c)
DAV:   1    -0.329988978350E+02    0.13622E-01   -0.20358E-02  2824   0.103E+00    0.783E-02
RMM:   2    -0.330002992466E+02   -0.14014E-02   -0.36864E-03  1532   0.240E-01    0.609E-02
RMM:   3    -0.330013252233E+02   -0.10260E-02   -0.13678E-03  1434   0.105E-01
    317 T=   674. E= -.32027587E+02 F= -.33001325E+02 E0= -.32955546E+02  EK= 0.22652E+01 SP= -.14E+01 SK= 0.79E-01 mag=      0.131
       N       E                     dE             d eps       ncg     rms          rms(c)
DAV:   1    -0.329855439889E+02    0.14755E-01   -0.19056E-02  2320   0.102E+00    0.912E-02
RMM:   2    -0.329868056487E+02   -0.12617E-02   -0.34548E-03  1453   0.260E-01
    318 T=   647. E= -.32023388E+02 F= -.32986806E+02 E0= -.32941272E+02  EK= 0.21745E+01 SP= -.13E+01 SK= 0.62E-01 mag=     -0.375
       N       E                     dE             d eps       ncg     rms          rms(c)
DAV:   1    -0.329625319184E+02    0.23012E-01   -0.30900E-02  2752   0.105E+00    0.147E-01
RMM:   2    -0.329668291271E+02   -0.42972E-02   -0.66146E-03  1511   0.260E-01    0.118E-01
RMM:   3    -0.329702680347E+02   -0.34389E-02   -0.34100E-03  1404   0.128E-01    0.867E-02
RMM:   4    -0.329734568388E+02   -0.31888E-02   -0.48668E-03  1437   0.122E-01    0.339E-02
RMM:   5    -0.329740188409E+02   -0.56200E-03   -0.16325E-03  1398   0.855E-02
    319 T=   624. E= -.32021393E+02 F= -.32974019E+02 E0= -.32927447E+02  EK= 0.20965E+01 SP= -.12E+01 SK= 0.45E-01 mag=     -0.031
       N       E                     dE             d eps       ncg     rms          rms(c)
DAV:   1    -0.329478722916E+02    0.25585E-01   -0.18861E-02  2352   0.925E-01    0.160E-01
RMM:   2    -0.329521949789E+02   -0.43227E-02   -0.70275E-03  1456   0.242E-01    0.124E-01
RMM:   3    -0.329554107079E+02   -0.32157E-02   -0.29294E-03  1400   0.110E-01    0.949E-02
RMM:   4    -0.329582833146E+02   -0.28726E-02   -0.25886E-03  1407   0.909E-02    0.524E-02
RMM:   5    -0.329596034941E+02   -0.13202E-02   -0.25689E-03  1441   0.883E-02
    320 T=   604. E= -.32020392E+02 F= -.32959603E+02 E0= -.32913059E+02  EK= 0.20293E+01 SP= -.11E+01 SK= 0.29E-01 mag=      0.075
       N       E                     dE             d eps       ncg     rms          rms(c)
DAV:   1    -0.329448941122E+02    0.13389E-01   -0.13684E-02  2576   0.945E-01    0.565E-02
RMM:   2    -0.329455012452E+02   -0.60713E-03   -0.27291E-03  1507   0.223E-01
    321 T=   589. E= -.32017697E+02 F= -.32945501E+02 E0= -.32898890E+02  EK= 0.19779E+01 SP= -.11E+01 SK= 0.15E-01 mag=     -0.030
       N       E                     dE             d eps       ncg     rms          rms(c)
DAV:   1    -0.329309048698E+02    0.13989E-01   -0.14824E-02  2584   0.989E-01    0.615E-02
RMM:   2    -0.329318827431E+02   -0.97787E-03   -0.39699E-03  1546   0.249E-01
    322 T=   578. E= -.32013967E+02 F= -.32931883E+02 E0= -.32885645E+02  EK= 0.19416E+01 SP= -.10E+01 SK= 0.54E-02 mag=     -0.254
       N       E                     dE             d eps       ncg     rms          rms(c)
DAV:   1    -0.329176763535E+02    0.13229E-01   -0.10649E-02  2104   0.903E-01    0.808E-02
RMM:   2    -0.329189577165E+02   -0.12814E-02   -0.35397E-03  1537   0.261E-01
    323 T=   571. E= -.32009707E+02 F= -.32918958E+02 E0= -.32873538E+02  EK= 0.19203E+01 SP= -.10E+01 SK= 0.50E-03 mag=     -0.405
       N       E                     dE             d eps       ncg     rms          rms(c)
DAV:   1    -0.329080118000E+02    0.96646E-02   -0.12913E-02  2536   0.976E-01    0.701E-02
RMM:   2    -0.329090318241E+02   -0.10200E-02   -0.36862E-03  1528   0.248E-01
    324 T=   570. E= -.32006492E+02 F= -.32909032E+02 E0= -.32863307E+02  EK= 0.19145E+01 SP= -.10E+01 SK= 0.90E-03 mag=     -0.356
       N       E                     dE             d eps       ncg     rms          rms(c)
DAV:   1    -0.329004254927E+02    0.75863E-02   -0.87824E-03  2232   0.897E-01    0.469E-02
RMM:   2    -0.329011812460E+02   -0.75575E-03   -0.37152E-03  1520   0.255E-01
    325 T=   573. E= -.32003213E+02 F= -.32901181E+02 E0= -.32854671E+02  EK= 0.19246E+01 SP= -.10E+01 SK= 0.67E-02 mag=     -0.077
       N       E                     dE             d eps       ncg     rms          rms(c)
DAV:   1    -0.328922214343E+02    0.82041E-02   -0.10361E-02  2272   0.962E-01    0.661E-02
RMM:   2    -0.328933061608E+02   -0.10847E-02   -0.40350E-03  1515   0.258E-01
    326 T=   580. E= -.31997937E+02 F= -.32893306E+02 E0= -.32847387E+02  EK= 0.19504E+01 SP= -.11E+01 SK= 0.18E-01 mag=      0.295
       N       E                     dE             d eps       ncg     rms          rms(c)
DAV:   1    -0.328843936003E+02    0.78278E-02   -0.11924E-02  2288   0.946E-01    0.937E-02
RMM:   2    -0.328863556950E+02   -0.19621E-02   -0.47363E-03  1508   0.268E-01    0.759E-02
RMM:   3    -0.328882808678E+02   -0.19252E-02   -0.29510E-03  1400   0.130E-01    0.520E-02
RMM:   4    -0.328893921800E+02   -0.11113E-02   -0.21316E-03  1400   0.996E-02
    327 T=   592. E= -.31996363E+02 F= -.32889392E+02 E0= -.32843080E+02  EK= 0.19904E+01 SP= -.11E+01 SK= 0.33E-01 mag=      0.062
       N       E                     dE             d eps       ncg     rms          rms(c)
DAV:   1    -0.328804845642E+02    0.77963E-02   -0.15091E-02  2456   0.952E-01    0.112E-01
RMM:   2    -0.328828913882E+02   -0.24068E-02   -0.46669E-03  1458   0.226E-01    0.870E-02
RMM:   3    -0.328849714281E+02   -0.20800E-02   -0.25613E-03  1400   0.101E-01    0.627E-02
RMM:   4    -0.328862532200E+02   -0.12818E-02   -0.15014E-03  1395   0.750E-02
    328 T=   609. E= -.31994580E+02 F= -.32886253E+02 E0= -.32840280E+02  EK= 0.20453E+01 SP= -.12E+01 SK= 0.51E-01 mag=     -0.091
       N       E                     dE             d eps       ncg     rms          rms(c)
DAV:   1    -0.328852340435E+02   -0.26262E-03   -0.25437E-02  2312   0.970E-01    0.566E-02
RMM:   2    -0.328859174933E+02   -0.68345E-03   -0.33256E-03  1508   0.246E-01
    329 T=   630. E= -.31992073E+02 F= -.32885917E+02 E0= -.32839805E+02  EK= 0.21178E+01 SP= -.13E+01 SK= 0.72E-01 mag=     -0.101
       N       E                     dE             d eps       ncg     rms          rms(c)
DAV:   1    -0.328869017815E+02   -0.16677E-02   -0.24177E-02  2616   0.100E+00    0.431E-02
RMM:   2    -0.328876987849E+02   -0.79700E-03   -0.38282E-03  1530   0.258E-01
    330 T=   657. E= -.31989698E+02 F= -.32887699E+02 E0= -.32841659E+02  EK= 0.22064E+01 SP= -.14E+01 SK= 0.92E-01 mag=      0.024
       N       E                     dE             d eps       ncg     rms          rms(c)
DAV:   1    -0.328910327560E+02   -0.41310E-02   -0.10090E-02  2184   0.996E-01    0.506E-02
RMM:   2    -0.328918077244E+02   -0.77497E-03   -0.33525E-03  1528   0.270E-01
    331 T=   688. E= -.31987627E+02 F= -.32891808E+02 E0= -.32846109E+02  EK= 0.23107E+01 SP= -.15E+01 SK= 0.11E+00 mag=      0.185
       N       E                     dE             d eps       ncg     rms          rms(c)
DAV:   1    -0.328969547201E+02   -0.59220E-02   -0.14901E-02  2488   0.110E+00    0.551E-02
RMM:   2    -0.328979482787E+02   -0.99356E-03   -0.42811E-03  1522   0.278E-01
    332 T=   724. E= -.31983789E+02 F= -.32897948E+02 E0= -.32852737E+02  EK= 0.24318E+01 SP= -.16E+01 SK= 0.13E+00 mag=      0.272
       N       E                     dE             d eps       ncg     rms          rms(c)
DAV:   1    -0.329052509209E+02   -0.82962E-02   -0.12308E-02  2432   0.105E+00    0.535E-02
RMM:   2    -0.329064435094E+02   -0.11926E-02   -0.51906E-03  1595   0.297E-01
    333 T=   764. E= -.31979521E+02 F= -.32906444E+02 E0= -.32861363E+02  EK= 0.25677E+01 SP= -.18E+01 SK= 0.14E+00 mag=      0.180
       N       E                     dE             d eps       ncg     rms          rms(c)
DAV:   1    -0.329167668845E+02   -0.11516E-01   -0.17456E-02  2568   0.116E+00    0.476E-02
RMM:   2    -0.329175988919E+02   -0.83201E-03   -0.45956E-03  1560   0.307E-01
    334 T=   808. E= -.31975759E+02 F= -.32917599E+02 E0= -.32872412E+02  EK= 0.27155E+01 SP= -.19E+01 SK= 0.14E+00 mag=     -0.061
       N       E                     dE             d eps       ncg     rms          rms(c)
DAV:   1    -0.329273090659E+02   -0.10542E-01   -0.18002E-02  2536   0.112E+00    0.650E-02
RMM:   2    -0.329286851864E+02   -0.13761E-02   -0.52031E-03  1540   0.310E-01    0.506E-02
RMM:   3    -0.329292739135E+02   -0.58873E-03   -0.14834E-03  1479   0.119E-01
    335 T=   854. E= -.31972347E+02 F= -.32929274E+02 E0= -.32884726E+02  EK= 0.28704E+01 SP= -.20E+01 SK= 0.13E+00 mag=     -0.150
       N       E                     dE             d eps       ncg     rms          rms(c)
DAV:   1    -0.329419742934E+02   -0.13289E-01   -0.17122E-02  2632   0.118E+00    0.465E-02
RMM:   2    -0.329428374384E+02   -0.86314E-03   -0.36076E-03  1553   0.275E-01
    336 T=   902. E= -.31967955E+02 F= -.32942837E+02 E0= -.32898361E+02  EK= 0.30311E+01 SP= -.22E+01 SK= 0.12E+00 mag=     -0.058
       N       E                     dE             d eps       ncg     rms          rms(c)
DAV:   1    -0.329556103189E+02   -0.13636E-01   -0.23460E-02  2952   0.129E+00    0.491E-02
RMM:   2    -0.329567087140E+02   -0.10984E-02   -0.43592E-03  1560   0.268E-01
    337 T=   949. E= -.31963777E+02 F= -.32956709E+02 E0= -.32912464E+02  EK= 0.31899E+01 SP= -.23E+01 SK= 0.10E+00 mag=      0.128
       N       E                     dE             d eps       ncg     rms          rms(c)
DAV:   1    -0.329689306766E+02   -0.13320E-01   -0.10957E-02  1976   0.116E+00    0.616E-02
RMM:   2    -0.329703808599E+02   -0.14502E-02   -0.62392E-03  1607   0.340E-01    0.439E-02
RMM:   3    -0.329710710053E+02   -0.69015E-03   -0.22995E-03  1395   0.140E-01
    338 T=   993. E= -.31962127E+02 F= -.32971071E+02 E0= -.32927342E+02  EK= 0.33385E+01 SP= -.24E+01 SK= 0.78E-01 mag=      0.121
       N       E                     dE             d eps       ncg     rms          rms(c)
DAV:   1    -0.329839297085E+02   -0.13549E-01   -0.27088E-02  2568   0.136E+00    0.498E-02
RMM:   2    -0.329850721796E+02   -0.11425E-02   -0.39088E-03  1491   0.306E-01
    339 T=  1035. E= -.31955975E+02 F= -.32985072E+02 E0= -.32941496E+02  EK= 0.34768E+01 SP= -.25E+01 SK= 0.53E-01 mag=     -0.046
       N       E                     dE             d eps       ncg     rms          rms(c)
DAV:   1    -0.329955558111E+02   -0.11626E-01   -0.28617E-02  3168   0.136E+00    0.750E-02
RMM:   2    -0.329973240151E+02   -0.17682E-02   -0.49572E-03  1541   0.261E-01    0.544E-02
RMM:   3    -0.329983127090E+02   -0.98869E-03   -0.17002E-03  1406   0.111E-01
    340 T=  1069. E= -.31951578E+02 F= -.32998313E+02 E0= -.32955076E+02  EK= 0.35915E+01 SP= -.26E+01 SK= 0.30E-01 mag=     -0.071
       N       E                     dE             d eps       ncg     rms          rms(c)
DAV:   1    -0.330079592581E+02   -0.10635E-01   -0.23266E-02  2264   0.123E+00    0.691E-02
RMM:   2    -0.330096289667E+02   -0.16697E-02   -0.38891E-03  1558   0.287E-01    0.485E-02
RMM:   3    -0.330100679286E+02   -0.43896E-03   -0.10024E-03  1291   0.107E-01
    341 T=  1094. E= -.31949365E+02 F= -.33010068E+02 E0= -.32967051E+02  EK= 0.36752E+01 SP= -.26E+01 SK= 0.12E-01 mag=     -0.010
       N       E                     dE             d eps       ncg     rms          rms(c)
DAV:   1    -0.330190325503E+02   -0.94036E-02   -0.35722E-02  2944   0.136E+00    0.440E-02
RMM:   2    -0.330202005329E+02   -0.11680E-02   -0.46515E-03  1594   0.301E-01
    342 T=  1109. E= -.31944397E+02 F= -.33020201E+02 E0= -.32977404E+02  EK= 0.37279E+01 SP= -.27E+01 SK= 0.16E-02 mag=      0.091
       N       E                     dE             d eps       ncg     rms          rms(c)
DAV:   1    -0.330265413537E+02   -0.75088E-02   -0.29380E-02  2968   0.135E+00    0.487E-02
RMM:   2    -0.330278648152E+02   -0.13235E-02   -0.50884E-03  1602   0.287E-01
    343 T=  1113. E= -.31942125E+02 F= -.33027865E+02 E0= -.32985390E+02  EK= 0.37402E+01 SP= -.27E+01 SK= 0.95E-03 mag=      0.136
       N       E                     dE             d eps       ncg     rms          rms(c)
DAV:   1    -0.330319802958E+02   -0.54389E-02   -0.21338E-02  2400   0.128E+00    0.408E-02
RMM:   2    -0.330333452299E+02   -0.13649E-02   -0.52206E-03  1613   0.341E-01    0.269E-02
RMM:   3    -0.330336250699E+02   -0.27984E-03   -0.14976E-03  1447   0.128E-01
    344 T=  1105. E= -.31940186E+02 F= -.33033625E+02 E0= -.32991227E+02  EK= 0.37145E+01 SP= -.26E+01 SK= 0.10E-01 mag=      0.049
       N       E                     dE             d eps       ncg     rms          rms(c)
DAV:   1    -0.330353298449E+02   -0.19846E-02   -0.30344E-02  2728   0.137E+00    0.384E-02
RMM:   2    -0.330366169152E+02   -0.12871E-02   -0.43437E-03  1565   0.284E-01
    345 T=  1088. E= -.31933031E+02 F= -.33036617E+02 E0= -.32994281E+02  EK= 0.36569E+01 SP= -.26E+01 SK= 0.29E-01 mag=     -0.100
       N       E                     dE             d eps       ncg     rms          rms(c)
DAV:   1    -0.330356979189E+02   -0.36807E-03   -0.28893E-02  2800   0.135E+00    0.544E-02
RMM:   2    -0.330371641392E+02   -0.14662E-02   -0.51731E-03  1604   0.272E-01    0.399E-02
RMM:   3    -0.330376550098E+02   -0.49087E-03   -0.12742E-03  1348   0.109E-01
    346 T=  1061. E= -.31928332E+02 F= -.33037655E+02 E0= -.32995427E+02  EK= 0.35644E+01 SP= -.25E+01 SK= 0.54E-01 mag=     -0.063
       N       E                     dE             d eps       ncg     rms          rms(c)
DAV:   1    -0.330352629970E+02    0.19011E-02   -0.21621E-02  2328   0.124E+00    0.510E-02
RMM:   2    -0.330366916637E+02   -0.14287E-02   -0.35237E-03  1576   0.285E-01    0.349E-02
RMM:   3    -0.330369051788E+02   -0.21352E-03   -0.77648E-04  1217   0.102E-01
    347 T=  1025. E= -.31924806E+02 F= -.33036905E+02 E0= -.32994559E+02  EK= 0.34437E+01 SP= -.24E+01 SK= 0.82E-01 mag=      0.043
       N       E                     dE             d eps       ncg     rms          rms(c)
DAV:   1    -0.330331464575E+02    0.35452E-02   -0.30830E-02  2984   0.128E+00    0.450E-02
RMM:   2    -0.330342996995E+02   -0.11532E-02   -0.40623E-03  1579   0.268E-01
    348 T=   983. E= -.31918988E+02 F= -.33034300E+02 E0= -.32991899E+02  EK= 0.33046E+01 SP= -.23E+01 SK= 0.11E+00 mag=      0.131
       N       E                     dE             d eps       ncg     rms          rms(c)
DAV:   1    -0.330296967203E+02    0.34497E-02   -0.24035E-02  2792   0.128E+00    0.418E-02
RMM:   2    -0.330308792308E+02   -0.11825E-02   -0.45492E-03  1585   0.269E-01
    349 T=   937. E= -.31916145E+02 F= -.33030879E+02 E0= -.32988317E+02  EK= 0.31498E+01 SP= -.22E+01 SK= 0.14E+00 mag=      0.115
       N       E                     dE             d eps       ncg     rms          rms(c)
DAV:   1    -0.330260892314E+02    0.36075E-02   -0.19228E-02  2464   0.119E+00    0.273E-02
RMM:   2    -0.330271308374E+02   -0.10416E-02   -0.43902E-03  1544   0.306E-01
    350 T=   890. E= -.31912156E+02 F= -.33027131E+02 E0= -.32984241E+02  EK= 0.29903E+01 SP= -.20E+01 SK= 0.16E+00 mag=      0.004
       N       E                     dE             d eps       ncg     rms          rms(c)
DAV:   1    -0.330218827759E+02    0.42065E-02   -0.26669E-02  2904   0.128E+00    0.365E-02
RMM:   2    -0.330230120171E+02   -0.11292E-02   -0.44146E-03  1564   0.282E-01
    351 T=   843. E= -.31906770E+02 F= -.33023012E+02 E0= -.32979889E+02  EK= 0.28320E+01 SP= -.19E+01 SK= 0.17E+00 mag=     -0.116
       N       E                     dE             d eps       ncg     rms          rms(c)
DAV:   1    -0.330185659643E+02    0.33168E-02   -0.17202E-02  2536   0.112E+00    0.452E-02
RMM:   2    -0.330196568546E+02   -0.10909E-02   -0.40879E-03  1565   0.292E-01
    352 T=   797. E= -.31902685E+02 F= -.33019657E+02 E0= -.32976282E+02  EK= 0.26781E+01 SP= -.17E+01 SK= 0.17E+00 mag=     -0.144
       N       E                     dE             d eps       ncg     rms          rms(c)
DAV:   1    -0.330167429518E+02    0.18230E-02   -0.21023E-02  2616   0.117E+00    0.296E-02
RMM:   2    -0.330176820697E+02   -0.93912E-03   -0.40140E-03  1541   0.270E-01
    353 T=   754. E= -.31898649E+02 F= -.33017682E+02 E0= -.32973814E+02  EK= 0.25340E+01 SP= -.16E+01 SK= 0.17E+00 mag=     -0.056
       N       E                     dE             d eps       ncg     rms          rms(c)
DAV:   1    -0.330160662641E+02    0.67669E-03   -0.17129E-02  2664   0.107E+00    0.315E-02
RMM:   2    -0.330169976219E+02   -0.93136E-03   -0.43761E-03  1572   0.287E-01
    354 T=   715. E= -.31894469E+02 F= -.33016998E+02 E0= -.32972646E+02  EK= 0.24026E+01 SP= -.14E+01 SK= 0.15E+00 mag=      0.088
       N       E                     dE             d eps       ncg     rms          rms(c)
DAV:   1    -0.330169212377E+02   -0.85497E-03   -0.19660E-02  2704   0.107E+00    0.492E-02
RMM:   2    -0.330180597618E+02   -0.11385E-02   -0.45424E-03  1582   0.275E-01
    355 T=   680. E= -.31890039E+02 F= -.33018060E+02 E0= -.32973390E+02  EK= 0.22861E+01 SP= -.13E+01 SK= 0.14E+00 mag=      0.155
       N       E                     dE             d eps       ncg     rms          rms(c)
DAV:   1    -0.330213217790E+02   -0.44005E-02   -0.16860E-02  2576   0.104E+00    0.379E-02
RMM:   2    -0.330221806183E+02   -0.85884E-03   -0.38040E-03  1543   0.273E-01
    356 T=   650. E= -.31886652E+02 F= -.33022181E+02 E0= -.32976935E+02  EK= 0.21854E+01 SP= -.12E+01 SK= 0.12E+00 mag=      0.097
       N       E                     dE             d eps       ncg     rms          rms(c)
DAV:   1    -0.330279231097E+02   -0.66013E-02   -0.15420E-02  2672   0.993E-01    0.310E-02
RMM:   2    -0.330287523669E+02   -0.82926E-03   -0.39029E-03  1553   0.260E-01
    357 T=   625. E= -.31883139E+02 F= -.33028752E+02 E0= -.32982858E+02  EK= 0.21017E+01 SP= -.10E+01 SK= 0.91E-01 mag=     -0.046
       N       E                     dE             d eps       ncg     rms          rms(c)
DAV:   1    -0.330368161333E+02   -0.88930E-02   -0.12207E-02  2352   0.955E-01    0.478E-02
RMM:   2    -0.330377419175E+02   -0.92578E-03   -0.38725E-03  1530   0.262E-01
    358 T=   606. E= -.31879384E+02 F= -.33037742E+02 E0= -.32991400E+02  EK= 0.20351E+01 SP= -.94E+00 SK= 0.68E-01 mag=     -0.171
       N       E                     dE             d eps       ncg     rms          rms(c)
DAV:   1    -0.330491624284E+02   -0.12346E-01   -0.13758E-02  2512   0.971E-01    0.507E-02
RMM:   2    -0.330501647098E+02   -0.10023E-02   -0.35777E-03  1523   0.251E-01
    359 T=   591. E= -.31875513E+02 F= -.33050165E+02 E0= -.33003322E+02  EK= 0.19862E+01 SP= -.86E+00 SK= 0.46E-01 mag=     -0.154
       N       E                     dE             d eps       ncg     rms          rms(c)
DAV:   1    -0.330659060767E+02   -0.16744E-01   -0.13729E-02  2464   0.942E-01    0.327E-02
RMM:   2    -0.330666282946E+02   -0.72222E-03   -0.37491E-03  1526   0.273E-01
    360 T=   582. E= -.31871945E+02 F= -.33066628E+02 E0= -.33018916E+02  EK= 0.19552E+01 SP= -.79E+00 SK= 0.28E-01 mag=     -0.001
       N       E                     dE             d eps       ncg     rms          rms(c)
DAV:   1    -0.330843462802E+02   -0.18440E-01   -0.15423E-02  2384   0.913E-01    0.534E-02
RMM:   2    -0.330853287651E+02   -0.98248E-03   -0.36125E-03  1530   0.253E-01
    361 T=   578. E= -.31867611E+02 F= -.33085329E+02 E0= -.33037106E+02  EK= 0.19409E+01 SP= -.74E+00 SK= 0.13E-01 mag=      0.175
       N       E                     dE             d eps       ncg     rms          rms(c)
DAV:   1    -0.331060222878E+02   -0.21676E-01   -0.12068E-02  2152   0.922E-01    0.632E-02
RMM:   2    -0.331071621164E+02   -0.11398E-02   -0.40107E-03  1558   0.253E-01
    362 T=   578. E= -.31863527E+02 F= -.33107162E+02 E0= -.33058479E+02  EK= 0.19429E+01 SP= -.70E+00 SK= 0.43E-02 mag=      0.246
       N       E                     dE             d eps       ncg     rms          rms(c)
DAV:   1    -0.331318613933E+02   -0.25839E-01   -0.13832E-02  2488   0.941E-01    0.452E-02
RMM:   2    -0.331327795605E+02   -0.91817E-03   -0.39060E-03  1546   0.260E-01
    363 T=   584. E= -.31860004E+02 F= -.33132780E+02 E0= -.33083215E+02  EK= 0.19615E+01 SP= -.69E+00 SK= 0.24E-03 mag=      0.125
       N       E                     dE             d eps       ncg     rms          rms(c)
DAV:   1    -0.331604786062E+02   -0.28617E-01   -0.15246E-02  2312   0.929E-01    0.480E-02
RMM:   2    -0.331612816334E+02   -0.80303E-03   -0.37594E-03  1532   0.272E-01
    364 T=   594. E= -.31856142E+02 F= -.33161282E+02 E0= -.33110866E+02  EK= 0.19964E+01 SP= -.69E+00 SK= 0.11E-02 mag=     -0.125
       N       E                     dE             d eps       ncg     rms          rms(c)
DAV:   1    -0.331896591869E+02   -0.29181E-01   -0.17021E-02  2520   0.941E-01    0.776E-02
RMM:   2    -0.331912045269E+02   -0.15453E-02   -0.41564E-03  1531   0.260E-01    0.615E-02
RMM:   3    -0.331922715587E+02   -0.10670E-02   -0.17384E-03  1443   0.112E-01
    365 T=   609. E= -.31852878E+02 F= -.33192272E+02 E0= -.33141366E+02  EK= 0.20461E+01 SP= -.71E+00 SK= 0.61E-02 mag=     -0.128
       N       E                     dE             d eps       ncg     rms          rms(c)
DAV:   1    -0.332249686637E+02   -0.33764E-01   -0.15644E-02  2448   0.920E-01    0.598E-02
RMM:   2    -0.332259272994E+02   -0.95864E-03   -0.28629E-03  1459   0.210E-01
    366 T=   628. E= -.31849913E+02 F= -.33225927E+02 E0= -.33174099E+02  EK= 0.21110E+01 SP= -.75E+00 SK= 0.14E-01 mag=      0.078
       N       E                     dE             d eps       ncg     rms          rms(c)
DAV:   1    -0.332582027291E+02   -0.33234E-01   -0.22638E-02  2712   0.101E+00    0.966E-02
RMM:   2    -0.332600605909E+02   -0.18579E-02   -0.37035E-03  1526   0.220E-01    0.723E-02
RMM:   3    -0.332616422728E+02   -0.15817E-02   -0.20638E-03  1400   0.109E-01    0.420E-02
RMM:   4    -0.332621956471E+02   -0.55337E-03   -0.99019E-04  1367   0.751E-02
    367 T=   651. E= -.31848340E+02 F= -.33262196E+02 E0= -.33209548E+02  EK= 0.21894E+01 SP= -.80E+00 SK= 0.24E-01 mag=      0.059
       N       E                     dE             d eps       ncg     rms          rms(c)
DAV:   1    -0.332952019233E+02   -0.33560E-01   -0.17022E-02  1952   0.917E-01    0.102E-01
RMM:   2    -0.332973460199E+02   -0.21441E-02   -0.48794E-03  1425   0.241E-01    0.756E-02
RMM:   3    -0.332989476269E+02   -0.16016E-02   -0.26285E-03  1400   0.108E-01    0.462E-02
RMM:   4    -0.332995676901E+02   -0.62006E-03   -0.13538E-03  1388   0.771E-02
    368 T=   678. E= -.31847498E+02 F= -.33299568E+02 E0= -.33246146E+02  EK= 0.22800E+01 SP= -.86E+00 SK= 0.35E-01 mag=     -0.027
       N       E                     dE             d eps       ncg     rms          rms(c)
DAV:   1    -0.333371247925E+02   -0.38177E-01   -0.15563E-02  2792   0.103E+00    0.500E-02
RMM:   2    -0.333378151182E+02   -0.69033E-03   -0.24781E-03  1485   0.216E-01
    369 T=   709. E= -.31845156E+02 F= -.33337815E+02 E0= -.33283738E+02  EK= 0.23840E+01 SP= -.94E+00 SK= 0.44E-01 mag=     -0.114
       N       E                     dE             d eps       ncg     rms          rms(c)
DAV:   1    -0.333758159339E+02   -0.38691E-01   -0.15311E-02  2664   0.101E+00    0.551E-02
RMM:   2    -0.333768065088E+02   -0.99057E-03   -0.34735E-03  1516   0.244E-01
    370 T=   743. E= -.31843772E+02 F= -.33376807E+02 E0= -.33322080E+02  EK= 0.24975E+01 SP= -.10E+01 SK= 0.52E-01 mag=     -0.143
       N       E                     dE             d eps       ncg     rms          rms(c)
DAV:   1    -0.334154542437E+02   -0.39638E-01   -0.11130E-02  2280   0.104E+00    0.373E-02
RMM:   2    -0.334162721741E+02   -0.81793E-03   -0.35163E-03  1514   0.265E-01
    371 T=   779. E= -.31842552E+02 F= -.33416272E+02 E0= -.33360751E+02  EK= 0.26193E+01 SP= -.11E+01 SK= 0.56E-01 mag=     -0.083
       N       E                     dE             d eps       ncg     rms          rms(c)
DAV:   1    -0.334542819814E+02   -0.38828E-01   -0.16900E-02  2664   0.113E+00    0.275E-02
RMM:   2    -0.334550115853E+02   -0.72960E-03   -0.38304E-03  1525   0.276E-01
    372 T=   818. E= -.31839835E+02 F= -.33455012E+02 E0= -.33398793E+02  EK= 0.27475E+01 SP= -.12E+01 SK= 0.56E-01 mag=      0.049
       N       E                     dE             d eps       ncg     rms          rms(c)
DAV:   1    -0.334903316008E+02   -0.36050E-01   -0.14722E-02  2584   0.110E+00    0.513E-02
RMM:   2    -0.334914913456E+02   -0.11597E-02   -0.42501E-03  1498   0.283E-01
    373 T=   856. E= -.31836484E+02 F= -.33491491E+02 E0= -.33434891E+02  EK= 0.28767E+01 SP= -.13E+01 SK= 0.52E-01 mag=      0.177
       N       E                     dE             d eps       ncg     rms          rms(c)
DAV:   1    -0.335254301746E+02   -0.35099E-01   -0.16832E-02  2712   0.116E+00    0.504E-02
RMM:   2    -0.335264933655E+02   -0.10632E-02   -0.42801E-03  1511   0.298E-01
    374 T=   894. E= -.31833620E+02 F= -.33526493E+02 E0= -.33469451E+02  EK= 0.30029E+01 SP= -.14E+01 SK= 0.45E-01 mag=      0.224
       N       E                     dE             d eps       ncg     rms          rms(c)
DAV:   1    -0.335578305607E+02   -0.32400E-01   -0.17983E-02  2768   0.118E+00    0.315E-02
RMM:   2    -0.335588255664E+02   -0.99501E-03   -0.48634E-03  1567   0.311E-01
    375 T=   929. E= -.31830861E+02 F= -.33558826E+02 E0= -.33501129E+02  EK= 0.31212E+01 SP= -.14E+01 SK= 0.35E-01 mag=      0.141
       N       E                     dE             d eps       ncg     rms          rms(c)
DAV:   1    -0.335856315566E+02   -0.27801E-01   -0.18143E-02  2656   0.120E+00    0.431E-02
RMM:   2    -0.335868262250E+02   -0.11947E-02   -0.52639E-03  1572   0.313E-01
    376 T=   960. E= -.31827142E+02 F= -.33586826E+02 E0= -.33528709E+02  EK= 0.32265E+01 SP= -.15E+01 SK= 0.24E-01 mag=     -0.058
       N       E                     dE             d eps       ncg     rms          rms(c)
DAV:   1    -0.336083677794E+02   -0.22736E-01   -0.19752E-02  2824   0.124E+00    0.573E-02
RMM:   2    -0.336098353405E+02   -0.14676E-02   -0.54345E-03  1589   0.320E-01    0.445E-02
RMM:   3    -0.336103908443E+02   -0.55550E-03   -0.15964E-03  1465   0.125E-01
    377 T=   986. E= -.31823865E+02 F= -.33610391E+02 E0= -.33552320E+02  EK= 0.33130E+01 SP= -.15E+01 SK= 0.13E-01 mag=     -0.153
       N       E                     dE             d eps       ncg     rms          rms(c)
DAV:   1    -0.336277032493E+02   -0.17868E-01   -0.25995E-02  2688   0.122E+00    0.592E-02
RMM:   2    -0.336291840522E+02   -0.14808E-02   -0.41991E-03  1480   0.297E-01    0.431E-02
RMM:   3    -0.336295616112E+02   -0.37756E-03   -0.10711E-03  1300   0.108E-01
    378 T=  1005. E= -.31820044E+02 F= -.33629562E+02 E0= -.33571130E+02  EK= 0.33780E+01 SP= -.16E+01 SK= 0.48E-02 mag=     -0.055
       N       E                     dE             d eps       ncg     rms          rms(c)
DAV:   1    -0.336420693918E+02   -0.12885E-01   -0.27491E-02  2944   0.122E+00    0.385E-02
RMM:   2    -0.336430657785E+02   -0.99639E-03   -0.42119E-03  1579   0.277E-01
    379 T=  1017. E= -.31814697E+02 F= -.33643066E+02 E0= -.33584654E+02  EK= 0.34180E+01 SP= -.16E+01 SK= 0.46E-03 mag=      0.175
       N       E                     dE             d eps       ncg     rms          rms(c)
DAV:   1    -0.336487334434E+02   -0.66641E-02   -0.22966E-02  2960   0.124E+00    0.592E-02
RMM:   2    -0.336500851101E+02   -0.13517E-02   -0.48774E-03  1553   0.276E-01    0.454E-02
RMM:   3    -0.336506733746E+02   -0.58826E-03   -0.13367E-03  1426   0.118E-01
    380 T=  1020. E= -.31812245E+02 F= -.33650673E+02 E0= -.33592802E+02  EK= 0.34265E+01 SP= -.16E+01 SK= 0.80E-03 mag=      0.175
       N       E                     dE             d eps       ncg     rms          rms(c)
DAV:   1    -0.336518955111E+02   -0.18104E-02   -0.19654E-02  2608   0.121E+00    0.455E-02
RMM:   2    -0.336528584001E+02   -0.96289E-03   -0.33274E-03  1516   0.288E-01
    381 T=  1015. E= -.31806477E+02 F= -.33652858E+02 E0= -.33594881E+02  EK= 0.34098E+01 SP= -.16E+01 SK= 0.60E-02 mag=     -0.032
       N       E                     dE             d eps       ncg     rms          rms(c)
DAV:   1    -0.336469209142E+02    0.49746E-02   -0.27401E-02  2768   0.133E+00    0.567E-02
RMM:   2    -0.336482131874E+02   -0.12923E-02   -0.46452E-03  1565   0.262E-01
    382 T=  1002. E= -.31798907E+02 F= -.33648213E+02 E0= -.33591084E+02  EK= 0.33660E+01 SP= -.15E+01 SK= 0.16E-01 mag=     -0.306
       N       E                     dE             d eps       ncg     rms          rms(c)
DAV:   1    -0.336365095460E+02    0.10411E-01   -0.12349E-02  2352   0.114E+00    0.714E-02
RMM:   2    -0.336380390337E+02   -0.15295E-02   -0.48863E-03  1542   0.315E-01    0.542E-02
RMM:   3    -0.336388637450E+02   -0.82471E-03   -0.16363E-03  1401   0.132E-01
    383 T=   980. E= -.31795927E+02 F= -.33638864E+02 E0= -.33582449E+02  EK= 0.32930E+01 SP= -.15E+01 SK= 0.28E-01 mag=     -0.215
       N       E                     dE             d eps       ncg     rms          rms(c)
DAV:   1    -0.336232655297E+02    0.14774E-01   -0.23393E-02  2776   0.123E+00    0.544E-02
RMM:   2    -0.336244151214E+02   -0.11496E-02   -0.36696E-03  1511   0.289E-01
    384 T=   953. E= -.31789359E+02 F= -.33624415E+02 E0= -.33568061E+02  EK= 0.32022E+01 SP= -.14E+01 SK= 0.43E-01 mag=      0.154
       N       E                     dE             d eps       ncg     rms          rms(c)
DAV:   1    -0.336003376417E+02    0.22928E-01   -0.24852E-02  2992   0.126E+00    0.967E-02
RMM:   2    -0.336024898323E+02   -0.21522E-02   -0.52593E-03  1525   0.267E-01    0.756E-02
RMM:   3    -0.336041057916E+02   -0.16160E-02   -0.19884E-03  1426   0.122E-01    0.541E-02
RMM:   4    -0.336048691003E+02   -0.76331E-03   -0.78421E-04  1328   0.771E-02
    385 T=   920. E= -.31784230E+02 F= -.33604869E+02 E0= -.33549474E+02  EK= 0.30925E+01 SP= -.13E+01 SK= 0.56E-01 mag=      0.094
       N       E                     dE             d eps       ncg     rms          rms(c)
DAV:   1    -0.335772996525E+02    0.26806E-01   -0.21291E-02  2384   0.110E+00    0.995E-02
RMM:   2    -0.335795122852E+02   -0.22126E-02   -0.43048E-03  1444   0.268E-01    0.720E-02
RMM:   3    -0.335807426997E+02   -0.12304E-02   -0.17967E-03  1400   0.110E-01
    386 T=   883. E= -.31780540E+02 F= -.33580743E+02 E0= -.33525873E+02  EK= 0.29692E+01 SP= -.12E+01 SK= 0.68E-01 mag=     -0.108
       N       E                     dE             d eps       ncg     rms          rms(c)
DAV:   1    -0.335509426419E+02    0.28570E-01   -0.32177E-02  2728   0.115E+00    0.632E-02
RMM:   2    -0.335522419688E+02   -0.12993E-02   -0.46317E-03  1515   0.284E-01
    387 T=   845. E= -.31774170E+02 F= -.33552242E+02 E0= -.33498697E+02  EK= 0.28409E+01 SP= -.11E+01 SK= 0.76E-01 mag=     -0.330
       N       E                     dE             d eps       ncg     rms          rms(c)
DAV:   1    -0.335188290639E+02    0.32114E-01   -0.26665E-02  2672   0.114E+00    0.798E-02
RMM:   2    -0.335204826776E+02   -0.16536E-02   -0.45626E-03  1545   0.270E-01    0.613E-02
RMM:   3    -0.335214060164E+02   -0.92334E-03   -0.14133E-03  1448   0.117E-01
    388 T=   806. E= -.31770569E+02 F= -.33521406E+02 E0= -.33468562E+02  EK= 0.27084E+01 SP= -.10E+01 SK= 0.79E-01 mag=     -0.178
       N       E                     dE             d eps       ncg     rms          rms(c)
DAV:   1    -0.334864864780E+02    0.33996E-01   -0.18795E-02  2528   0.106E+00    0.732E-02
RMM:   2    -0.334878063997E+02   -0.13199E-02   -0.36654E-03  1480   0.258E-01
    389 T=   767. E= -.31765299E+02 F= -.33487806E+02 E0= -.33435482E+02  EK= 0.25792E+01 SP= -.93E+00 SK= 0.77E-01 mag=      0.249
       N       E                     dE             d eps       ncg     rms          rms(c)
DAV:   1    -0.334457764188E+02    0.40710E-01   -0.32703E-02  2752   0.113E+00    0.118E-01
RMM:   2    -0.334486815121E+02   -0.29051E-02   -0.57512E-03  1535   0.274E-01    0.957E-02
RMM:   3    -0.334506295161E+02   -0.19480E-02   -0.20598E-03  1449   0.126E-01    0.759E-02
RMM:   4    -0.334525662008E+02   -0.19367E-02   -0.17931E-03  1406   0.929E-02    0.419E-02
RMM:   5    -0.334533385447E+02   -0.77234E-03   -0.15094E-03  1398   0.788E-02
    390 T=   731. E= -.31761361E+02 F= -.33453339E+02 E0= -.33401445E+02  EK= 0.24552E+01 SP= -.83E+00 SK= 0.71E-01 mag=      0.040
       N       E                     dE             d eps       ncg     rms          rms(c)
DAV:   1    -0.334094957830E+02    0.43070E-01   -0.16037E-02  2280   0.982E-01    0.118E-01
RMM:   2    -0.334123169445E+02   -0.28212E-02   -0.56488E-03  1454   0.248E-01    0.929E-02
RMM:   3    -0.334141451900E+02   -0.18282E-02   -0.20360E-03  1400   0.102E-01    0.729E-02
RMM:   4    -0.334158225447E+02   -0.16774E-02   -0.16902E-03  1403   0.781E-02    0.411E-02
RMM:   5    -0.334164937510E+02   -0.67121E-03   -0.97573E-04  1355   0.642E-02
    391 T=   695. E= -.31759677E+02 F= -.33416494E+02 E0= -.33365407E+02  EK= 0.23361E+01 SP= -.74E+00 SK= 0.61E-01 mag=     -0.081
       N       E                     dE             d eps       ncg     rms          rms(c)
DAV:   1    -0.333775136092E+02    0.38309E-01   -0.12565E-02  2600   0.973E-01    0.564E-02
RMM:   2    -0.333783648168E+02   -0.85121E-03   -0.31326E-03  1477   0.233E-01
    392 T=   663. E= -.31755371E+02 F= -.33378365E+02 E0= -.33327975E+02  EK= 0.22297E+01 SP= -.65E+00 SK= 0.48E-01 mag=     -0.049
       N       E                     dE             d eps       ncg     rms          rms(c)
DAV:   1    -0.333394662772E+02    0.38047E-01   -0.15483E-02  2792   0.102E+00    0.417E-02
RMM:   2    -0.333401487429E+02   -0.68247E-03   -0.34459E-03  1522   0.235E-01
    393 T=   635. E= -.31751483E+02 F= -.33340149E+02 E0= -.33290499E+02  EK= 0.21352E+01 SP= -.58E+00 SK= 0.34E-01 mag=      0.105
       N       E                     dE             d eps       ncg     rms          rms(c)
DAV:   1    -0.333005541935E+02    0.38912E-01   -0.10398E-02  2368   0.937E-01    0.560E-02
RMM:   2    -0.333013278165E+02   -0.77362E-03   -0.32966E-03  1524   0.264E-01
    394 T=   611. E= -.31747865E+02 F= -.33301328E+02 E0= -.33252634E+02  EK= 0.20528E+01 SP= -.52E+00 SK= 0.21E-01 mag=      0.258
       N       E                     dE             d eps       ncg     rms          rms(c)
DAV:   1    -0.332621540025E+02    0.38400E-01   -0.97602E-03  2280   0.989E-01    0.576E-02
RMM:   2    -0.332630403864E+02   -0.88638E-03   -0.33918E-03  1518   0.247E-01
    395 T=   591. E= -.31743547E+02 F= -.33263040E+02 E0= -.33215033E+02  EK= 0.19851E+01 SP= -.48E+00 SK= 0.97E-02 mag=      0.259
       N       E                     dE             d eps       ncg     rms          rms(c)
DAV:   1    -0.332254748395E+02    0.36679E-01   -0.64895E-03  2080   0.910E-01    0.291E-02
RMM:   2    -0.332260273498E+02   -0.55251E-03   -0.33976E-03  1497   0.265E-01
    396 T=   575. E= -.31739177E+02 F= -.33226027E+02 E0= -.33178275E+02  EK= 0.19325E+01 SP= -.45E+00 SK= 0.24E-02 mag=      0.077
       N       E                     dE             d eps       ncg     rms          rms(c)
DAV:   1    -0.331883222997E+02    0.37153E-01   -0.83643E-03  2304   0.928E-01    0.446E-02
RMM:   2    -0.331889151033E+02   -0.59280E-03   -0.30094E-03  1515   0.241E-01
    397 T=   564. E= -.31733822E+02 F= -.33188915E+02 E0= -.33141858E+02  EK= 0.18945E+01 SP= -.44E+00 SK= 0.99E-05 mag=     -0.187
       N       E                     dE             d eps       ncg     rms          rms(c)
DAV:   1    -0.331508085677E+02    0.37514E-01   -0.87278E-03  2224   0.894E-01    0.709E-02
RMM:   2    -0.331519493105E+02   -0.11407E-02   -0.35440E-03  1509   0.251E-01
    398 T=   557. E= -.31728243E+02 F= -.33151949E+02 E0= -.33105968E+02  EK= 0.18707E+01 SP= -.45E+00 SK= 0.33E-02 mag=     -0.328
       N       E                     dE             d eps       ncg     rms          rms(c)
DAV:   1    -0.331168793498E+02    0.33929E-01   -0.11209E-02  2432   0.949E-01    0.525E-02
RMM:   2    -0.331176833795E+02   -0.80403E-03   -0.33052E-03  1516   0.247E-01
    399 T=   554. E= -.31724111E+02 F= -.33117683E+02 E0= -.33071922E+02  EK= 0.18622E+01 SP= -.48E+00 SK= 0.13E-01 mag=     -0.230
       N       E                     dE             d eps       ncg     rms          rms(c)
DAV:   1    -0.330838146491E+02    0.33065E-01   -0.94592E-03  2152   0.878E-01    0.312E-02
RMM:   2    -0.330843327635E+02   -0.51811E-03   -0.35017E-03  1522   0.263E-01
    400 T=   556. E= -.31719487E+02 F= -.33084333E+02 E0= -.33038689E+02  EK= 0.18693E+01 SP= -.53E+00 SK= 0.29E-01 mag=      0.067
       N       E                     dE             d eps       ncg     rms          rms(c)
DAV:   1    -0.330486117989E+02    0.35203E-01   -0.10257E-02  2256   0.917E-01    0.772E-02
RMM:   2    -0.330499877394E+02   -0.13759E-02   -0.44395E-03  1543   0.256E-01    0.612E-02
RMM:   3    -0.330509081663E+02   -0.92043E-03   -0.15694E-03  1440   0.112E-01
    401 T=   563. E= -.31714498E+02 F= -.33050908E+02 E0= -.33006159E+02  EK= 0.18912E+01 SP= -.60E+00 SK= 0.50E-01 mag=      0.170
       N       E                     dE             d eps       ncg     rms          rms(c)
DAV:   1    -0.330198589216E+02    0.30129E-01   -0.10398E-02  2176   0.864E-01    0.466E-02
RMM:   2    -0.330203255089E+02   -0.46659E-03   -0.20946E-03  1454   0.210E-01
    402 T=   574. E= -.31711231E+02 F= -.33020326E+02 E0= -.32975722E+02  EK= 0.19290E+01 SP= -.70E+00 SK= 0.76E-01 mag=      0.063
       N       E                     dE             d eps       ncg     rms          rms(c)
DAV:   1    -0.329890864802E+02    0.30772E-01   -0.13447E-02  2584   0.961E-01    0.530E-02
RMM:   2    -0.329897825446E+02   -0.69606E-03   -0.30511E-03  1510   0.212E-01
    403 T=   590. E= -.31706959E+02 F= -.32989783E+02 E0= -.32945559E+02  EK= 0.19831E+01 SP= -.81E+00 SK= 0.11E+00 mag=     -0.153
       N       E                     dE             d eps       ncg     rms          rms(c)
DAV:   1    -0.329581921112E+02    0.30894E-01   -0.57836E-03  1592   0.880E-01    0.673E-02
RMM:   2    -0.329593804287E+02   -0.11883E-02   -0.48164E-03  1566   0.268E-01
    404 T=   611. E= -.31702183E+02 F= -.32959380E+02 E0= -.32916032E+02  EK= 0.20534E+01 SP= -.93E+00 SK= 0.14E+00 mag=     -0.263
       N       E                     dE             d eps       ncg     rms          rms(c)
DAV:   1    -0.329308961354E+02    0.27296E-01   -0.16390E-02  2656   0.107E+00    0.588E-02
RMM:   2    -0.329317913282E+02   -0.89519E-03   -0.41826E-03  1530   0.270E-01
    405 T=   637. E= -.31699065E+02 F= -.32931791E+02 E0= -.32888578E+02  EK= 0.21409E+01 SP= -.11E+01 SK= 0.17E+00 mag=     -0.190
       N       E                     dE             d eps       ncg     rms          rms(c)
DAV:   1    -0.329039176020E+02    0.26979E-01   -0.12599E-02  2176   0.898E-01    0.404E-02
RMM:   2    -0.329047771150E+02   -0.85951E-03   -0.47086E-03  1520   0.296E-01
    406 T=   668. E= -.31695397E+02 F= -.32904777E+02 E0= -.32861583E+02  EK= 0.22456E+01 SP= -.12E+01 SK= 0.20E+00 mag=      0.036
       N       E                     dE             d eps       ncg     rms          rms(c)
DAV:   1    -0.328754813846E+02    0.28436E-01   -0.12378E-02  2408   0.105E+00    0.654E-02
RMM:   2    -0.328765575213E+02   -0.10761E-02   -0.42210E-03  1522   0.268E-01
    407 T=   704. E= -.31689896E+02 F= -.32876558E+02 E0= -.32834126E+02  EK= 0.23668E+01 SP= -.14E+01 SK= 0.22E+00 mag=      0.264
       N       E                     dE             d eps       ncg     rms          rms(c)
DAV:   1    -0.328466850463E+02    0.28796E-01   -0.10703E-02  2304   0.985E-01    0.818E-02
RMM:   2    -0.328483787589E+02   -0.16937E-02   -0.50228E-03  1506   0.285E-01    0.643E-02
RMM:   3    -0.328493673827E+02   -0.98862E-03   -0.17525E-03  1454   0.118E-01
    408 T=   745. E= -.31686353E+02 F= -.32849367E+02 E0= -.32807344E+02  EK= 0.25023E+01 SP= -.16E+01 SK= 0.24E+00 mag=      0.120
       N       E                     dE             d eps       ncg     rms          rms(c)
DAV:   1    -0.328205938697E+02    0.27785E-01   -0.20509E-02  2624   0.110E+00    0.754E-02
RMM:   2    -0.328220799542E+02   -0.14861E-02   -0.36002E-03  1429   0.263E-01    0.593E-02
RMM:   3    -0.328225677060E+02   -0.48775E-03   -0.84251E-04  1277   0.924E-02
    409 T=   789. E= -.31683216E+02 F= -.32822568E+02 E0= -.32780662E+02  EK= 0.26514E+01 SP= -.18E+01 SK= 0.25E+00 mag=     -0.144
       N       E                     dE             d eps       ncg     rms          rms(c)
DAV:   1    -0.327926401139E+02    0.29440E-01   -0.40708E-02  2480   0.109E+00    0.837E-02
RMM:   2    -0.327941359248E+02   -0.14958E-02   -0.51958E-03  1537   0.293E-01    0.612E-02
RMM:   3    -0.327950698988E+02   -0.93397E-03   -0.14519E-03  1503   0.122E-01
    410 T=   836. E= -.31680202E+02 F= -.32795070E+02 E0= -.32753532E+02  EK= 0.28109E+01 SP= -.19E+01 SK= 0.24E+00 mag=     -0.140
       N       E                     dE             d eps       ncg     rms          rms(c)
DAV:   1    -0.327666174133E+02    0.27519E-01   -0.14951E-02  2592   0.117E+00    0.411E-02
RMM:   2    -0.327673190001E+02   -0.70159E-03   -0.37174E-03  1521   0.268E-01
    411 T=   886. E= -.31676574E+02 F= -.32767319E+02 E0= -.32725687E+02  EK= 0.29785E+01 SP= -.21E+01 SK= 0.23E+00 mag=      0.089
       N       E                     dE             d eps       ncg     rms          rms(c)
DAV:   1    -0.327344025234E+02    0.32215E-01   -0.19737E-02  3024   0.117E+00    0.824E-02
RMM:   2    -0.327359611429E+02   -0.15586E-02   -0.47431E-03  1533   0.262E-01    0.620E-02
RMM:   3    -0.327373129467E+02   -0.13518E-02   -0.21439E-03  1416   0.121E-01    0.405E-02
RMM:   4    -0.327379138884E+02   -0.60094E-03   -0.10464E-03  1365   0.778E-02
    412 T=   936. E= -.31673654E+02 F= -.32737914E+02 E0= -.32696640E+02  EK= 0.31467E+01 SP= -.23E+01 SK= 0.21E+00 mag=      0.025
       N       E                     dE             d eps       ncg     rms          rms(c)
DAV:   1    -0.327057808472E+02    0.31532E-01   -0.11569E-02  2480   0.117E+00    0.696E-02
RMM:   2    -0.327066706963E+02   -0.88985E-03   -0.28497E-03  1435   0.243E-01
    413 T=   985. E= -.31669405E+02 F= -.32706671E+02 E0= -.32665881E+02  EK= 0.33114E+01 SP= -.24E+01 SK= 0.18E+00 mag=     -0.169
       N       E                     dE             d eps       ncg     rms          rms(c)
DAV:   1    -0.326715044094E+02    0.34276E-01   -0.24827E-02  3160   0.128E+00    0.808E-02
RMM:   2    -0.326730884984E+02   -0.15841E-02   -0.46444E-03  1507   0.264E-01    0.608E-02
RMM:   3    -0.326737929395E+02   -0.70444E-03   -0.12089E-03  1416   0.103E-01
    414 T=  1031. E= -.31664925E+02 F= -.32673793E+02 E0= -.32633504E+02  EK= 0.34648E+01 SP= -.26E+01 SK= 0.14E+00 mag=     -0.123
       N       E                     dE             d eps       ncg     rms          rms(c)
DAV:   1    -0.326390857330E+02    0.34003E-01   -0.13038E-02  2504   0.121E+00    0.583E-02
RMM:   2    -0.326400334538E+02   -0.94772E-03   -0.39667E-03  1525   0.307E-01
    415 T=  1071. E= -.31661470E+02 F= -.32640033E+02 E0= -.32599721E+02  EK= 0.35989E+01 SP= -.27E+01 SK= 0.99E-01 mag=      0.113
       N       E                     dE             d eps       ncg     rms          rms(c)
DAV:   1    -0.325998200379E+02    0.39266E-01   -0.32754E-02  3096   0.139E+00    0.876E-02
RMM:   2    -0.326017223416E+02   -0.19023E-02   -0.61110E-03  1536   0.292E-01    0.643E-02
RMM:   3    -0.326031779270E+02   -0.14556E-02   -0.22021E-03  1469   0.127E-01    0.438E-02
RMM:   4    -0.326037779085E+02   -0.59998E-03   -0.10131E-03  1365   0.756E-02
    416 T=  1103. E= -.31657601E+02 F= -.32603778E+02 E0= -.32563829E+02  EK= 0.37062E+01 SP= -.28E+01 SK= 0.62E-01 mag=      0.028
       N       E                     dE             d eps       ncg     rms          rms(c)
DAV:   1    -0.325631359621E+02    0.40042E-01   -0.13433E-02  2456   0.124E+00    0.832E-02
RMM:   2    -0.325646373897E+02   -0.15014E-02   -0.48406E-03  1456   0.315E-01    0.561E-02
RMM:   3    -0.325654054599E+02   -0.76807E-03   -0.15618E-03  1393   0.114E-01
    417 T=  1125. E= -.31654276E+02 F= -.32565405E+02 E0= -.32525896E+02  EK= 0.37794E+01 SP= -.29E+01 SK= 0.31E-01 mag=     -0.089
       N       E                     dE             d eps       ncg     rms          rms(c)
DAV:   1    -0.325246887651E+02    0.39949E-01   -0.25076E-02  2984   0.133E+00    0.603E-02
RMM:   2    -0.325257908858E+02   -0.11021E-02   -0.44591E-03  1503   0.283E-01
    418 T=  1136. E= -.31648385E+02 F= -.32525791E+02 E0= -.32486778E+02  EK= 0.38176E+01 SP= -.30E+01 SK= 0.10E-01 mag=     -0.163
       N       E                     dE             d eps       ncg     rms          rms(c)
DAV:   1    -0.324841961637E+02    0.40493E-01   -0.19864E-02  3040   0.135E+00    0.457E-02
RMM:   2    -0.324854028103E+02   -0.12066E-02   -0.46493E-03  1551   0.271E-01
    419 T=  1134. E= -.31646683E+02 F= -.32485403E+02 E0= -.32446765E+02  EK= 0.38117E+01 SP= -.30E+01 SK= 0.65E-03 mag=     -0.126
       N       E                     dE             d eps       ncg     rms          rms(c)
DAV:   1    -0.324438765457E+02    0.40320E-01   -0.13652E-02  2240   0.123E+00    0.327E-02
RMM:   2    -0.324448344161E+02   -0.95787E-03   -0.44908E-03  1567   0.327E-01
    420 T=  1121. E= -.31642697E+02 F= -.32444834E+02 E0= -.32406521E+02  EK= 0.37688E+01 SP= -.30E+01 SK= 0.24E-02 mag=      0.016
       N       E                     dE             d eps       ncg     rms          rms(c)
DAV:   1    -0.324020616976E+02    0.41815E-01   -0.26344E-02  3104   0.141E+00    0.526E-02
RMM:   2    -0.324034502995E+02   -0.13886E-02   -0.56680E-03  1585   0.311E-01    0.389E-02
RMM:   3    -0.324038998316E+02   -0.44953E-03   -0.14912E-03  1442   0.118E-01
    421 T=  1098. E= -.31636124E+02 F= -.32403900E+02 E0= -.32366168E+02  EK= 0.36913E+01 SP= -.29E+01 SK= 0.14E-01 mag=      0.083
       N       E                     dE             d eps       ncg     rms          rms(c)
DAV:   1    -0.323633955227E+02    0.40055E-01   -0.14041E-02  2512   0.120E+00    0.365E-02
RMM:   2    -0.323642096025E+02   -0.81408E-03   -0.31683E-03  1513   0.289E-01
    422 T=  1066. E= -.31628322E+02 F= -.32364210E+02 E0= -.32326929E+02  EK= 0.35839E+01 SP= -.29E+01 SK= 0.34E-01 mag=      0.044
       N       E                     dE             d eps       ncg     rms          rms(c)
DAV:   1    -0.323249772623E+02    0.38418E-01   -0.25785E-02  3072   0.135E+00    0.368E-02
RMM:   2    -0.323259107349E+02   -0.93347E-03   -0.44610E-03  1545   0.255E-01
    423 T=  1027. E= -.31620580E+02 F= -.32325911E+02 E0= -.32289091E+02  EK= 0.34515E+01 SP= -.28E+01 SK= 0.58E-01 mag=     -0.061
       N       E                     dE             d eps       ncg     rms          rms(c)
DAV:   1    -0.322885732340E+02    0.36404E-01   -0.10149E-02  2104   0.114E+00    0.459E-02
RMM:   2    -0.322897114957E+02   -0.11383E-02   -0.51049E-03  1589   0.319E-01
    424 T=   982. E= -.31614957E+02 F= -.32289711E+02 E0= -.32253450E+02  EK= 0.32997E+01 SP= -.27E+01 SK= 0.82E-01 mag=     -0.128
       N       E                     dE             d eps       ncg     rms          rms(c)
DAV:   1    -0.322557873298E+02    0.32786E-01   -0.26136E-02  2992   0.132E+00    0.369E-02
RMM:   2    -0.322568152215E+02   -0.10279E-02   -0.51577E-03  1570   0.304E-01
    425 T=   934. E= -.31609418E+02 F= -.32256815E+02 E0= -.32221047E+02  EK= 0.31386E+01 SP= -.26E+01 SK= 0.10E+00 mag=     -0.091
       N       E                     dE             d eps       ncg     rms          rms(c)
DAV:   1    -0.322262920659E+02    0.29495E-01   -0.12238E-02  2328   0.110E+00    0.264E-02
RMM:   2    -0.322272395206E+02   -0.94745E-03   -0.53436E-03  1577   0.327E-01
    426 T=   885. E= -.31604238E+02 F= -.32227240E+02 E0= -.32191863E+02  EK= 0.29746E+01 SP= -.25E+01 SK= 0.12E+00 mag=      0.028
       N       E                     dE             d eps       ncg     rms          rms(c)
DAV:   1    -0.321998449709E+02    0.26447E-01   -0.18165E-02  2744   0.120E+00    0.477E-02
RMM:   2    -0.322009687064E+02   -0.11237E-02   -0.51752E-03  1572   0.291E-01
    427 T=   838. E= -.31598054E+02 F= -.32200969E+02 E0= -.32166079E+02  EK= 0.28147E+01 SP= -.23E+01 SK= 0.13E+00 mag=      0.114
       N       E                     dE             d eps       ncg     rms          rms(c)
DAV:   1    -0.321785525602E+02    0.21292E-01   -0.13404E-02  2504   0.111E+00    0.413E-02
RMM:   2    -0.321794579049E+02   -0.90534E-03   -0.47429E-03  1520   0.320E-01
    428 T=   792. E= -.31592917E+02 F= -.32179458E+02 E0= -.32145045E+02  EK= 0.26628E+01 SP= -.22E+01 SK= 0.13E+00 mag=      0.104
       N       E                     dE             d eps       ncg     rms          rms(c)
DAV:   1    -0.321612464863E+02    0.17306E-01   -0.14370E-02  2776   0.112E+00    0.315E-02
RMM:   2    -0.321620466325E+02   -0.80015E-03   -0.44179E-03  1535   0.281E-01
    429 T=   751. E= -.31587861E+02 F= -.32162047E+02 E0= -.32127947E+02  EK= 0.25228E+01 SP= -.21E+01 SK= 0.13E+00 mag=      0.003
       N       E                     dE             d eps       ncg     rms          rms(c)
DAV:   1    -0.321475465836E+02    0.13700E-01   -0.10677E-02  2336   0.105E+00    0.456E-02
RMM:   2    -0.321484481864E+02   -0.90160E-03   -0.43698E-03  1534   0.295E-01
    430 T=   713. E= -.31583163E+02 F= -.32148448E+02 E0= -.32114679E+02  EK= 0.23964E+01 SP= -.19E+01 SK= 0.12E+00 mag=     -0.108
       N       E                     dE             d eps       ncg     rms          rms(c)
DAV:   1    -0.321382312210E+02    0.93154E-02   -0.13625E-02  2640   0.107E+00    0.499E-02
RMM:   2    -0.321392521105E+02   -0.10209E-02   -0.43357E-03  1522   0.277E-01
    431 T=   680. E= -.31578399E+02 F= -.32139252E+02 E0= -.32105888E+02  EK= 0.22864E+01 SP= -.18E+01 SK= 0.10E+00 mag=     -0.092
       N       E                     dE             d eps       ncg     rms          rms(c)
DAV:   1    -0.321338086083E+02    0.44226E-02   -0.11865E-02  2448   0.102E+00    0.378E-02
RMM:   2    -0.321345569623E+02   -0.74835E-03   -0.47978E-03  1570   0.309E-01
    432 T=   653. E= -.31573646E+02 F= -.32134557E+02 E0= -.32101396E+02  EK= 0.21937E+01 SP= -.17E+01 SK= 0.83E-01 mag=      0.027
       N       E                     dE             d eps       ncg     rms          rms(c)
DAV:   1    -0.321315303423E+02    0.22783E-02   -0.16720E-02  2640   0.101E+00    0.618E-02
RMM:   2    -0.321327012420E+02   -0.11709E-02   -0.45433E-03  1533   0.283E-01
    433 T=   630. E= -.31568146E+02 F= -.32132701E+02 E0= -.32099758E+02  EK= 0.21178E+01 SP= -.16E+01 SK= 0.64E-01 mag=      0.118
       N       E                     dE             d eps       ncg     rms          rms(c)
DAV:   1    -0.321346122034E+02   -0.30819E-02   -0.98775E-03  2232   0.994E-01    0.526E-02
RMM:   2    -0.321354858803E+02   -0.87368E-03   -0.40790E-03  1527   0.281E-01
    434 T=   613. E= -.31564132E+02 F= -.32135486E+02 E0= -.32102800E+02  EK= 0.20586E+01 SP= -.15E+01 SK= 0.45E-01 mag=      0.115
       N       E                     dE             d eps       ncg     rms          rms(c)
DAV:   1    -0.321409534856E+02   -0.63413E-02   -0.10819E-02  2640   0.994E-01    0.460E-02
RMM:   2    -0.321416411656E+02   -0.68768E-03   -0.40082E-03  1533   0.275E-01
    435 T=   600. E= -.31559837E+02 F= -.32141641E+02 E0= -.32109079E+02  EK= 0.20164E+01 SP= -.15E+01 SK= 0.28E-01 mag=      0.016
       N       E                     dE             d eps       ncg     rms          rms(c)
DAV:   1    -0.321493475136E+02   -0.83940E-02   -0.86132E-03  2336   0.948E-01    0.506E-02
RMM:   2    -0.321503776574E+02   -0.10301E-02   -0.43549E-03  1516   0.280E-01
    436 T=   592. E= -.31555109E+02 F= -.32150378E+02 E0= -.32117885E+02  EK= 0.19904E+01 SP= -.14E+01 SK= 0.15E-01 mag=     -0.087
       N       E                     dE             d eps       ncg     rms          rms(c)
DAV:   1    -0.321615897357E+02   -0.12242E-01   -0.11296E-02  2400   0.101E+00    0.529E-02
RMM:   2    -0.321624779140E+02   -0.88818E-03   -0.39780E-03  1506   0.275E-01
    437 T=   589. E= -.31550888E+02 F= -.32162478E+02 E0= -.32130147E+02  EK= 0.19805E+01 SP= -.14E+01 SK= 0.54E-02 mag=     -0.092
       N       E                     dE             d eps       ncg     rms          rms(c)
DAV:   1    -0.321765708334E+02   -0.14981E-01   -0.11169E-02  2432   0.961E-01    0.343E-02
RMM:   2    -0.321772828814E+02   -0.71205E-03   -0.41592E-03  1523   0.285E-01
    438 T=   591. E= -.31546774E+02 F= -.32177283E+02 E0= -.32144964E+02  EK= 0.19861E+01 SP= -.14E+01 SK= 0.66E-03 mag=     -0.005
       N       E                     dE             d eps       ncg     rms          rms(c)
DAV:   1    -0.321924082450E+02   -0.15837E-01   -0.12363E-02  2544   0.957E-01    0.572E-02
RMM:   2    -0.321935423075E+02   -0.11341E-02   -0.45744E-03  1554   0.266E-01
    439 T=   597. E= -.31542208E+02 F= -.32193542E+02 E0= -.32161171E+02  EK= 0.20064E+01 SP= -.14E+01 SK= 0.45E-03 mag=      0.074
       N       E                     dE             d eps       ncg     rms          rms(c)
DAV:   1    -0.322114857541E+02   -0.19078E-01   -0.11242E-02  2296   0.956E-01    0.477E-02
RMM:   2    -0.322122772198E+02   -0.79147E-03   -0.40483E-03  1533   0.276E-01
    440 T=   607. E= -.31538545E+02 F= -.32212277E+02 E0= -.32179951E+02  EK= 0.20410E+01 SP= -.14E+01 SK= 0.44E-02 mag=      0.088
       N       E                     dE             d eps       ncg     rms          rms(c)
DAV:   1    -0.322312941586E+02   -0.19808E-01   -0.12599E-02  2552   0.958E-01    0.442E-02
RMM:   2    -0.322321260394E+02   -0.83188E-03   -0.42543E-03  1528   0.274E-01
    441 T=   622. E= -.31534533E+02 F= -.32232126E+02 E0= -.32199708E+02  EK= 0.20897E+01 SP= -.14E+01 SK= 0.12E-01 mag=      0.027
       N       E                     dE             d eps       ncg     rms          rms(c)
DAV:   1    -0.322515797668E+02   -0.20286E-01   -0.94928E-03  2416   0.956E-01    0.519E-02
RMM:   2    -0.322526411052E+02   -0.10613E-02   -0.45549E-03  1559   0.268E-01
    442 T=   640. E= -.31530568E+02 F= -.32252641E+02 E0= -.32220038E+02  EK= 0.21513E+01 SP= -.15E+01 SK= 0.22E-01 mag=     -0.054
       N       E                     dE             d eps       ncg     rms          rms(c)
DAV:   1    -0.322729543332E+02   -0.21375E-01   -0.12203E-02  2336   0.984E-01    0.481E-02
RMM:   2    -0.322739186999E+02   -0.96437E-03   -0.43228E-03  1546   0.279E-01
    443 T=   662. E= -.31526832E+02 F= -.32273919E+02 E0= -.32241204E+02  EK= 0.22254E+01 SP= -.15E+01 SK= 0.33E-01 mag=     -0.076
       N       E                     dE             d eps       ncg     rms          rms(c)
DAV:   1    -0.322942016630E+02   -0.21247E-01   -0.13455E-02  2592   0.999E-01    0.427E-02
RMM:   2    -0.322951178507E+02   -0.91619E-03   -0.46829E-03  1550   0.284E-01
    444 T=   688. E= -.31523242E+02 F= -.32295118E+02 E0= -.32262208E+02  EK= 0.23107E+01 SP= -.16E+01 SK= 0.44E-01 mag=     -0.027
       N       E                     dE             d eps       ncg     rms          rms(c)
DAV:   1    -0.323138032278E+02   -0.19602E-01   -0.14931E-02  2568   0.102E+00    0.547E-02
RMM:   2    -0.323150637967E+02   -0.12606E-02   -0.48899E-03  1551   0.284E-01
    445 T=   716. E= -.31519085E+02 F= -.32315064E+02 E0= -.32281822E+02  EK= 0.24058E+01 SP= -.17E+01 SK= 0.54E-01 mag=      0.039
       N       E                     dE             d eps       ncg     rms          rms(c)
DAV:   1    -0.323335383288E+02   -0.19735E-01   -0.13352E-02  2432   0.105E+00    0.460E-02
RMM:   2    -0.323345518236E+02   -0.10135E-02   -0.46569E-03  1553   0.280E-01
    446 T=   747. E= -.31515780E+02 F= -.32334552E+02 E0= -.32301039E+02  EK= 0.25091E+01 SP= -.18E+01 SK= 0.61E-01 mag=      0.069
       N       E                     dE             d eps       ncg     rms          rms(c)
DAV:   1    -0.323508533811E+02   -0.17315E-01   -0.15157E-02  2656   0.106E+00    0.461E-02
RMM:   2    -0.323519952684E+02   -0.11419E-02   -0.52805E-03  1563   0.301E-01
    447 T=   779. E= -.31512297E+02 F= -.32351995E+02 E0= -.32318139E+02  EK= 0.26181E+01 SP= -.18E+01 SK= 0.66E-01 mag=      0.042
       N       E                     dE             d eps       ncg     rms          rms(c)
DAV:   1    -0.323658969135E+02   -0.15044E-01   -0.16432E-02  2744   0.111E+00    0.542E-02
RMM:   2    -0.323672066726E+02   -0.13098E-02   -0.52872E-03  1566   0.299E-01
    448 T=   812. E= -.31508809E+02 F= -.32367207E+02 E0= -.32332885E+02  EK= 0.27303E+01 SP= -.19E+01 SK= 0.66E-01 mag=     -0.018
       N       E                     dE             d eps       ncg     rms          rms(c)
DAV:   1    -0.323785574323E+02   -0.12661E-01   -0.15839E-02  2488   0.113E+00    0.505E-02
RMM:   2    -0.323798859160E+02   -0.13285E-02   -0.54070E-03  1576   0.313E-01
    449 T=   846. E= -.31505463E+02 F= -.32379886E+02 E0= -.32345092E+02  EK= 0.28428E+01 SP= -.20E+01 SK= 0.63E-01 mag=     -0.060
       N       E                     dE             d eps       ncg     rms          rms(c)
DAV:   1    -0.323879741215E+02   -0.94167E-02   -0.18696E-02  2736   0.120E+00    0.487E-02
RMM:   2    -0.323892784139E+02   -0.13043E-02   -0.59262E-03  1589   0.325E-01
    450 T=   878. E= -.31501482E+02 F= -.32389278E+02 E0= -.32353993E+02  EK= 0.29523E+01 SP= -.21E+01 SK= 0.56E-01 mag=     -0.057
       N       E                     dE             d eps       ncg     rms          rms(c)
DAV:   1    -0.323932681056E+02   -0.52940E-02   -0.19584E-02  2760   0.119E+00    0.581E-02
RMM:   2    -0.323950309913E+02   -0.17629E-02   -0.70215E-03  1629   0.334E-01    0.421E-02
RMM:   3    -0.323956054743E+02   -0.57448E-03   -0.19214E-03  1477   0.130E-01
    451 T=   909. E= -.31498472E+02 F= -.32395605E+02 E0= -.32359689E+02  EK= 0.30540E+01 SP= -.22E+01 SK= 0.46E-01 mag=     -0.015
       N       E                     dE             d eps       ncg     rms          rms(c)
DAV:   1    -0.323966066114E+02   -0.15756E-02   -0.21636E-02  2648   0.120E+00    0.597E-02
RMM:   2    -0.323980190492E+02   -0.14124E-02   -0.40141E-03  1459   0.276E-01    0.415E-02
RMM:   3    -0.323983846043E+02   -0.36556E-03   -0.10377E-03  1278   0.102E-01
    452 T=   936. E= -.31495036E+02 F= -.32398385E+02 E0= -.32361834E+02  EK= 0.31452E+01 SP= -.23E+01 SK= 0.35E-01 mag=      0.031
       N       E                     dE             d eps       ncg     rms          rms(c)
DAV:   1    -0.323964493724E+02    0.15697E-02   -0.28673E-02  2888   0.119E+00    0.425E-02
RMM:   2    -0.323975186028E+02   -0.10692E-02   -0.44370E-03  1595   0.269E-01
    453 T=   959. E= -.31490613E+02 F= -.32397519E+02 E0= -.32360292E+02  EK= 0.32227E+01 SP= -.23E+01 SK= 0.24E-01 mag=      0.049
       N       E                     dE             d eps       ncg     rms          rms(c)
DAV:   1    -0.323922966810E+02    0.41527E-02   -0.26205E-02  2968   0.126E+00    0.395E-02
RMM:   2    -0.323935306531E+02   -0.12340E-02   -0.51461E-03  1592   0.280E-01
    454 T=   976. E= -.31488821E+02 F= -.32393531E+02 E0= -.32355570E+02  EK= 0.32801E+01 SP= -.24E+01 SK= 0.13E-01 mag=      0.019
       N       E                     dE             d eps       ncg     rms          rms(c)
DAV:   1    -0.323855605224E+02    0.67362E-02   -0.19646E-02  2576   0.122E+00    0.356E-02
RMM:   2    -0.323867882210E+02   -0.12277E-02   -0.52401E-03  1638   0.336E-01
    455 T=   988. E= -.31484803E+02 F= -.32386788E+02 E0= -.32348081E+02  EK= 0.33200E+01 SP= -.24E+01 SK= 0.55E-02 mag=     -0.037
       N       E                     dE             d eps       ncg     rms          rms(c)
DAV:   1    -0.323761947015E+02    0.93658E-02   -0.30523E-02  3056   0.132E+00    0.377E-02
RMM:   2    -0.323775115434E+02   -0.13168E-02   -0.52999E-03  1632   0.316E-01
    456 T=   994. E= -.31478640E+02 F= -.32377512E+02 E0= -.32338106E+02  EK= 0.33406E+01 SP= -.24E+01 SK= 0.94E-03 mag=     -0.075
       N       E                     dE             d eps       ncg     rms          rms(c)
DAV:   1    -0.323659455077E+02    0.10249E-01   -0.15833E-02  2632   0.122E+00    0.413E-02
RMM:   2    -0.323674377160E+02   -0.14922E-02   -0.62390E-03  1647   0.327E-01    0.289E-02
RMM:   3    -0.323677391015E+02   -0.30139E-03   -0.14673E-03  1459   0.124E-01
    457 T=   993. E= -.31475881E+02 F= -.32367739E+02 E0= -.32327556E+02  EK= 0.33375E+01 SP= -.24E+01 SK= 0.18E-03 mag=     -0.032
       N       E                     dE             d eps       ncg     rms          rms(c)
DAV:   1    -0.323562251745E+02    0.11213E-01   -0.23846E-02  2328   0.122E+00    0.359E-02
RMM:   2    -0.323574253328E+02   -0.12002E-02   -0.36137E-03  1604   0.287E-01
    458 T=   987. E= -.31468677E+02 F= -.32357425E+02 E0= -.32316505E+02  EK= 0.33184E+01 SP= -.24E+01 SK= 0.32E-02 mag=      0.065
       N       E                     dE             d eps       ncg     rms          rms(c)
DAV:   1    -0.323459361657E+02    0.10289E-01   -0.30268E-02  3088   0.131E+00    0.586E-02
RMM:   2    -0.323475052667E+02   -0.15691E-02   -0.57607E-03  1646   0.268E-01    0.417E-02
RMM:   3    -0.323482328747E+02   -0.72761E-03   -0.18118E-03  1405   0.114E-01
    459 T=   976. E= -.31462875E+02 F= -.32348233E+02 E0= -.32306645E+02  EK= 0.32802E+01 SP= -.24E+01 SK= 0.96E-02 mag=      0.049
       N       E                     dE             d eps       ncg     rms          rms(c)
DAV:   1    -0.323394648956E+02    0.80404E-02   -0.17417E-02  2256   0.112E+00    0.540E-02
RMM:   2    -0.323409765301E+02   -0.15116E-02   -0.40919E-03  1594   0.282E-01    0.362E-02
RMM:   3    -0.323412968473E+02   -0.32032E-03   -0.10630E-03  1298   0.105E-01
    460 T=   959. E= -.31460100E+02 F= -.32341297E+02 E0= -.32299001E+02  EK= 0.32241E+01 SP= -.24E+01 SK= 0.19E-01 mag=     -0.029
       N       E                     dE             d eps       ncg     rms          rms(c)
DAV:   1    -0.323358160196E+02    0.51605E-02   -0.29746E-02  2776   0.116E+00    0.413E-02
RMM:   2    -0.323369029836E+02   -0.10870E-02   -0.40084E-03  1588   0.270E-01
    461 T=   940. E= -.31453971E+02 F= -.32336903E+02 E0= -.32294037E+02  EK= 0.31592E+01 SP= -.23E+01 SK= 0.29E-01 mag=     -0.113
       N       E                     dE             d eps       ncg     rms          rms(c)
DAV:   1    -0.323356962080E+02    0.11981E-03   -0.21847E-02  2912   0.119E+00    0.404E-02
RMM:   2    -0.323368033325E+02   -0.11071E-02   -0.43439E-03  1593   0.260E-01
    462 T=   918. E= -.31450547E+02 F= -.32336803E+02 E0= -.32293378E+02  EK= 0.30838E+01 SP= -.22E+01 SK= 0.40E-01 mag=     -0.122
       N       E                     dE             d eps       ncg     rms          rms(c)
DAV:   1    -0.323409041082E+02   -0.52079E-02   -0.14410E-02  2232   0.109E+00    0.275E-02
RMM:   2    -0.323419603262E+02   -0.10562E-02   -0.48204E-03  1590   0.303E-01
    463 T=   894. E= -.31446466E+02 F= -.32341960E+02 E0= -.32297921E+02  EK= 0.30053E+01 SP= -.22E+01 SK= 0.50E-01 mag=     -0.036
       N       E                     dE             d eps       ncg     rms          rms(c)
DAV:   1    -0.323511910470E+02   -0.10287E-01   -0.25615E-02  2712   0.119E+00    0.337E-02
RMM:   2    -0.323522531761E+02   -0.10621E-02   -0.44949E-03  1578   0.284E-01
    464 T=   871. E= -.31440691E+02 F= -.32352253E+02 E0= -.32307822E+02  EK= 0.29272E+01 SP= -.21E+01 SK= 0.59E-01 mag=      0.094
       N       E                     dE             d eps       ncg     rms          rms(c)
DAV:   1    -0.323669301832E+02   -0.15739E-01   -0.13944E-02  2560   0.106E+00    0.439E-02
RMM:   2    -0.323680430642E+02   -0.11129E-02   -0.41835E-03  1555   0.288E-01
    465 T=   848. E= -.31436056E+02 F= -.32368043E+02 E0= -.32323314E+02  EK= 0.28497E+01 SP= -.20E+01 SK= 0.66E-01 mag=      0.178
       N       E                     dE             d eps       ncg     rms          rms(c)
DAV:   1    -0.323889697988E+02   -0.22040E-01   -0.17837E-02  2568   0.113E+00    0.376E-02
RMM:   2    -0.323899751863E+02   -0.10054E-02   -0.42253E-03  1546   0.272E-01
    466 T=   826. E= -.31431630E+02 F= -.32389975E+02 E0= -.32344826E+02  EK= 0.27764E+01 SP= -.19E+01 SK= 0.70E-01 mag=      0.134
       N       E                     dE             d eps       ncg     rms          rms(c)
DAV:   1    -0.324165090930E+02   -0.27539E-01   -0.14487E-02  2600   0.104E+00    0.250E-02
RMM:   2    -0.324173722316E+02   -0.86314E-03   -0.44537E-03  1576   0.288E-01
    467 T=   806. E= -.31427209E+02 F= -.32417372E+02 E0= -.32371810E+02  EK= 0.27089E+01 SP= -.18E+01 SK= 0.72E-01 mag=     -0.028
       N       E                     dE             d eps       ncg     rms          rms(c)
DAV:   1    -0.324479321865E+02   -0.31423E-01   -0.17954E-02  2904   0.106E+00    0.490E-02
RMM:   2    -0.324490781203E+02   -0.11459E-02   -0.46669E-03  1585   0.270E-01
    468 T=   788. E= -.31422410E+02 F= -.32449078E+02 E0= -.32403497E+02  EK= 0.26479E+01 SP= -.17E+01 SK= 0.71E-01 mag=     -0.175
       N       E                     dE             d eps       ncg     rms          rms(c)
DAV:   1    -0.324851574857E+02   -0.37225E-01   -0.13429E-02  2616   0.103E+00    0.523E-02
RMM:   2    -0.324861876620E+02   -0.10302E-02   -0.44190E-03  1549   0.287E-01
    469 T=   772. E= -.31418938E+02 F= -.32486188E+02 E0= -.32440382E+02  EK= 0.25940E+01 SP= -.16E+01 SK= 0.69E-01 mag=     -0.210
       N       E                     dE             d eps       ncg     rms          rms(c)
DAV:   1    -0.325266411636E+02   -0.41484E-01   -0.14829E-02  2720   0.104E+00    0.299E-02
RMM:   2    -0.325274793849E+02   -0.83822E-03   -0.43395E-03  1556   0.277E-01
    470 T=   758. E= -.31415499E+02 F= -.32527479E+02 E0= -.32481343E+02  EK= 0.25483E+01 SP= -.15E+01 SK= 0.65E-01 mag=     -0.087
       N       E                     dE             d eps       ncg     rms          rms(c)
DAV:   1    -0.325701758617E+02   -0.43535E-01   -0.12234E-02  2544   0.104E+00    0.366E-02
RMM:   2    -0.325710094265E+02   -0.83356E-03   -0.41731E-03  1533   0.277E-01
    471 T=   747. E= -.31411254E+02 F= -.32571009E+02 E0= -.32524802E+02  EK= 0.25104E+01 SP= -.14E+01 SK= 0.60E-01 mag=      0.132
       N       E                     dE             d eps       ncg     rms          rms(c)
DAV:   1    -0.326146534661E+02   -0.44478E-01   -0.12931E-02  2600   0.105E+00    0.655E-02
RMM:   2    -0.326159626641E+02   -0.13092E-02   -0.42878E-03  1530   0.276E-01
    472 T=   738. E= -.31405856E+02 F= -.32615963E+02 E0= -.32570006E+02  EK= 0.24803E+01 SP= -.13E+01 SK= 0.53E-01 mag=      0.220
       N       E                     dE             d eps       ncg     rms          rms(c)
DAV:   1    -0.326635425957E+02   -0.48889E-01   -0.15169E-02  2672   0.104E+00    0.417E-02
RMM:   2    -0.326642911298E+02   -0.74853E-03   -0.43884E-03  1542   0.298E-01
    473 T=   731. E= -.31402409E+02 F= -.32664291E+02 E0= -.32617990E+02  EK= 0.24571E+01 SP= -.12E+01 SK= 0.47E-01 mag=      0.122
       N       E                     dE             d eps       ncg     rms          rms(c)
DAV:   1    -0.327109607358E+02   -0.47418E-01   -0.16867E-02  2560   0.105E+00    0.375E-02
RMM:   2    -0.327117989431E+02   -0.83821E-03   -0.45128E-03  1533   0.293E-01
    474 T=   726. E= -.31397566E+02 F= -.32711799E+02 E0= -.32665459E+02  EK= 0.24404E+01 SP= -.12E+01 SK= 0.40E-01 mag=     -0.096
       N       E                     dE             d eps       ncg     rms          rms(c)
DAV:   1    -0.327569346852E+02   -0.45974E-01   -0.11431E-02  2392   0.110E+00    0.667E-02
RMM:   2    -0.327582322375E+02   -0.12976E-02   -0.46409E-03  1576   0.292E-01
    475 T=   723. E= -.31391413E+02 F= -.32758232E+02 E0= -.32712198E+02  EK= 0.24298E+01 SP= -.11E+01 SK= 0.33E-01 mag=     -0.259
       N       E                     dE             d eps       ncg     rms          rms(c)
DAV:   1    -0.328037351099E+02   -0.46800E-01   -0.13658E-02  2560   0.110E+00    0.566E-02
RMM:   2    -0.328048148024E+02   -0.10797E-02   -0.46438E-03  1572   0.308E-01
    476 T=   721. E= -.31385973E+02 F= -.32804815E+02 E0= -.32758814E+02  EK= 0.24247E+01 SP= -.10E+01 SK= 0.27E-01 mag=     -0.245
       N       E                     dE             d eps       ncg     rms          rms(c)
DAV:   1    -0.328488363127E+02   -0.45101E-01   -0.12599E-02  2272   0.109E+00    0.306E-02
RMM:   2    -0.328495931552E+02   -0.75684E-03   -0.46572E-03  1558   0.305E-01
    477 T=   721. E= -.31380993E+02 F= -.32849593E+02 E0= -.32803431E+02  EK= 0.24232E+01 SP= -.98E+00 SK= 0.22E-01 mag=     -0.043
       N       E                     dE             d eps       ncg     rms          rms(c)
DAV:   1    -0.328894072751E+02   -0.40571E-01   -0.13141E-02  2520   0.109E+00    0.624E-02
RMM:   2    -0.328906284986E+02   -0.12212E-02   -0.46630E-03  1548   0.298E-01
    478 T=   722. E= -.31374607E+02 F= -.32890628E+02 E0= -.32844755E+02  EK= 0.24253E+01 SP= -.93E+00 SK= 0.17E-01 mag=      0.207
       N       E                     dE             d eps       ncg     rms          rms(c)
DAV:   1    -0.329274340550E+02   -0.38027E-01   -0.14527E-02  2616   0.110E+00    0.755E-02
RMM:   2    -0.329289616316E+02   -0.15276E-02   -0.51228E-03  1564   0.303E-01    0.591E-02
RMM:   3    -0.329297297928E+02   -0.76816E-03   -0.14720E-03  1456   0.120E-01
    479 T=   723. E= -.31370038E+02 F= -.32929730E+02 E0= -.32884127E+02  EK= 0.24295E+01 SP= -.88E+00 SK= 0.12E-01 mag=      0.111
       N       E                     dE             d eps       ncg     rms          rms(c)
DAV:   1    -0.329634462324E+02   -0.34485E-01   -0.18332E-02  2544   0.105E+00    0.763E-02
RMM:   2    -0.329649668557E+02   -0.15206E-02   -0.35166E-03  1439   0.257E-01    0.596E-02
RMM:   3    -0.329654633413E+02   -0.49649E-03   -0.89756E-04  1268   0.933E-02
    480 T=   725. E= -.31366156E+02 F= -.32965463E+02 E0= -.32919876E+02  EK= 0.24353E+01 SP= -.84E+00 SK= 0.88E-02 mag=     -0.099
       N       E                     dE             d eps       ncg     rms          rms(c)
DAV:   1    -0.329956632345E+02   -0.30696E-01   -0.27108E-02  2672   0.107E+00    0.694E-02
RMM:   2    -0.329967301076E+02   -0.10669E-02   -0.42454E-03  1540   0.262E-01
    481 T=   727. E= -.31360902E+02 F= -.32996730E+02 E0= -.32951551E+02  EK= 0.24436E+01 SP= -.81E+00 SK= 0.59E-02 mag=     -0.272
       N       E                     dE             d eps       ncg     rms          rms(c)
DAV:   1    -0.330230488102E+02   -0.27386E-01   -0.18909E-02  2672   0.106E+00    0.647E-02
RMM:   2    -0.330242249613E+02   -0.11762E-02   -0.42873E-03  1563   0.265E-01
    482 T=   730. E= -.31357413E+02 F= -.33024225E+02 E0= -.32979301E+02  EK= 0.24517E+01 SP= -.79E+00 SK= 0.37E-02 mag=     -0.259
       N       E                     dE             d eps       ncg     rms          rms(c)
DAV:   1    -0.330474667659E+02   -0.24418E-01   -0.13048E-02  2680   0.104E+00    0.392E-02
RMM:   2    -0.330482815091E+02   -0.81474E-03   -0.37732E-03  1547   0.276E-01
    483 T=   732. E= -.31354836E+02 F= -.33048282E+02 E0= -.33003285E+02  EK= 0.24608E+01 SP= -.77E+00 SK= 0.20E-02 mag=     -0.050
       N       E                     dE             d eps       ncg     rms          rms(c)
DAV:   1    -0.330652503195E+02   -0.17784E-01   -0.15103E-02  2520   0.112E+00    0.592E-02
RMM:   2    -0.330663756098E+02   -0.11253E-02   -0.44664E-03  1554   0.270E-01
    484 T=   735. E= -.31349970E+02 F= -.33066376E+02 E0= -.33021763E+02  EK= 0.24713E+01 SP= -.76E+00 SK= 0.90E-03 mag=      0.218
       N       E                     dE             d eps       ncg     rms          rms(c)
DAV:   1    -0.330775603573E+02   -0.12310E-01   -0.12997E-02  2592   0.100E+00    0.819E-02
RMM:   2    -0.330792179870E+02   -0.16576E-02   -0.45057E-03  1533   0.279E-01    0.638E-02
RMM:   3    -0.330802554826E+02   -0.10375E-02   -0.16680E-03  1416   0.113E-01
    485 T=   738. E= -.31346288E+02 F= -.33080255E+02 E0= -.33036068E+02  EK= 0.24813E+01 SP= -.75E+00 SK= 0.24E-03 mag=      0.099
       N       E                     dE             d eps       ncg     rms          rms(c)
DAV:   1    -0.330881245715E+02   -0.89066E-02   -0.20417E-02  2472   0.103E+00    0.774E-02
RMM:   2    -0.330896203627E+02   -0.14958E-02   -0.37663E-03  1497   0.256E-01    0.595E-02
RMM:   3    -0.330901134464E+02   -0.49308E-03   -0.94795E-04  1305   0.943E-02
    486 T=   741. E= -.31342829E+02 F= -.33090113E+02 E0= -.33046039E+02  EK= 0.24917E+01 SP= -.74E+00 SK= 0.36E-05 mag=     -0.129
       N       E                     dE             d eps       ncg     rms          rms(c)
DAV:   1    -0.330929352440E+02   -0.33149E-02   -0.35682E-02  2440   0.103E+00    0.756E-02
RMM:   2    -0.330942461190E+02   -0.13109E-02   -0.46839E-03  1533   0.273E-01
    487 T=   745. E= -.31337137E+02 F= -.33094246E+02 E0= -.33050602E+02  EK= 0.25032E+01 SP= -.75E+00 SK= 0.12E-03 mag=     -0.296
       N       E                     dE             d eps       ncg     rms          rms(c)
DAV:   1    -0.330933647293E+02   -0.42949E-03   -0.21201E-02  2872   0.106E+00    0.703E-02
RMM:   2    -0.330946758919E+02   -0.13112E-02   -0.40484E-03  1545   0.242E-01
    488 T=   748. E= -.31334200E+02 F= -.33094676E+02 E0= -.33051210E+02  EK= 0.25124E+01 SP= -.75E+00 SK= 0.54E-03 mag=     -0.258
       N       E                     dE             d eps       ncg     rms          rms(c)
DAV:   1    -0.330907650373E+02    0.25997E-02   -0.13038E-02  2432   0.102E+00    0.369E-02
RMM:   2    -0.330916025636E+02   -0.83753E-03   -0.41179E-03  1567   0.292E-01
    489 T=   750. E= -.31332188E+02 F= -.33091603E+02 E0= -.33048053E+02  EK= 0.25214E+01 SP= -.76E+00 SK= 0.12E-02 mag=     -0.019
       N       E                     dE             d eps       ncg     rms          rms(c)
DAV:   1    -0.330808196029E+02    0.99454E-02   -0.18802E-02  2624   0.110E+00    0.668E-02
RMM:   2    -0.330821477024E+02   -0.13281E-02   -0.45719E-03  1556   0.272E-01
    490 T=   753. E= -.31327019E+02 F= -.33082148E+02 E0= -.33039051E+02  EK= 0.25310E+01 SP= -.78E+00 SK= 0.21E-02 mag=      0.271
       N       E                     dE             d eps       ncg     rms          rms(c)
DAV:   1    -0.330653000864E+02    0.15520E-01   -0.13333E-02  2448   0.101E+00    0.960E-02
RMM:   2    -0.330676220592E+02   -0.23220E-02   -0.49166E-03  1512   0.277E-01    0.760E-02
RMM:   3    -0.330696549456E+02   -0.20329E-02   -0.30062E-03  1400   0.127E-01    0.447E-02
RMM:   4    -0.330705012231E+02   -0.84628E-03   -0.18324E-03  1388   0.934E-02
    491 T=   755. E= -.31325730E+02 F= -.33070501E+02 E0= -.33027367E+02  EK= 0.25382E+01 SP= -.80E+00 SK= 0.32E-02 mag=      0.015
       N       E                     dE             d eps       ncg     rms          rms(c)
DAV:   1    -0.330455147228E+02    0.24140E-01   -0.20792E-02  2384   0.106E+00    0.126E-01
RMM:   2    -0.330487853638E+02   -0.32706E-02   -0.55812E-03  1483   0.256E-01    0.978E-02
RMM:   3    -0.330513625924E+02   -0.25772E-02   -0.26320E-03  1381   0.113E-01    0.676E-02
RMM:   4    -0.330529209449E+02   -0.15584E-02   -0.17852E-03  1386   0.881E-02    0.326E-02
RMM:   5    -0.330533288511E+02   -0.40791E-03   -0.93320E-04  1330   0.627E-02
    492 T=   757. E= -.31323755E+02 F= -.33053329E+02 E0= -.33010311E+02  EK= 0.25442E+01 SP= -.82E+00 SK= 0.44E-02 mag=     -0.009
       N       E                     dE             d eps       ncg     rms          rms(c)
DAV:   1    -0.330310019089E+02    0.21919E-01   -0.12754E-02  2616   0.996E-01    0.416E-02
RMM:   2    -0.330317960142E+02   -0.79411E-03   -0.28237E-03  1530   0.229E-01
    493 T=   759. E= -.31319604E+02 F= -.33031796E+02 E0= -.32988985E+02  EK= 0.25514E+01 SP= -.85E+00 SK= 0.58E-02 mag=      0.104
       N       E                     dE             d eps       ncg     rms          rms(c)
DAV:   1    -0.330053615445E+02    0.25640E-01   -0.19764E-02  3016   0.112E+00    0.630E-02
RMM:   2    -0.330065178661E+02   -0.11563E-02   -0.37358E-03  1532   0.239E-01
    494 T=   761. E= -.31316439E+02 F= -.33006518E+02 E0= -.32963973E+02  EK= 0.25572E+01 SP= -.87E+00 SK= 0.72E-02 mag=      0.215
       N       E                     dE             d eps       ncg     rms          rms(c)
DAV:   1    -0.329774994712E+02    0.27862E-01   -0.95865E-03  2008   0.989E-01    0.512E-02
RMM:   2    -0.329785883591E+02   -0.10889E-02   -0.38579E-03  1559   0.278E-01
    495 T=   762. E= -.31314356E+02 F= -.32978588E+02 E0= -.32936154E+02  EK= 0.25624E+01 SP= -.91E+00 SK= 0.88E-02 mag=      0.192
       N       E                     dE             d eps       ncg     rms          rms(c)
DAV:   1    -0.329474290052E+02    0.30070E-01   -0.18309E-02  2776   0.113E+00    0.271E-02
RMM:   2    -0.329481831247E+02   -0.75412E-03   -0.41939E-03  1570   0.272E-01
    496 T=   765. E= -.31310645E+02 F= -.32948183E+02 E0= -.32905617E+02  EK= 0.25698E+01 SP= -.94E+00 SK= 0.10E-01 mag=      0.027
       N       E                     dE             d eps       ncg     rms          rms(c)
DAV:   1    -0.329124294736E+02    0.35000E-01   -0.13672E-02  2344   0.996E-01    0.544E-02
RMM:   2    -0.329135423268E+02   -0.11129E-02   -0.42639E-03  1561   0.291E-01
    497 T=   767. E= -.31305142E+02 F= -.32913542E+02 E0= -.32871155E+02  EK= 0.25776E+01 SP= -.98E+00 SK= 0.12E-01 mag=     -0.161
       N       E                     dE             d eps       ncg     rms          rms(c)
DAV:   1    -0.328753272399E+02    0.37102E-01   -0.17237E-02  2840   0.113E+00    0.652E-02
RMM:   2    -0.328766780286E+02   -0.13508E-02   -0.46009E-03  1548   0.293E-01    0.500E-02
RMM:   3    -0.328771516927E+02   -0.47366E-03   -0.12329E-03  1414   0.114E-01
    498 T=   769. E= -.31300974E+02 F= -.32877152E+02 E0= -.32834944E+02  EK= 0.25851E+01 SP= -.10E+01 SK= 0.14E-01 mag=     -0.069
       N       E                     dE             d eps       ncg     rms          rms(c)
DAV:   1    -0.328371129164E+02    0.39565E-01   -0.20821E-02  2576   0.101E+00    0.658E-02
RMM:   2    -0.328386218534E+02   -0.15089E-02   -0.34202E-03  1472   0.240E-01    0.528E-02
RMM:   3    -0.328390289810E+02   -0.40713E-03   -0.77527E-04  1254   0.873E-02
    499 T=   771. E= -.31297757E+02 F= -.32839029E+02 E0= -.32796827E+02  EK= 0.25925E+01 SP= -.11E+01 SK= 0.15E-01 mag=      0.077
       N       E                     dE             d eps       ncg     rms          rms(c)
DAV:   1    -0.327984033501E+02    0.40219E-01   -0.34480E-02  2560   0.112E+00    0.556E-02
RMM:   2    -0.327993518017E+02   -0.94845E-03   -0.44909E-03  1556   0.287E-01
    500 T=   774. E= -.31292423E+02 F= -.32799352E+02 E0= -.32757290E+02  EK= 0.26029E+01 SP= -.11E+01 SK= 0.17E-01 mag=      0.175
       N       E                     dE             d eps       ncg     rms          rms(c)
DAV:   1    -0.327577847139E+02    0.40619E-01   -0.24567E-02  2760   0.105E+00    0.414E-02
RMM:   2    -0.327586860058E+02   -0.90129E-03   -0.42158E-03  1564   0.263E-01
    501 T=   777. E= -.31288789E+02 F= -.32758686E+02 E0= -.32716684E+02  EK= 0.26129E+01 SP= -.12E+01 SK= 0.18E-01 mag=      0.133
       N       E                     dE             d eps       ncg     rms          rms(c)
DAV:   1    -0.327163802653E+02    0.41404E-01   -0.14892E-02  2600   0.103E+00    0.307E-02
RMM:   2    -0.327171586469E+02   -0.77838E-03   -0.40071E-03  1563   0.289E-01
    502 T=   781. E= -.31285650E+02 F= -.32717159E+02 E0= -.32675197E+02  EK= 0.26234E+01 SP= -.12E+01 SK= 0.20E-01 mag=     -0.025
       N       E                     dE             d eps       ncg     rms          rms(c)
DAV:   1    -0.326737261484E+02    0.42654E-01   -0.18556E-02  2560   0.109E+00    0.506E-02
RMM:   2    -0.326748051296E+02   -0.10790E-02   -0.41712E-03  1561   0.265E-01
    503 T=   785. E= -.31280792E+02 F= -.32674805E+02 E0= -.32633201E+02  EK= 0.26367E+01 SP= -.13E+01 SK= 0.21E-01 mag=     -0.173
       N       E                     dE             d eps       ncg     rms          rms(c)
DAV:   1    -0.326326802409E+02    0.41046E-01   -0.13090E-02  2600   0.104E+00    0.532E-02
RMM:   2    -0.326337198935E+02   -0.10397E-02   -0.39120E-03  1572   0.280E-01
    504 T=   789. E= -.31275880E+02 F= -.32633720E+02 E0= -.32592393E+02  EK= 0.26528E+01 SP= -.13E+01 SK= 0.22E-01 mag=     -0.190
       N       E                     dE             d eps       ncg     rms          rms(c)
DAV:   1    -0.325936805876E+02    0.39000E-01   -0.16406E-02  2720   0.106E+00    0.303E-02
RMM:   2    -0.325944949338E+02   -0.81435E-03   -0.41243E-03  1571   0.269E-01
    505 T=   795. E= -.31271369E+02 F= -.32594495E+02 E0= -.32553193E+02  EK= 0.26716E+01 SP= -.14E+01 SK= 0.22E-01 mag=     -0.053
       N       E                     dE             d eps       ncg     rms          rms(c)
DAV:   1    -0.325546900254E+02    0.38991E-01   -0.14124E-02  2392   0.102E+00    0.476E-02
RMM:   2    -0.325557776933E+02   -0.10877E-02   -0.47276E-03  1556   0.284E-01
    506 T=   801. E= -.31266904E+02 F= -.32555778E+02 E0= -.32514839E+02  EK= 0.26917E+01 SP= -.14E+01 SK= 0.22E-01 mag=      0.140
       N       E                     dE             d eps       ncg     rms          rms(c)
DAV:   1    -0.325174665409E+02    0.37223E-01   -0.18579E-02  2776   0.107E+00    0.658E-02
RMM:   2    -0.325188310626E+02   -0.13645E-02   -0.48554E-03  1572   0.289E-01    0.492E-02
RMM:   3    -0.325193654800E+02   -0.53442E-03   -0.13626E-03  1446   0.112E-01
    507 T=   807. E= -.31263168E+02 F= -.32519365E+02 E0= -.32478890E+02  EK= 0.27137E+01 SP= -.15E+01 SK= 0.22E-01 mag=      0.073
       N       E                     dE             d eps       ncg     rms          rms(c)
DAV:   1    -0.324842275010E+02    0.34604E-01   -0.20887E-02  2592   0.104E+00    0.646E-02
RMM:   2    -0.324855900541E+02   -0.13626E-02   -0.38626E-03  1480   0.255E-01    0.485E-02
RMM:   3    -0.324859658151E+02   -0.37576E-03   -0.90882E-04  1272   0.903E-02
    508 T=   815. E= -.31259827E+02 F= -.32485966E+02 E0= -.32445708E+02  EK= 0.27382E+01 SP= -.15E+01 SK= 0.21E-01 mag=     -0.077
       N       E                     dE             d eps       ncg     rms          rms(c)
DAV:   1    -0.324542152725E+02    0.31375E-01   -0.32604E-02  2632   0.105E+00    0.546E-02
RMM:   2    -0.324552230491E+02   -0.10078E-02   -0.43313E-03  1571   0.262E-01
    509 T=   823. E= -.31254806E+02 F= -.32455223E+02 E0= -.32415482E+02  EK= 0.27663E+01 SP= -.16E+01 SK= 0.20E-01 mag=     -0.191
       N       E                     dE             d eps       ncg     rms          rms(c)
DAV:   1    -0.324271083116E+02    0.27107E-01   -0.22922E-02  2744   0.106E+00    0.507E-02
RMM:   2    -0.324280945267E+02   -0.98622E-03   -0.39387E-03  1556   0.256E-01
    510 T=   831. E= -.31252049E+02 F= -.32428095E+02 E0= -.32388744E+02  EK= 0.27943E+01 SP= -.16E+01 SK= 0.18E-01 mag=     -0.168
       N       E                     dE             d eps       ncg     rms          rms(c)
DAV:   1    -0.324039604181E+02    0.23148E-01   -0.14307E-02  2592   0.106E+00    0.339E-02
RMM:   2    -0.324047962809E+02   -0.83586E-03   -0.40171E-03  1558   0.281E-01
    511 T=   840. E= -.31249182E+02 F= -.32404796E+02 E0= -.32365717E+02  EK= 0.28240E+01 SP= -.17E+01 SK= 0.16E-01 mag=     -0.012
       N       E                     dE             d eps       ncg     rms          rms(c)
DAV:   1    -0.323837053290E+02    0.20255E-01   -0.19782E-02  2568   0.113E+00    0.489E-02
RMM:   2    -0.323847356433E+02   -0.10303E-02   -0.42529E-03  1568   0.275E-01
    512 T=   850. E= -.31244366E+02 F= -.32384736E+02 E0= -.32346262E+02  EK= 0.28560E+01 SP= -.17E+01 SK= 0.14E-01 mag=      0.175
       N       E                     dE             d eps       ncg     rms          rms(c)
DAV:   1    -0.323669461121E+02    0.16759E-01   -0.14075E-02  2696   0.105E+00    0.642E-02
RMM:   2    -0.323683757765E+02   -0.14297E-02   -0.45382E-03  1560   0.283E-01    0.495E-02
RMM:   3    -0.323693551281E+02   -0.97935E-03   -0.22457E-03  1400   0.115E-01
    513 T=   859. E= -.31241739E+02 F= -.32369355E+02 E0= -.32331320E+02  EK= 0.28865E+01 SP= -.18E+01 SK= 0.11E-01 mag=      0.064
       N       E                     dE             d eps       ncg     rms          rms(c)
DAV:   1    -0.323557325042E+02    0.12643E-01   -0.18068E-02  2496   0.107E+00    0.652E-02
RMM:   2    -0.323570086685E+02   -0.12762E-02   -0.30848E-03  1538   0.260E-01
    514 T=   869. E= -.31235423E+02 F= -.32357009E+02 E0= -.32319543E+02  EK= 0.29190E+01 SP= -.18E+01 SK= 0.81E-02 mag=     -0.207
       N       E                     dE             d eps       ncg     rms          rms(c)
DAV:   1    -0.323443367817E+02    0.11396E-01   -0.28769E-02  3040   0.116E+00    0.105E-01
RMM:   2    -0.323469199632E+02   -0.25832E-02   -0.54207E-03  1548   0.252E-01    0.807E-02
RMM:   3    -0.323489976959E+02   -0.20777E-02   -0.28562E-03  1400   0.116E-01    0.511E-02
RMM:   4    -0.323499258960E+02   -0.92820E-03   -0.19849E-03  1400   0.863E-02
    515 T=   877. E= -.31231862E+02 F= -.32349926E+02 E0= -.32312718E+02  EK= 0.29482E+01 SP= -.18E+01 SK= 0.54E-02 mag=     -0.012
       N       E                     dE             d eps       ncg     rms          rms(c)
DAV:   1    -0.323398269491E+02    0.91707E-02   -0.16409E-02  2408   0.104E+00    0.118E-01
RMM:   2    -0.323425931267E+02   -0.27662E-02   -0.49307E-03  1445   0.244E-01    0.876E-02
RMM:   3    -0.323445868905E+02   -0.19938E-02   -0.24580E-03  1400   0.103E-01    0.586E-02
RMM:   4    -0.323456249805E+02   -0.10381E-02   -0.13446E-03  1384   0.745E-02
    516 T=   884. E= -.31230351E+02 F= -.32345625E+02 E0= -.32308905E+02  EK= 0.29714E+01 SP= -.19E+01 SK= 0.31E-02 mag=      0.031
       N       E                     dE             d eps       ncg     rms          rms(c)
DAV:   1    -0.323441941984E+02    0.39269E-03   -0.27312E-02  2952   0.114E+00    0.450E-02
RMM:   2    -0.323449577143E+02   -0.76352E-03   -0.32754E-03  1502   0.235E-01
    517 T=   890. E= -.31227219E+02 F= -.32344958E+02 E0= -.32308536E+02  EK= 0.29923E+01 SP= -.19E+01 SK= 0.13E-02 mag=     -0.035
       N       E                     dE             d eps       ncg     rms          rms(c)
DAV:   1    -0.323459171171E+02   -0.17229E-02   -0.20736E-02  3024   0.109E+00    0.488E-02
RMM:   2    -0.323469168180E+02   -0.99970E-03   -0.41477E-03  1544   0.250E-01
    518 T=   894. E= -.31225896E+02 F= -.32346917E+02 E0= -.32310913E+02  EK= 0.30057E+01 SP= -.19E+01 SK= 0.21E-03 mag=     -0.112
       N       E                     dE             d eps       ncg     rms          rms(c)
DAV:   1    -0.323508092446E+02   -0.48921E-02   -0.10602E-02  2312   0.110E+00    0.410E-02
RMM:   2    -0.323517292525E+02   -0.92001E-03   -0.41304E-03  1550   0.274E-01
    519 T=   897. E= -.31224091E+02 F= -.32351729E+02 E0= -.32316051E+02  EK= 0.30138E+01 SP= -.19E+01 SK= 0.55E-04 mag=     -0.126
       N       E                     dE             d eps       ncg     rms          rms(c)
DAV:   1    -0.323580956883E+02   -0.72864E-02   -0.19749E-02  2960   0.116E+00    0.327E-02
RMM:   2    -0.323589148306E+02   -0.81914E-03   -0.40523E-03  1544   0.274E-01
    520 T=   898. E= -.31220264E+02 F= -.32358915E+02 E0= -.32323459E+02  EK= 0.30173E+01 SP= -.19E+01 SK= 0.87E-03 mag=     -0.053
       N       E                     dE             d eps       ncg     rms          rms(c)
DAV:   1    -0.323664891820E+02   -0.83935E-02   -0.11967E-02  2544   0.109E+00    0.359E-02
RMM:   2    -0.323673943319E+02   -0.90515E-03   -0.46586E-03  1550   0.295E-01
    521 T=   897. E= -.31216465E+02 F= -.32367394E+02 E0= -.32332174E+02  EK= 0.30130E+01 SP= -.19E+01 SK= 0.27E-02 mag=      0.063
       N       E                     dE             d eps       ncg     rms          rms(c)
DAV:   1    -0.323756432514E+02   -0.91541E-02   -0.16373E-02  2888   0.113E+00    0.443E-02
RMM:   2    -0.323766830364E+02   -0.10398E-02   -0.46151E-03  1556   0.276E-01
    522 T=   893. E= -.31212400E+02 F= -.32376683E+02 E0= -.32341750E+02  EK= 0.30008E+01 SP= -.18E+01 SK= 0.54E-02 mag=      0.129
       N       E                     dE             d eps       ncg     rms          rms(c)
DAV:   1    -0.323858755669E+02   -0.10232E-01   -0.14623E-02  2736   0.112E+00    0.400E-02
RMM:   2    -0.323868127973E+02   -0.93723E-03   -0.48581E-03  1568   0.304E-01
    523 T=   887. E= -.31208501E+02 F= -.32386813E+02 E0= -.32352019E+02  EK= 0.29809E+01 SP= -.18E+01 SK= 0.88E-02 mag=      0.097
       N       E                     dE             d eps       ncg     rms          rms(c)
DAV:   1    -0.323961391278E+02   -0.10264E-01   -0.15412E-02  2752   0.112E+00    0.349E-02
RMM:   2    -0.323970661158E+02   -0.92699E-03   -0.48969E-03  1553   0.289E-01
    524 T=   879. E= -.31204429E+02 F= -.32397066E+02 E0= -.32362359E+02  EK= 0.29536E+01 SP= -.18E+01 SK= 0.13E-01 mag=     -0.014
       N       E                     dE             d eps       ncg     rms          rms(c)
DAV:   1    -0.324055526280E+02   -0.94135E-02   -0.12336E-02  2624   0.111E+00    0.446E-02
RMM:   2    -0.324065883146E+02   -0.10357E-02   -0.49470E-03  1547   0.299E-01
    525 T=   869. E= -.31199788E+02 F= -.32406588E+02 E0= -.32372038E+02  EK= 0.29195E+01 SP= -.17E+01 SK= 0.17E-01 mag=     -0.129
       N       E                     dE             d eps       ncg     rms          rms(c)
DAV:   1    -0.324142411170E+02   -0.86885E-02   -0.14632E-02  2856   0.112E+00    0.482E-02
RMM:   2    -0.324153889657E+02   -0.11478E-02   -0.50463E-03  1551   0.289E-01
    526 T=   857. E= -.31194817E+02 F= -.32415389E+02 E0= -.32380996E+02  EK= 0.28794E+01 SP= -.17E+01 SK= 0.21E-01 mag=     -0.126
       N       E                     dE             d eps       ncg     rms          rms(c)
DAV:   1    -0.324229886871E+02   -0.87476E-02   -0.14083E-02  2624   0.110E+00    0.363E-02
RMM:   2    -0.324238428571E+02   -0.85417E-03   -0.49924E-03  1570   0.313E-01
    527 T=   843. E= -.31190366E+02 F= -.32423843E+02 E0= -.32389424E+02  EK= 0.28342E+01 SP= -.16E+01 SK= 0.24E-01 mag=     -0.006
       N       E                     dE             d eps       ncg     rms          rms(c)
DAV:   1    -0.324286898499E+02   -0.57012E-02   -0.16512E-02  2808   0.108E+00    0.484E-02
RMM:   2    -0.324298427773E+02   -0.11529E-02   -0.52126E-03  1538   0.290E-01
    528 T=   829. E= -.31184877E+02 F= -.32429843E+02 E0= -.32395536E+02  EK= 0.27849E+01 SP= -.16E+01 SK= 0.27E-01 mag=      0.111
       N       E                     dE             d eps       ncg     rms          rms(c)
DAV:   1    -0.324338804076E+02   -0.51906E-02   -0.13383E-02  2592   0.109E+00    0.498E-02
RMM:   2    -0.324349188505E+02   -0.10384E-02   -0.51818E-03  1572   0.300E-01
    529 T=   813. E= -.31179590E+02 F= -.32434919E+02 E0= -.32400678E+02  EK= 0.27330E+01 SP= -.15E+01 SK= 0.28E-01 mag=      0.140
       N       E                     dE             d eps       ncg     rms          rms(c)
DAV:   1    -0.324373262903E+02   -0.34459E-02   -0.16338E-02  2808   0.108E+00    0.393E-02
RMM:   2    -0.324383357789E+02   -0.10095E-02   -0.53473E-03  1580   0.293E-01
    530 T=   797. E= -.31174445E+02 F= -.32438336E+02 E0= -.32404067E+02  EK= 0.26795E+01 SP= -.14E+01 SK= 0.29E-01 mag=      0.049
       N       E                     dE             d eps       ncg     rms          rms(c)
DAV:   1    -0.324389542060E+02   -0.16279E-02   -0.11903E-02  2504   0.105E+00    0.392E-02
RMM:   2    -0.324398563971E+02   -0.90219E-03   -0.48300E-03  1546   0.295E-01
    531 T=   781. E= -.31169778E+02 F= -.32439856E+02 E0= -.32405612E+02  EK= 0.26250E+01 SP= -.14E+01 SK= 0.28E-01 mag=     -0.100
       N       E                     dE             d eps       ncg     rms          rms(c)
DAV:   1    -0.324379677198E+02    0.98649E-03   -0.12606E-02  2752   0.106E+00    0.578E-02
RMM:   2    -0.324391873682E+02   -0.12196E-02   -0.48392E-03  1533   0.275E-01
    532 T=   765. E= -.31164438E+02 F= -.32439187E+02 E0= -.32405106E+02  EK= 0.25717E+01 SP= -.13E+01 SK= 0.26E-01 mag=     -0.134
       N       E                     dE             d eps       ncg     rms          rms(c)
DAV:   1    -0.324370747538E+02    0.89297E-03   -0.13916E-02  2632   0.106E+00    0.406E-02
RMM:   2    -0.324378645994E+02   -0.78985E-03   -0.46843E-03  1540   0.300E-01
    533 T=   750. E= -.31159846E+02 F= -.32437865E+02 E0= -.32403697E+02  EK= 0.25210E+01 SP= -.13E+01 SK= 0.23E-01 mag=     -0.037
       N       E                     dE             d eps       ncg     rms          rms(c)
DAV:   1    -0.324331305239E+02    0.39442E-02   -0.16003E-02  2712   0.102E+00    0.469E-02
RMM:   2    -0.324341324999E+02   -0.10020E-02   -0.48428E-03  1522   0.281E-01
    534 T=   736. E= -.31154332E+02 F= -.32434132E+02 E0= -.32400000E+02  EK= 0.24736E+01 SP= -.12E+01 SK= 0.19E-01 mag=      0.101
       N       E                     dE             d eps       ncg     rms          rms(c)
DAV:   1    -0.324282541991E+02    0.48763E-02   -0.10285E-02  2392   0.102E+00    0.583E-02
RMM:   2    -0.324293077939E+02   -0.10536E-02   -0.45844E-03  1536   0.279E-01
    535 T=   723. E= -.31149306E+02 F= -.32429308E+02 E0= -.32395278E+02  EK= 0.24304E+01 SP= -.12E+01 SK= 0.15E-01 mag=      0.164
       N       E                     dE             d eps       ncg     rms          rms(c)
DAV:   1    -0.324226974064E+02    0.55568E-02   -0.12334E-02  2728   0.102E+00    0.441E-02
RMM:   2    -0.324235976404E+02   -0.90023E-03   -0.42795E-03  1520   0.279E-01
    536 T=   712. E= -.31144237E+02 F= -.32423598E+02 E0= -.32389559E+02  EK= 0.23927E+01 SP= -.11E+01 SK= 0.11E-01 mag=      0.080
       N       E                     dE             d eps       ncg     rms          rms(c)
DAV:   1    -0.324157525732E+02    0.69448E-02   -0.97945E-03  2408   0.103E+00    0.416E-02
RMM:   2    -0.324165757182E+02   -0.82314E-03   -0.46151E-03  1547   0.292E-01
    537 T=   703. E= -.31138606E+02 F= -.32416576E+02 E0= -.32382532E+02  EK= 0.23613E+01 SP= -.11E+01 SK= 0.67E-02 mag=     -0.087
       N       E                     dE             d eps       ncg     rms          rms(c)
DAV:   1    -0.324066168432E+02    0.91357E-02   -0.12193E-02  2608   0.991E-01    0.672E-02
RMM:   2    -0.324079292821E+02   -0.13124E-02   -0.47536E-03  1530   0.288E-01
    538 T=   695. E= -.31132077E+02 F= -.32407929E+02 E0= -.32374075E+02  EK= 0.23366E+01 SP= -.11E+01 SK= 0.35E-02 mag=     -0.159
       N       E                     dE             d eps       ncg     rms          rms(c)
DAV:   1    -0.323993177199E+02    0.72991E-02   -0.12728E-02  2552   0.103E+00    0.490E-02
RMM:   2    -0.324001556595E+02   -0.83794E-03   -0.44199E-03  1528   0.280E-01
    539 T=   690. E= -.31127330E+02 F= -.32400156E+02 E0= -.32366264E+02  EK= 0.23187E+01 SP= -.10E+01 SK= 0.12E-02 mag=     -0.087
       N       E                     dE             d eps       ncg     rms          rms(c)
DAV:   1    -0.323902977720E+02    0.90199E-02   -0.13391E-02  2408   0.988E-01    0.478E-02
RMM:   2    -0.323912568095E+02   -0.95904E-03   -0.49908E-03  1539   0.294E-01
    540 T=   687. E= -.31121866E+02 F= -.32391257E+02 E0= -.32357390E+02  EK= 0.23084E+01 SP= -.10E+01 SK= 0.83E-04 mag=      0.078
       N       E                     dE             d eps       ncg     rms          rms(c)
DAV:   1    -0.323802493040E+02    0.10048E-01   -0.10845E-02  2528   0.101E+00    0.672E-02
RMM:   2    -0.323815804224E+02   -0.13311E-02   -0.46397E-03  1540   0.280E-01
    541 T=   686. E= -.31116165E+02 F= -.32381580E+02 E0= -.32347895E+02  EK= 0.23056E+01 SP= -.10E+01 SK= 0.28E-03 mag=      0.177
       N       E                     dE             d eps       ncg     rms          rms(c)
DAV:   1    -0.323716409356E+02    0.86084E-02   -0.11995E-02  2472   0.103E+00    0.558E-02
RMM:   2    -0.323726705682E+02   -0.10296E-02   -0.47025E-03  1546   0.295E-01
    542 T=   688. E= -.31111120E+02 F= -.32372671E+02 E0= -.32339034E+02  EK= 0.23110E+01 SP= -.11E+01 SK= 0.18E-02 mag=      0.123
       N       E                     dE             d eps       ncg     rms          rms(c)
DAV:   1    -0.323626397747E+02    0.90012E-02   -0.12595E-02  2488   0.102E+00    0.454E-02
RMM:   2    -0.323635926162E+02   -0.95284E-03   -0.46815E-03  1528   0.291E-01
    543 T=   692. E= -.31105964E+02 F= -.32363593E+02 E0= -.32329970E+02  EK= 0.23245E+01 SP= -.11E+01 SK= 0.46E-02 mag=     -0.047
       N       E                     dE             d eps       ncg     rms          rms(c)
DAV:   1    -0.323526888929E+02    0.99509E-02   -0.11597E-02  2560   0.101E+00    0.724E-02
RMM:   2    -0.323541005051E+02   -0.14116E-02   -0.49175E-03  1536   0.285E-01    0.540E-02
RMM:   3    -0.323547081920E+02   -0.60769E-03   -0.14562E-03  1479   0.114E-01
    544 T=   698. E= -.31102080E+02 F= -.32354708E+02 E0= -.32321241E+02  EK= 0.23448E+01 SP= -.11E+01 SK= 0.84E-02 mag=     -0.064
       N       E                     dE             d eps       ncg     rms          rms(c)
DAV:   1    -0.323454899559E+02    0.86105E-02   -0.15261E-02  2472   0.983E-01    0.520E-02
RMM:   2    -0.323464100225E+02   -0.92007E-03   -0.32650E-03  1431   0.239E-01
    545 T=   707. E= -.31097009E+02 F= -.32346410E+02 E0= -.32313016E+02  EK= 0.23746E+01 SP= -.11E+01 SK= 0.13E-01 mag=      0.041
       N       E                     dE             d eps       ncg     rms          rms(c)
DAV:   1    -0.323359493721E+02    0.95406E-02   -0.20999E-02  2912   0.108E+00    0.799E-02
RMM:   2    -0.323376125631E+02   -0.16632E-02   -0.43456E-03  1529   0.230E-01    0.585E-02
RMM:   3    -0.323387584526E+02   -0.11459E-02   -0.19725E-03  1400   0.102E-01
    546 T=   717. E= -.31093126E+02 F= -.32338758E+02 E0= -.32305485E+02  EK= 0.24112E+01 SP= -.12E+01 SK= 0.18E-01 mag=      0.025
       N       E                     dE             d eps       ncg     rms          rms(c)
DAV:   1    -0.323292595640E+02    0.83530E-02   -0.19052E-02  2048   0.962E-01    0.775E-02
RMM:   2    -0.323309295121E+02   -0.16699E-02   -0.32900E-03  1478   0.244E-01    0.561E-02
RMM:   3    -0.323315206452E+02   -0.59113E-03   -0.97908E-04  1328   0.939E-02
    547 T=   730. E= -.31091260E+02 F= -.32331521E+02 E0= -.32298359E+02  EK= 0.24531E+01 SP= -.12E+01 SK= 0.23E-01 mag=     -0.006
       N       E                     dE             d eps       ncg     rms          rms(c)
DAV:   1    -0.323245768979E+02    0.63526E-02   -0.35332E-02  2640   0.101E+00    0.430E-02
RMM:   2    -0.323253366211E+02   -0.75972E-03   -0.39928E-03  1525   0.271E-01
    548 T=   745. E= -.31088033E+02 F= -.32325337E+02 E0= -.32292281E+02  EK= 0.25037E+01 SP= -.13E+01 SK= 0.27E-01 mag=     -0.037
       N       E                     dE             d eps       ncg     rms          rms(c)
DAV:   1    -0.323187391560E+02    0.58377E-02   -0.27301E-02  2616   0.109E+00    0.320E-02
RMM:   2    -0.323195409685E+02   -0.80181E-03   -0.48927E-03  1579   0.280E-01
    549 T=   762. E= -.31084743E+02 F= -.32319541E+02 E0= -.32286642E+02  EK= 0.25601E+01 SP= -.14E+01 SK= 0.31E-01 mag=     -0.040
       N       E                     dE             d eps       ncg     rms          rms(c)
DAV:   1    -0.323139616698E+02    0.47775E-02   -0.14022E-02  2520   0.105E+00    0.337E-02
RMM:   2    -0.323147732021E+02   -0.81153E-03   -0.42421E-03  1555   0.294E-01
    550 T=   780. E= -.31080493E+02 F= -.32314773E+02 E0= -.32282017E+02  EK= 0.26230E+01 SP= -.14E+01 SK= 0.33E-01 mag=     -0.009
       N       E                     dE             d eps       ncg     rms          rms(c)
DAV:   1    -0.323102176637E+02    0.37440E-02   -0.14634E-02  2520   0.116E+00    0.325E-02
RMM:   2    -0.323111085392E+02   -0.89088E-03   -0.48746E-03  1590   0.285E-01
    551 T=   801. E= -.31075246E+02 F= -.32311109E+02 E0= -.32278514E+02  EK= 0.26912E+01 SP= -.15E+01 SK= 0.34E-01 mag=      0.037
       N       E                     dE             d eps       ncg     rms          rms(c)
DAV:   1    -0.323074057078E+02    0.28120E-02   -0.10764E-02  2360   0.107E+00    0.293E-02
RMM:   2    -0.323082514305E+02   -0.84572E-03   -0.42690E-03  1576   0.292E-01
    552 T=   822. E= -.31070298E+02 F= -.32308251E+02 E0= -.32275830E+02  EK= 0.27615E+01 SP= -.16E+01 SK= 0.33E-01 mag=      0.057
       N       E                     dE             d eps       ncg     rms          rms(c)
DAV:   1    -0.323053336616E+02    0.20720E-02   -0.14828E-02  2424   0.115E+00    0.326E-02
RMM:   2    -0.323062220144E+02   -0.88835E-03   -0.43240E-03  1546   0.282E-01
    553 T=   843. E= -.31065190E+02 F= -.32306222E+02 E0= -.32273944E+02  EK= 0.28328E+01 SP= -.16E+01 SK= 0.31E-01 mag=      0.029
       N       E                     dE             d eps       ncg     rms          rms(c)
DAV:   1    -0.323043475165E+02    0.98615E-03   -0.12976E-02  2472   0.113E+00    0.311E-02
RMM:   2    -0.323053139676E+02   -0.96645E-03   -0.45706E-03  1550   0.298E-01
    554 T=   864. E= -.31060065E+02 F= -.32305314E+02 E0= -.32273190E+02  EK= 0.29030E+01 SP= -.17E+01 SK= 0.27E-01 mag=     -0.031
       N       E                     dE             d eps       ncg     rms          rms(c)
DAV:   1    -0.323042105028E+02    0.13701E-03   -0.16352E-02  2736   0.117E+00    0.360E-02
RMM:   2    -0.323054098292E+02   -0.11993E-02   -0.61671E-03  1613   0.307E-01
    555 T=   884. E= -.31054908E+02 F= -.32305410E+02 E0= -.32273462E+02  EK= 0.29702E+01 SP= -.17E+01 SK= 0.21E-01 mag=     -0.072
       N       E                     dE             d eps       ncg     rms          rms(c)
DAV:   1    -0.323050396067E+02   -0.82910E-03   -0.17844E-02  2600   0.116E+00    0.344E-02
RMM:   2    -0.323061763115E+02   -0.11367E-02   -0.50646E-03  1571   0.319E-01
    556 T=   902. E= -.31050103E+02 F= -.32306176E+02 E0= -.32274350E+02  EK= 0.30312E+01 SP= -.18E+01 SK= 0.16E-01 mag=     -0.055
       N       E                     dE             d eps       ncg     rms          rms(c)
DAV:   1    -0.323065724450E+02   -0.15328E-02   -0.17239E-02  2704   0.119E+00    0.348E-02
RMM:   2    -0.323077722822E+02   -0.11998E-02   -0.50074E-03  1551   0.303E-01
    557 T=   918. E= -.31045220E+02 F= -.32307772E+02 E0= -.32276051E+02  EK= 0.30846E+01 SP= -.18E+01 SK= 0.10E-01 mag=      0.012
       N       E                     dE             d eps       ncg     rms          rms(c)
DAV:   1    -0.323091179366E+02   -0.25455E-02   -0.14824E-02  2624   0.117E+00    0.380E-02
RMM:   2    -0.323103079935E+02   -0.11901E-02   -0.48661E-03  1559   0.313E-01
    558 T=   931. E= -.31040371E+02 F= -.32310308E+02 E0= -.32278724E+02  EK= 0.31283E+01 SP= -.19E+01 SK= 0.51E-02 mag=      0.079
       N       E                     dE             d eps       ncg     rms          rms(c)
DAV:   1    -0.323116698150E+02   -0.25519E-02   -0.16941E-02  2664   0.119E+00    0.429E-02
RMM:   2    -0.323130313643E+02   -0.13615E-02   -0.50025E-03  1548   0.303E-01    0.307E-02
RMM:   3    -0.323134286653E+02   -0.39730E-03   -0.14570E-03  1466   0.114E-01
    559 T=   940. E= -.31036701E+02 F= -.32313429E+02 E0= -.32281905E+02  EK= 0.31593E+01 SP= -.19E+01 SK= 0.17E-02 mag=      0.036
       N       E                     dE             d eps       ncg     rms          rms(c)
DAV:   1    -0.323156350491E+02   -0.26037E-02   -0.14454E-02  2344   0.113E+00    0.371E-02
RMM:   2    -0.323167702425E+02   -0.11352E-02   -0.35688E-03  1511   0.273E-01
    560 T=   946. E= -.31029979E+02 F= -.32316770E+02 E0= -.32285308E+02  EK= 0.31800E+01 SP= -.19E+01 SK= 0.68E-04 mag=     -0.068
       N       E                     dE             d eps       ncg     rms          rms(c)
DAV:   1    -0.323187298950E+02   -0.30948E-02   -0.25594E-02  3136   0.126E+00    0.565E-02
RMM:   2    -0.323201797854E+02   -0.14499E-02   -0.41248E-03  1518   0.237E-01    0.417E-02
RMM:   3    -0.323207408627E+02   -0.56108E-03   -0.11628E-03  1367   0.977E-02
    561 T=   948. E= -.31024430E+02 F= -.32320741E+02 E0= -.32289316E+02  EK= 0.31859E+01 SP= -.19E+01 SK= 0.64E-03 mag=     -0.032
       N       E                     dE             d eps       ncg     rms          rms(c)
DAV:   1    -0.323235812595E+02   -0.34015E-02   -0.11081E-02  2176   0.108E+00    0.564E-02
RMM:   2    -0.323250454158E+02   -0.14642E-02   -0.39417E-03  1531   0.268E-01    0.389E-02
RMM:   3    -0.323253221823E+02   -0.27677E-03   -0.10192E-03  1277   0.101E-01
    562 T=   945. E= -.31021646E+02 F= -.32325322E+02 E0= -.32293845E+02  EK= 0.31752E+01 SP= -.19E+01 SK= 0.34E-02 mag=      0.032
       N       E                     dE             d eps       ncg     rms          rms(c)
DAV:   1    -0.323285920456E+02   -0.35466E-02   -0.25244E-02  2824   0.116E+00    0.434E-02
RMM:   2    -0.323297379007E+02   -0.11459E-02   -0.36359E-03  1542   0.264E-01
    563 T=   938. E= -.31016338E+02 F= -.32329738E+02 E0= -.32298227E+02  EK= 0.31528E+01 SP= -.18E+01 SK= 0.82E-02 mag=      0.076
       N       E                     dE             d eps       ncg     rms          rms(c)
DAV:   1    -0.323328685665E+02   -0.42765E-02   -0.17943E-02  2904   0.120E+00    0.342E-02
RMM:   2    -0.323340155104E+02   -0.11469E-02   -0.42188E-03  1554   0.259E-01
    564 T=   927. E= -.31013441E+02 F= -.32334016E+02 E0= -.32302379E+02  EK= 0.31148E+01 SP= -.18E+01 SK= 0.15E-01 mag=      0.060
       N       E                     dE             d eps       ncg     rms          rms(c)
DAV:   1    -0.323375913581E+02   -0.47228E-02   -0.13625E-02  2400   0.112E+00    0.254E-02
RMM:   2    -0.323387325122E+02   -0.11412E-02   -0.44233E-03  1590   0.306E-01
    565 T=   913. E= -.31009333E+02 F= -.32338733E+02 E0= -.32306914E+02  EK= 0.30670E+01 SP= -.18E+01 SK= 0.22E-01 mag=     -0.009
       N       E                     dE             d eps       ncg     rms          rms(c)
DAV:   1    -0.323417116761E+02   -0.41203E-02   -0.21370E-02  3016   0.122E+00    0.351E-02
RMM:   2    -0.323429556268E+02   -0.12440E-02   -0.45510E-03  1558   0.276E-01
    566 T=   896. E= -.31004409E+02 F= -.32342956E+02 E0= -.32310997E+02  EK= 0.30100E+01 SP= -.17E+01 SK= 0.30E-01 mag=     -0.077
       N       E                     dE             d eps       ncg     rms          rms(c)
DAV:   1    -0.323458012998E+02   -0.40896E-02   -0.10938E-02  2448   0.109E+00    0.357E-02
RMM:   2    -0.323470040882E+02   -0.12028E-02   -0.41493E-03  1551   0.282E-01
    567 T=   876. E= -.31000326E+02 F= -.32347004E+02 E0= -.32314832E+02  EK= 0.29445E+01 SP= -.16E+01 SK= 0.37E-01 mag=     -0.083
       N       E                     dE             d eps       ncg     rms          rms(c)
DAV:   1    -0.323501712380E+02   -0.43699E-02   -0.18108E-02  2856   0.116E+00    0.253E-02
RMM:   2    -0.323512429832E+02   -0.10717E-02   -0.42613E-03  1561   0.275E-01
    568 T=   855. E= -.30995995E+02 F= -.32351243E+02 E0= -.32318719E+02  EK= 0.28743E+01 SP= -.16E+01 SK= 0.43E-01 mag=     -0.020
       N       E                     dE             d eps       ncg     rms          rms(c)
DAV:   1    -0.323538737065E+02   -0.37025E-02   -0.12929E-02  2560   0.107E+00    0.291E-02
RMM:   2    -0.323549902933E+02   -0.11166E-02   -0.46032E-03  1558   0.292E-01
    569 T=   833. E= -.30991942E+02 F= -.32354990E+02 E0= -.32322168E+02  EK= 0.28004E+01 SP= -.15E+01 SK= 0.47E-01 mag=      0.068
       N       E                     dE             d eps       ncg     rms          rms(c)
DAV:   1    -0.323575467777E+02   -0.36731E-02   -0.18508E-02  2912   0.113E+00    0.421E-02
RMM:   2    -0.323587965545E+02   -0.12498E-02   -0.44413E-03  1554   0.275E-01
    570 T=   811. E= -.30987625E+02 F= -.32358797E+02 E0= -.32325681E+02  EK= 0.27262E+01 SP= -.14E+01 SK= 0.49E-01 mag=      0.102
       N       E                     dE             d eps       ncg     rms          rms(c)
DAV:   1    -0.323620837485E+02   -0.45370E-02   -0.14278E-02  2704   0.108E+00    0.269E-02
RMM:   2    -0.323631405807E+02   -0.10568E-02   -0.48313E-03  1583   0.306E-01
    571 T=   789. E= -.30983838E+02 F= -.32363141E+02 E0= -.32329551E+02  EK= 0.26532E+01 SP= -.13E+01 SK= 0.49E-01 mag=      0.055
       N       E                     dE             d eps       ncg     rms          rms(c)
DAV:   1    -0.323665592471E+02   -0.44755E-02   -0.15422E-02  2608   0.108E+00    0.275E-02
RMM:   2    -0.323675467874E+02   -0.98754E-03   -0.45516E-03  1560   0.286E-01
    572 T=   769. E= -.30979560E+02 F= -.32367547E+02 E0= -.32333501E+02  EK= 0.25837E+01 SP= -.12E+01 SK= 0.47E-01 mag=     -0.046
       N       E                     dE             d eps       ncg     rms          rms(c)
DAV:   1    -0.323705199994E+02   -0.39608E-02   -0.13400E-02  2528   0.107E+00    0.438E-02
RMM:   2    -0.323717357773E+02   -0.12158E-02   -0.46862E-03  1556   0.292E-01
    573 T=   750. E= -.30974397E+02 F= -.32371736E+02 E0= -.32337327E+02  EK= 0.25194E+01 SP= -.12E+01 SK= 0.43E-01 mag=     -0.112
       N       E                     dE             d eps       ncg     rms          rms(c)
DAV:   1    -0.323763302356E+02   -0.58102E-02   -0.14795E-02  2680   0.107E+00    0.373E-02
RMM:   2    -0.323773512495E+02   -0.10210E-02   -0.47879E-03  1588   0.292E-01
    574 T=   733. E= -.30969528E+02 F= -.32377351E+02 E0= -.32342400E+02  EK= 0.24618E+01 SP= -.11E+01 SK= 0.38E-01 mag=     -0.091
       N       E                     dE             d eps       ncg     rms          rms(c)
DAV:   1    -0.323830055771E+02   -0.66753E-02   -0.14498E-02  2600   0.104E+00    0.256E-02
RMM:   2    -0.323838939861E+02   -0.88841E-03   -0.45106E-03  1564   0.294E-01
    575 T=   717. E= -.30965076E+02 F= -.32383894E+02 E0= -.32348347E+02  EK= 0.24113E+01 SP= -.10E+01 SK= 0.31E-01 mag=      0.010
       N       E                     dE             d eps       ncg     rms          rms(c)
DAV:   1    -0.323896896415E+02   -0.66841E-02   -0.13724E-02  2528   0.104E+00    0.429E-02
RMM:   2    -0.323907874225E+02   -0.10978E-02   -0.50433E-03  1574   0.278E-01
    576 T=   705. E= -.30960384E+02 F= -.32390787E+02 E0= -.32354789E+02  EK= 0.23686E+01 SP= -.96E+00 SK= 0.25E-01 mag=      0.115
       N       E                     dE             d eps       ncg     rms          rms(c)
DAV:   1    -0.323982538992E+02   -0.85643E-02   -0.14984E-02  2552   0.104E+00    0.466E-02
RMM:   2    -0.323993685744E+02   -0.11147E-02   -0.44199E-03  1538   0.289E-01
    577 T=   695. E= -.30956026E+02 F= -.32399369E+02 E0= -.32362866E+02  EK= 0.23350E+01 SP= -.91E+00 SK= 0.18E-01 mag=      0.128
       N       E                     dE             d eps       ncg     rms          rms(c)
DAV:   1    -0.324092461993E+02   -0.10992E-01   -0.13760E-02  2544   0.101E+00    0.293E-02
RMM:   2    -0.324100801688E+02   -0.83397E-03   -0.44928E-03  1551   0.293E-01
    578 T=   688. E= -.30952120E+02 F= -.32410080E+02 E0= -.32372844E+02  EK= 0.23113E+01 SP= -.87E+00 SK= 0.12E-01 mag=      0.033
       N       E                     dE             d eps       ncg     rms          rms(c)
DAV:   1    -0.324207029819E+02   -0.11457E-01   -0.14653E-02  2600   0.101E+00    0.446E-02
RMM:   2    -0.324217031879E+02   -0.10002E-02   -0.45008E-03  1535   0.288E-01
    579 T=   684. E= -.30947578E+02 F= -.32421703E+02 E0= -.32383915E+02  EK= 0.22973E+01 SP= -.83E+00 SK= 0.69E-02 mag=     -0.100
       N       E                     dE             d eps       ncg     rms          rms(c)
DAV:   1    -0.324336077246E+02   -0.12905E-01   -0.12589E-02  2616   0.103E+00    0.554E-02
RMM:   2    -0.324348312784E+02   -0.12236E-02   -0.46100E-03  1551   0.277E-01
    580 T=   682. E= -.30943091E+02 F= -.32434831E+02 E0= -.32396559E+02  EK= 0.22932E+01 SP= -.80E+00 SK= 0.32E-02 mag=     -0.172
       N       E                     dE             d eps       ncg     rms          rms(c)
DAV:   1    -0.324493987460E+02   -0.15791E-01   -0.12689E-02  2568   0.104E+00    0.438E-02
RMM:   2    -0.324504176127E+02   -0.10189E-02   -0.46459E-03  1574   0.291E-01
    581 T=   684. E= -.30939541E+02 F= -.32450418E+02 E0= -.32411420E+02  EK= 0.22990E+01 SP= -.79E+00 SK= 0.89E-03 mag=     -0.105
       N       E                     dE             d eps       ncg     rms          rms(c)
DAV:   1    -0.324667058557E+02   -0.17307E-01   -0.13072E-02  2432   0.102E+00    0.396E-02
RMM:   2    -0.324675937477E+02   -0.88789E-03   -0.46743E-03  1555   0.302E-01
    582 T=   689. E= -.30935630E+02 F= -.32467594E+02 E0= -.32427869E+02  EK= 0.23149E+01 SP= -.78E+00 SK= 0.15E-04 mag=      0.066
       N       E                     dE             d eps       ncg     rms          rms(c)
DAV:   1    -0.324837186235E+02   -0.17013E-01   -0.16167E-02  2704   0.104E+00    0.687E-02
RMM:   2    -0.324852477130E+02   -0.15291E-02   -0.49334E-03  1523   0.289E-01    0.525E-02
RMM:   3    -0.324862084167E+02   -0.96070E-03   -0.21457E-03  1412   0.117E-01
    583 T=   696. E= -.30932363E+02 F= -.32486208E+02 E0= -.32445937E+02  EK= 0.23396E+01 SP= -.79E+00 SK= 0.42E-03 mag=      0.080
       N       E                     dE             d eps       ncg     rms          rms(c)
DAV:   1    -0.325055406132E+02   -0.20293E-01   -0.16141E-02  2360   0.990E-01    0.524E-02
RMM:   2    -0.325064638877E+02   -0.92327E-03   -0.32105E-03  1454   0.251E-01
    584 T=   707. E= -.30927720E+02 F= -.32506464E+02 E0= -.32465456E+02  EK= 0.23749E+01 SP= -.80E+00 SK= 0.18E-02 mag=     -0.036
       N       E                     dE             d eps       ncg     rms          rms(c)
DAV:   1    -0.325254176953E+02   -0.19877E-01   -0.26244E-02  2904   0.113E+00    0.716E-02
RMM:   2    -0.325268774095E+02   -0.14597E-02   -0.40904E-03  1533   0.236E-01    0.534E-02
RMM:   3    -0.325276644499E+02   -0.78704E-03   -0.13448E-03  1414   0.985E-02
    585 T=   719. E= -.30923654E+02 F= -.32527664E+02 E0= -.32486069E+02  EK= 0.24176E+01 SP= -.82E+00 SK= 0.39E-02 mag=     -0.066
       N       E                     dE             d eps       ncg     rms          rms(c)
DAV:   1    -0.325484210648E+02   -0.21544E-01   -0.14060E-02  1968   0.962E-01    0.680E-02
RMM:   2    -0.325495980412E+02   -0.11770E-02   -0.43215E-03  1533   0.252E-01
    586 T=   734. E= -.30920711E+02 F= -.32549598E+02 E0= -.32507297E+02  EK= 0.24663E+01 SP= -.84E+00 SK= 0.63E-02 mag=     -0.014
       N       E                     dE             d eps       ncg     rms          rms(c)
DAV:   1    -0.325698796014E+02   -0.21459E-01   -0.27283E-02  2904   0.115E+00    0.756E-02
RMM:   2    -0.325714037736E+02   -0.15242E-02   -0.44804E-03  1544   0.254E-01    0.537E-02
RMM:   3    -0.325721741124E+02   -0.77034E-03   -0.15257E-03  1421   0.106E-01
    587 T=   750. E= -.30917936E+02 F= -.32572174E+02 E0= -.32529248E+02  EK= 0.25211E+01 SP= -.88E+00 SK= 0.86E-02 mag=      0.023
       N       E                     dE             d eps       ncg     rms          rms(c)
DAV:   1    -0.325933643927E+02   -0.21961E-01   -0.17902E-02  2256   0.985E-01    0.829E-02
RMM:   2    -0.325946393333E+02   -0.12749E-02   -0.38672E-03  1540   0.270E-01
    588 T=   768. E= -.30913993E+02 F= -.32594639E+02 E0= -.32551104E+02  EK= 0.25816E+01 SP= -.91E+00 SK= 0.10E-01 mag=      0.040
       N       E                     dE             d eps       ncg     rms          rms(c)
DAV:   1    -0.326143397482E+02   -0.20975E-01   -0.32695E-02  2920   0.119E+00    0.895E-02
RMM:   2    -0.326161177784E+02   -0.17780E-02   -0.45303E-03  1549   0.254E-01    0.614E-02
RMM:   3    -0.326169379481E+02   -0.82017E-03   -0.14575E-03  1415   0.104E-01
    589 T=   787. E= -.30910269E+02 F= -.32616938E+02 E0= -.32572842E+02  EK= 0.26450E+01 SP= -.95E+00 SK= 0.11E-01 mag=      0.032
       N       E                     dE             d eps       ncg     rms          rms(c)
DAV:   1    -0.326367359827E+02   -0.20618E-01   -0.22410E-02  2200   0.103E+00    0.101E-01
RMM:   2    -0.326382754122E+02   -0.15394E-02   -0.41457E-03  1520   0.275E-01    0.662E-02
RMM:   3    -0.326387192076E+02   -0.44380E-03   -0.12724E-03  1363   0.113E-01
    590 T=   806. E= -.30908792E+02 F= -.32638719E+02 E0= -.32594026E+02  EK= 0.27077E+01 SP= -.99E+00 SK= 0.12E-01 mag=     -0.024
       N       E                     dE             d eps       ncg     rms          rms(c)
DAV:   1    -0.326579537212E+02   -0.19678E-01   -0.34130E-02  2744   0.110E+00    0.642E-02
RMM:   2    -0.326588904182E+02   -0.93670E-03   -0.42306E-03  1539   0.283E-01
    591 T=   825. E= -.30905196E+02 F= -.32658890E+02 E0= -.32613742E+02  EK= 0.27713E+01 SP= -.10E+01 SK= 0.11E-01 mag=     -0.080
       N       E                     dE             d eps       ncg     rms          rms(c)
DAV:   1    -0.326764830760E+02   -0.18529E-01   -0.24474E-02  2768   0.115E+00    0.499E-02
RMM:   2    -0.326774637667E+02   -0.98069E-03   -0.44963E-03  1554   0.275E-01
    592 T=   842. E= -.30902911E+02 F= -.32677464E+02 E0= -.32631851E+02  EK= 0.28307E+01 SP= -.11E+01 SK= 0.94E-02 mag=     -0.094
       N       E                     dE             d eps       ncg     rms          rms(c)
DAV:   1    -0.326931865045E+02   -0.16703E-01   -0.15689E-02  2432   0.108E+00    0.403E-02
RMM:   2    -0.326941156765E+02   -0.92917E-03   -0.40442E-03  1547   0.293E-01
    593 T=   859. E= -.30899517E+02 F= -.32694116E+02 E0= -.32648039E+02  EK= 0.28864E+01 SP= -.11E+01 SK= 0.73E-02 mag=     -0.040
       N       E                     dE             d eps       ncg     rms          rms(c)
DAV:   1    -0.327074641537E+02   -0.14278E-01   -0.20889E-02  2712   0.124E+00    0.476E-02
RMM:   2    -0.327085038946E+02   -0.10397E-02   -0.43961E-03  1568   0.281E-01
    594 T=   874. E= -.30894799E+02 F= -.32708504E+02 E0= -.32662103E+02  EK= 0.29366E+01 SP= -.11E+01 SK= 0.50E-02 mag=      0.058
       N       E                     dE             d eps       ncg     rms          rms(c)
DAV:   1    -0.327189210714E+02   -0.11457E-01   -0.12097E-02  2360   0.109E+00    0.435E-02
RMM:   2    -0.327201450696E+02   -0.12240E-02   -0.47644E-03  1576   0.311E-01
    595 T=   886. E= -.30890121E+02 F= -.32720145E+02 E0= -.32673584E+02  EK= 0.29777E+01 SP= -.12E+01 SK= 0.27E-02 mag=      0.133
       N       E                     dE             d eps       ncg     rms          rms(c)
DAV:   1    -0.327285778394E+02   -0.96568E-02   -0.20944E-02  2704   0.122E+00    0.487E-02
RMM:   2    -0.327296469908E+02   -0.10692E-02   -0.42997E-03  1567   0.289E-01
    596 T=   895. E= -.30885858E+02 F= -.32729647E+02 E0= -.32682841E+02  EK= 0.30086E+01 SP= -.12E+01 SK= 0.10E-02 mag=      0.121
       N       E                     dE             d eps       ncg     rms          rms(c)
DAV:   1    -0.327351698689E+02   -0.65920E-02   -0.16335E-02  2664   0.111E+00    0.351E-02
RMM:   2    -0.327363368371E+02   -0.11670E-02   -0.51228E-03  1560   0.307E-01
    597 T=   901. E= -.30882191E+02 F= -.32736337E+02 E0= -.32689351E+02  EK= 0.30274E+01 SP= -.12E+01 SK= 0.85E-04 mag=      0.015
       N       E                     dE             d eps       ncg     rms          rms(c)
DAV:   1    -0.327384131173E+02   -0.32432E-02   -0.20566E-02  2872   0.118E+00    0.547E-02
RMM:   2    -0.327397929466E+02   -0.13798E-02   -0.47838E-03  1542   0.279E-01    0.392E-02
RMM:   3    -0.327402718829E+02   -0.47894E-03   -0.15538E-03  1467   0.111E-01
    598 T=   903. E= -.30879046E+02 F= -.32740272E+02 E0= -.32693322E+02  EK= 0.30336E+01 SP= -.12E+01 SK= 0.19E-03 mag=     -0.069
       N       E                     dE             d eps       ncg     rms          rms(c)
DAV:   1    -0.327406857245E+02   -0.89278E-03   -0.17853E-02  2312   0.109E+00    0.521E-02
RMM:   2    -0.327418218503E+02   -0.11361E-02   -0.33150E-03  1494   0.268E-01
    599 T=   902. E= -.30873796E+02 F= -.32741822E+02 E0= -.32694926E+02  EK= 0.30299E+01 SP= -.12E+01 SK= 0.14E-02 mag=     -0.077
       N       E                     dE             d eps       ncg     rms          rms(c)
DAV:   1    -0.327401406401E+02    0.54508E-03   -0.27933E-02  3048   0.126E+00    0.459E-02
RMM:   2    -0.327413135458E+02   -0.11729E-02   -0.40332E-03  1542   0.245E-01
    600 T=   897. E= -.30869022E+02 F= -.32741314E+02 E0= -.32694566E+02  EK= 0.30142E+01 SP= -.11E+01 SK= 0.36E-02 mag=      0.000
       N       E                     dE             d eps       ncg     rms          rms(c)
DAV:   1    -0.327379630531E+02    0.21776E-02   -0.11517E-02  2200   0.103E+00    0.397E-02
RMM:   2    -0.327391556125E+02   -0.11926E-02   -0.51229E-03  1542   0.299E-01
    601 T=   889. E= -.30865834E+02 F= -.32739156E+02 E0= -.32692713E+02  EK= 0.29865E+01 SP= -.11E+01 SK= 0.65E-02 mag=      0.110
       N       E                     dE             d eps       ncg     rms          rms(c)
DAV:   1    -0.327340476020E+02    0.39155E-02   -0.24529E-02  2888   0.124E+00    0.511E-02
RMM:   2    -0.327353283508E+02   -0.12807E-02   -0.48074E-03  1555   0.282E-01
    602 T=   878. E= -.30861508E+02 F= -.32735328E+02 E0= -.32689302E+02  EK= 0.29504E+01 SP= -.11E+01 SK= 0.10E-01 mag=      0.140
       N       E                     dE             d eps       ncg     rms          rms(c)
DAV:   1    -0.327295293211E+02    0.45183E-02   -0.16152E-02  2352   0.106E+00    0.452E-02
RMM:   2    -0.327307860873E+02   -0.12568E-02   -0.55233E-03  1547   0.328E-01
    603 T=   865. E= -.30857148E+02 F= -.32730786E+02 E0= -.32685079E+02  EK= 0.29072E+01 SP= -.10E+01 SK= 0.13E-01 mag=      0.058
       N       E                     dE             d eps       ncg     rms          rms(c)
DAV:   1    -0.327241735293E+02    0.53558E-02   -0.18581E-02  2840   0.114E+00    0.492E-02
RMM:   2    -0.327253812084E+02   -0.12077E-02   -0.48413E-03  1548   0.293E-01
    604 T=   851. E= -.30851990E+02 F= -.32725381E+02 E0= -.32680170E+02  EK= 0.28587E+01 SP= -.10E+01 SK= 0.17E-01 mag=     -0.081
       N       E                     dE             d eps       ncg     rms          rms(c)
DAV:   1    -0.327185186346E+02    0.56549E-02   -0.13707E-02  2480   0.108E+00    0.572E-02
RMM:   2    -0.327197776068E+02   -0.12590E-02   -0.50223E-03  1582   0.301E-01
    605 T=   835. E= -.30847228E+02 F= -.32719778E+02 E0= -.32675229E+02  EK= 0.28061E+01 SP= -.95E+00 SK= 0.19E-01 mag=     -0.184
       N       E                     dE             d eps       ncg     rms          rms(c)
DAV:   1    -0.327132307259E+02    0.52879E-02   -0.17977E-02  2720   0.111E+00    0.634E-02
RMM:   2    -0.327146469050E+02   -0.14162E-02   -0.49490E-03  1562   0.291E-01    0.454E-02
RMM:   3    -0.327151585817E+02   -0.51168E-03   -0.15447E-03  1474   0.115E-01
    606 T=   819. E= -.30843758E+02 F= -.32715159E+02 E0= -.32671145E+02  EK= 0.27512E+01 SP= -.90E+00 SK= 0.21E-01 mag=     -0.065
       N       E                     dE             d eps       ncg     rms          rms(c)
DAV:   1    -0.327095220863E+02    0.51248E-02   -0.12852E-02  2280   0.102E+00    0.687E-02
RMM:   2    -0.327106687999E+02   -0.11467E-02   -0.28631E-03  1532   0.261E-01
    607 T=   803. E= -.30837736E+02 F= -.32710669E+02 E0= -.32667298E+02  EK= 0.26984E+01 SP= -.85E+00 SK= 0.22E-01 mag=      0.136
       N       E                     dE             d eps       ncg     rms          rms(c)
DAV:   1    -0.327053521124E+02    0.41700E-02   -0.23627E-02  2928   0.117E+00    0.739E-02
RMM:   2    -0.327068879504E+02   -0.15358E-02   -0.40942E-03  1550   0.248E-01    0.561E-02
RMM:   3    -0.327074679419E+02   -0.57999E-03   -0.11250E-03  1389   0.985E-02
    608 T=   788. E= -.30832510E+02 F= -.32707468E+02 E0= -.32664856E+02  EK= 0.26469E+01 SP= -.79E+00 SK= 0.21E-01 mag=      0.081
       N       E                     dE             d eps       ncg     rms          rms(c)
DAV:   1    -0.327043740870E+02    0.25139E-02   -0.11681E-02  2112   0.975E-01    0.682E-02
RMM:   2    -0.327056818306E+02   -0.13077E-02   -0.34260E-03  1515   0.243E-01
    609 T=   773. E= -.30828294E+02 F= -.32705682E+02 E0= -.32663629E+02  EK= 0.25978E+01 SP= -.74E+00 SK= 0.20E-01 mag=     -0.136
       N       E                     dE             d eps       ncg     rms          rms(c)
DAV:   1    -0.327019914784E+02    0.23826E-02   -0.25068E-02  2896   0.110E+00    0.971E-02
RMM:   2    -0.327039578476E+02   -0.19664E-02   -0.45385E-03  1532   0.250E-01    0.695E-02
RMM:   3    -0.327052768943E+02   -0.13190E-02   -0.18442E-03  1469   0.114E-01
    610 T=   760. E= -.30824131E+02 F= -.32705277E+02 E0= -.32663981E+02  EK= 0.25531E+01 SP= -.69E+00 SK= 0.18E-01 mag=     -0.079
       N       E                     dE             d eps       ncg     rms          rms(c)
DAV:   1    -0.327048322388E+02   -0.87439E-03   -0.11626E-02  2168   0.959E-01    0.878E-02
RMM:   2    -0.327064157248E+02   -0.15835E-02   -0.35948E-03  1498   0.268E-01    0.611E-02
RMM:   3    -0.327069057334E+02   -0.49001E-03   -0.11346E-03  1334   0.102E-01
    611 T=   748. E= -.30821365E+02 F= -.32706906E+02 E0= -.32666183E+02  EK= 0.25130E+01 SP= -.64E+00 SK= 0.15E-01 mag=      0.034
       N       E                     dE             d eps       ncg     rms          rms(c)
DAV:   1    -0.327093736427E+02   -0.29579E-02   -0.24482E-02  2728   0.102E+00    0.589E-02
RMM:   2    -0.327103211939E+02   -0.94755E-03   -0.36367E-03  1536   0.249E-01
    612 T=   738. E= -.30816664E+02 F= -.32710321E+02 E0= -.32670227E+02  EK= 0.24813E+01 SP= -.60E+00 SK= 0.12E-01 mag=      0.119
       N       E                     dE             d eps       ncg     rms          rms(c)
DAV:   1    -0.327150817552E+02   -0.57081E-02   -0.18806E-02  2648   0.106E+00    0.508E-02
RMM:   2    -0.327160659086E+02   -0.98415E-03   -0.39294E-03  1537   0.254E-01
    613 T=   731. E= -.30813483E+02 F= -.32716066E+02 E0= -.32676637E+02  EK= 0.24555E+01 SP= -.56E+00 SK= 0.92E-02 mag=      0.109
       N       E                     dE             d eps       ncg     rms          rms(c)
DAV:   1    -0.327231318915E+02   -0.80501E-02   -0.12449E-02  2304   0.975E-01    0.372E-02
RMM:   2    -0.327239645873E+02   -0.83270E-03   -0.36573E-03  1549   0.277E-01
    614 T=   725. E= -.30809670E+02 F= -.32723965E+02 E0= -.32685060E+02  EK= 0.24380E+01 SP= -.53E+00 SK= 0.63E-02 mag=      0.008
       N       E                     dE             d eps       ncg     rms          rms(c)
DAV:   1    -0.327321873954E+02   -0.90555E-02   -0.14968E-02  2768   0.106E+00    0.474E-02
RMM:   2    -0.327331758726E+02   -0.98848E-03   -0.40184E-03  1564   0.261E-01
    615 T=   723. E= -.30805017E+02 F= -.32733176E+02 E0= -.32694798E+02  EK= 0.24285E+01 SP= -.50E+00 SK= 0.39E-02 mag=     -0.110
       N       E                     dE             d eps       ncg     rms          rms(c)
DAV:   1    -0.327427975772E+02   -0.10610E-01   -0.11242E-02  2408   0.963E-01    0.522E-02
RMM:   2    -0.327439342024E+02   -0.11366E-02   -0.36511E-03  1544   0.263E-01
    616 T=   722. E= -.30800904E+02 F= -.32743934E+02 E0= -.32706089E+02  EK= 0.24258E+01 SP= -.48E+00 SK= 0.20E-02 mag=     -0.112
       N       E                     dE             d eps       ncg     rms          rms(c)
DAV:   1    -0.327564402809E+02   -0.13643E-01   -0.16248E-02  2736   0.105E+00    0.347E-02
RMM:   2    -0.327572644031E+02   -0.82412E-03   -0.38016E-03  1553   0.262E-01
    617 T=   723. E= -.30797233E+02 F= -.32757264E+02 E0= -.32719796E+02  EK= 0.24312E+01 SP= -.47E+00 SK= 0.72E-03 mag=     -0.005
       N       E                     dE             d eps       ncg     rms          rms(c)
DAV:   1    -0.327699452896E+02   -0.13505E-01   -0.15285E-02  2544   0.976E-01    0.474E-02
RMM:   2    -0.327710924911E+02   -0.11472E-02   -0.42202E-03  1544   0.274E-01
    618 T=   727. E= -.30792836E+02 F= -.32771092E+02 E0= -.32733985E+02  EK= 0.24434E+01 SP= -.47E+00 SK= 0.95E-04 mag=      0.110
       N       E                     dE             d eps       ncg     rms          rms(c)
DAV:   1    -0.327848933059E+02   -0.14948E-01   -0.14079E-02  2632   0.104E+00    0.546E-02
RMM:   2    -0.327860891965E+02   -0.11959E-02   -0.40740E-03  1544   0.264E-01
    619 T=   733. E= -.30788897E+02 F= -.32786089E+02 E0= -.32749310E+02  EK= 0.24619E+01 SP= -.46E+00 SK= 0.39E-04 mag=      0.135
       N       E                     dE             d eps       ncg     rms          rms(c)
DAV:   1    -0.328011612174E+02   -0.16268E-01   -0.12231E-02  2536   0.102E+00    0.321E-02
RMM:   2    -0.328021089242E+02   -0.94771E-03   -0.40041E-03  1549   0.280E-01
    620 T=   740. E= -.30785839E+02 F= -.32802109E+02 E0= -.32765515E+02  EK= 0.24856E+01 SP= -.47E+00 SK= 0.43E-03 mag=      0.045
       N       E                     dE             d eps       ncg     rms          rms(c)
DAV:   1    -0.328168538785E+02   -0.15693E-01   -0.14852E-02  2640   0.106E+00    0.437E-02
RMM:   2    -0.328179687703E+02   -0.11149E-02   -0.43076E-03  1561   0.273E-01
    621 T=   748. E= -.30782367E+02 F= -.32817969E+02 E0= -.32781538E+02  EK= 0.25144E+01 SP= -.48E+00 SK= 0.11E-02 mag=     -0.089
       N       E                     dE             d eps       ncg     rms          rms(c)
DAV:   1    -0.328320896074E+02   -0.15236E-01   -0.16822E-02  2648   0.105E+00    0.594E-02
RMM:   2    -0.328335344190E+02   -0.14448E-02   -0.43936E-03  1554   0.280E-01    0.433E-02
RMM:   3    -0.328340705184E+02   -0.53610E-03   -0.14113E-03  1448   0.108E-01
    622 T=   758. E= -.30779746E+02 F= -.32834071E+02 E0= -.32797766E+02  EK= 0.25466E+01 SP= -.49E+00 SK= 0.20E-02 mag=     -0.048
       N       E                     dE             d eps       ncg     rms          rms(c)
DAV:   1    -0.328479179341E+02   -0.14384E-01   -0.16799E-02  2464   0.103E+00    0.568E-02
RMM:   2    -0.328492066466E+02   -0.12887E-02   -0.32043E-03  1500   0.238E-01
    623 T=   769. E= -.30775032E+02 F= -.32849207E+02 E0= -.32812937E+02  EK= 0.25835E+01 SP= -.51E+00 SK= 0.28E-02 mag=      0.094
       N       E                     dE             d eps       ncg     rms          rms(c)
DAV:   1    -0.328608486965E+02   -0.12931E-01   -0.26445E-02  2952   0.115E+00    0.759E-02
RMM:   2    -0.328626004007E+02   -0.17517E-02   -0.43969E-03  1556   0.236E-01    0.546E-02
RMM:   3    -0.328634619419E+02   -0.86154E-03   -0.14630E-03  1403   0.101E-01
    624 T=   780. E= -.30771722E+02 F= -.32863462E+02 E0= -.32827198E+02  EK= 0.26209E+01 SP= -.53E+00 SK= 0.34E-02 mag=      0.036
       N       E                     dE             d eps       ncg     rms          rms(c)
DAV:   1    -0.328737823295E+02   -0.11182E-01   -0.17853E-02  2424   0.103E+00    0.795E-02
RMM:   2    -0.328755910952E+02   -0.18088E-02   -0.38349E-03  1495   0.242E-01    0.556E-02
RMM:   3    -0.328760811466E+02   -0.49005E-03   -0.91497E-04  1287   0.946E-02
    625 T=   791. E= -.30770076E+02 F= -.32876081E+02 E0= -.32839715E+02  EK= 0.26569E+01 SP= -.55E+00 SK= 0.38E-02 mag=     -0.036
       N       E                     dE             d eps       ncg     rms          rms(c)
DAV:   1    -0.328859077217E+02   -0.10317E-01   -0.34349E-02  2768   0.111E+00    0.474E-02
RMM:   2    -0.328869802774E+02   -0.10726E-02   -0.37666E-03  1546   0.261E-01
    626 T=   802. E= -.30766824E+02 F= -.32886980E+02 E0= -.32850501E+02  EK= 0.26939E+01 SP= -.58E+00 SK= 0.39E-02 mag=     -0.074
       N       E                     dE             d eps       ncg     rms          rms(c)
DAV:   1    -0.328945361651E+02   -0.86284E-02   -0.25044E-02  2784   0.114E+00    0.383E-02
RMM:   2    -0.328956198167E+02   -0.10837E-02   -0.42136E-03  1568   0.259E-01
    627 T=   812. E= -.30764949E+02 F= -.32895620E+02 E0= -.32858988E+02  EK= 0.27274E+01 SP= -.60E+00 SK= 0.38E-02 mag=     -0.046
       N       E                     dE             d eps       ncg     rms          rms(c)
DAV:   1    -0.329002847283E+02   -0.57486E-02   -0.16559E-02  2600   0.107E+00    0.333E-02
RMM:   2    -0.329014025659E+02   -0.11178E-02   -0.40440E-03  1561   0.279E-01
    628 T=   821. E= -.30762631E+02 F= -.32901403E+02 E0= -.32864577E+02  EK= 0.27578E+01 SP= -.62E+00 SK= 0.33E-02 mag=      0.024
       N       E                     dE             d eps       ncg     rms          rms(c)
DAV:   1    -0.329028557457E+02   -0.25710E-02   -0.23313E-02  2832   0.121E+00    0.365E-02
RMM:   2    -0.329040686483E+02   -0.12129E-02   -0.42296E-03  1550   0.271E-01
    629 T=   829. E= -.30759233E+02 F= -.32904069E+02 E0= -.32867063E+02  EK= 0.27846E+01 SP= -.64E+00 SK= 0.27E-02 mag=      0.080
       N       E                     dE             d eps       ncg     rms          rms(c)
DAV:   1    -0.329024790536E+02    0.37669E-03   -0.15952E-02  2600   0.109E+00    0.363E-02
RMM:   2    -0.329037178824E+02   -0.12388E-02   -0.41771E-03  1552   0.276E-01
    630 T=   835. E= -.30756266E+02 F= -.32903718E+02 E0= -.32866513E+02  EK= 0.28057E+01 SP= -.66E+00 SK= 0.20E-02 mag=      0.077
       N       E                     dE             d eps       ncg     rms          rms(c)
DAV:   1    -0.328986948398E+02    0.37842E-02   -0.21195E-02  2576   0.115E+00    0.329E-02
RMM:   2    -0.328998872403E+02   -0.11924E-02   -0.41044E-03  1552   0.274E-01
    631 T=   839. E= -.30753164E+02 F= -.32899887E+02 E0= -.32862416E+02  EK= 0.28205E+01 SP= -.68E+00 SK= 0.13E-02 mag=      0.013
       N       E                     dE             d eps       ncg     rms          rms(c)
DAV:   1    -0.328910185465E+02    0.76763E-02   -0.19327E-02  2544   0.112E+00    0.314E-02
RMM:   2    -0.328922746690E+02   -0.12561E-02   -0.47355E-03  1570   0.293E-01
    632 T=   842. E= -.30749567E+02 F= -.32892275E+02 E0= -.32854608E+02  EK= 0.28287E+01 SP= -.69E+00 SK= 0.74E-03 mag=     -0.075
       N       E                     dE             d eps       ncg     rms          rms(c)
DAV:   1    -0.328795581517E+02    0.11460E-01   -0.24849E-02  2784   0.115E+00    0.479E-02
RMM:   2    -0.328810614816E+02   -0.15033E-02   -0.47030E-03  1549   0.287E-01    0.354E-02
RMM:   3    -0.328814865792E+02   -0.42510E-03   -0.14906E-03  1445   0.110E-01
    633 T=   842. E= -.30746549E+02 F= -.32881487E+02 E0= -.32843627E+02  EK= 0.28295E+01 SP= -.69E+00 SK= 0.31E-03 mag=     -0.052
       N       E                     dE             d eps       ncg     rms          rms(c)
DAV:   1    -0.328658899153E+02    0.15172E-01   -0.22526E-02  2472   0.110E+00    0.427E-02
RMM:   2    -0.328671417316E+02   -0.12518E-02   -0.35251E-03  1579   0.256E-01
    634 T=   840. E= -.30742076E+02 F= -.32867142E+02 E0= -.32829029E+02  EK= 0.28246E+01 SP= -.70E+00 SK= 0.69E-04 mag=      0.050
       N       E                     dE             d eps       ncg     rms          rms(c)
DAV:   1    -0.328474739116E+02    0.18416E-01   -0.33647E-02  2976   0.120E+00    0.478E-02
RMM:   2    -0.328488405864E+02   -0.13667E-02   -0.40684E-03  1555   0.243E-01    0.361E-02
RMM:   3    -0.328492741976E+02   -0.43361E-03   -0.12377E-03  1386   0.982E-02
    635 T=   837. E= -.30738057E+02 F= -.32849274E+02 E0= -.32811041E+02  EK= 0.28121E+01 SP= -.70E+00 SK= 0.26E-06 mag=      0.058
       N       E                     dE             d eps       ncg     rms          rms(c)
DAV:   1    -0.328273510992E+02    0.21489E-01   -0.17121E-02  2200   0.106E+00    0.419E-02
RMM:   2    -0.328285466100E+02   -0.11955E-02   -0.37339E-03  1584   0.259E-01
    636 T=   831. E= -.30734010E+02 F= -.32828547E+02 E0= -.32790063E+02  EK= 0.27937E+01 SP= -.70E+00 SK= 0.68E-04 mag=     -0.018
       N       E                     dE             d eps       ncg     rms          rms(c)
DAV:   1    -0.328031991175E+02    0.24152E-01   -0.32093E-02  2912   0.120E+00    0.454E-02
RMM:   2    -0.328044652913E+02   -0.12662E-02   -0.44440E-03  1597   0.256E-01
    637 T=   824. E= -.30729335E+02 F= -.32804465E+02 E0= -.32765923E+02  EK= 0.27698E+01 SP= -.69E+00 SK= 0.21E-03 mag=     -0.105
       N       E                     dE             d eps       ncg     rms          rms(c)
DAV:   1    -0.327769563808E+02    0.26243E-01   -0.15434E-02  2144   0.103E+00    0.458E-02
RMM:   2    -0.327782904824E+02   -0.13341E-02   -0.48229E-03  1585   0.313E-01
    638 T=   815. E= -.30725855E+02 F= -.32778290E+02 E0= -.32739663E+02  EK= 0.27407E+01 SP= -.69E+00 SK= 0.36E-03 mag=     -0.116
       N       E                     dE             d eps       ncg     rms          rms(c)
DAV:   1    -0.327490666665E+02    0.27890E-01   -0.25830E-02  2632   0.119E+00    0.325E-02
RMM:   2    -0.327502850037E+02   -0.12183E-02   -0.50594E-03  1632   0.296E-01
    639 T=   806. E= -.30721335E+02 F= -.32750285E+02 E0= -.32711464E+02  EK= 0.27095E+01 SP= -.68E+00 SK= 0.46E-03 mag=     -0.034
       N       E                     dE             d eps       ncg     rms          rms(c)
DAV:   1    -0.327188366833E+02    0.30230E-01   -0.18571E-02  2496   0.106E+00    0.355E-02
RMM:   2    -0.327200625028E+02   -0.12258E-02   -0.47706E-03  1570   0.298E-01
    640 T=   796. E= -.30716799E+02 F= -.32720063E+02 E0= -.32681201E+02  EK= 0.26757E+01 SP= -.67E+00 SK= 0.48E-03 mag=      0.081
       N       E                     dE             d eps       ncg     rms          rms(c)
DAV:   1    -0.326870788880E+02    0.31758E-01   -0.19500E-02  2384   0.114E+00    0.493E-02
RMM:   2    -0.326884106357E+02   -0.13317E-02   -0.46625E-03  1605   0.295E-01
    641 T=   786. E= -.30711175E+02 F= -.32688411E+02 E0= -.32649599E+02  EK= 0.26420E+01 SP= -.67E+00 SK= 0.39E-03 mag=      0.135
       N       E                     dE             d eps       ncg     rms          rms(c)
DAV:   1    -0.326556056345E+02    0.31473E-01   -0.18037E-02  2528   0.107E+00    0.370E-02
RMM:   2    -0.326567778734E+02   -0.11722E-02   -0.47508E-03  1600   0.299E-01
    642 T=   776. E= -.30706399E+02 F= -.32656778E+02 E0= -.32617855E+02  EK= 0.26086E+01 SP= -.66E+00 SK= 0.24E-03 mag=      0.083
       N       E                     dE             d eps       ncg     rms          rms(c)
DAV:   1    -0.326237972828E+02    0.31808E-01   -0.17302E-02  2488   0.108E+00    0.345E-02
RMM:   2    -0.326248974291E+02   -0.11001E-02   -0.47659E-03  1571   0.291E-01
    643 T=   767. E= -.30701973E+02 F= -.32624897E+02 E0= -.32585913E+02  EK= 0.25767E+01 SP= -.65E+00 SK= 0.81E-04 mag=     -0.044
       N       E                     dE             d eps       ncg     rms          rms(c)
DAV:   1    -0.325915553991E+02    0.32242E-01   -0.18564E-02  2352   0.108E+00    0.512E-02
RMM:   2    -0.325928331149E+02   -0.12777E-02   -0.47088E-03  1574   0.294E-01
    644 T=   758. E= -.30696790E+02 F= -.32592833E+02 E0= -.32553987E+02  EK= 0.25480E+01 SP= -.65E+00 SK= 0.20E-06 mag=     -0.148
       N       E                     dE             d eps       ncg     rms          rms(c)
DAV:   1    -0.325604861022E+02    0.31069E-01   -0.18394E-02  2536   0.108E+00    0.528E-02
RMM:   2    -0.325618302432E+02   -0.13441E-02   -0.51411E-03  1596   0.301E-01
    645 T=   751. E= -.30691580E+02 F= -.32561830E+02 E0= -.32523000E+02  EK= 0.25237E+01 SP= -.65E+00 SK= 0.98E-04 mag=     -0.130
       N       E                     dE             d eps       ncg     rms          rms(c)
DAV:   1    -0.325317557433E+02    0.28730E-01   -0.17172E-02  2480   0.106E+00    0.319E-02
RMM:   2    -0.325327385312E+02   -0.98279E-03   -0.46822E-03  1558   0.302E-01
    646 T=   745. E= -.30686895E+02 F= -.32532739E+02 E0= -.32493792E+02  EK= 0.25045E+01 SP= -.66E+00 SK= 0.47E-03 mag=      0.005
       N       E                     dE             d eps       ncg     rms          rms(c)
DAV:   1    -0.325033426992E+02    0.28413E-01   -0.16810E-02  2552   0.105E+00    0.570E-02
RMM:   2    -0.325046847531E+02   -0.13421E-02   -0.51334E-03  1588   0.286E-01
    647 T=   741. E= -.30681178E+02 F= -.32504685E+02 E0= -.32465892E+02  EK= 0.24917E+01 SP= -.67E+00 SK= 0.12E-02 mag=      0.143
       N       E                     dE             d eps       ncg     rms          rms(c)
DAV:   1    -0.324781080095E+02    0.25235E-01   -0.16093E-02  2392   0.107E+00    0.644E-02
RMM:   2    -0.324795408123E+02   -0.14328E-02   -0.52217E-03  1596   0.307E-01    0.480E-02
RMM:   3    -0.324799980191E+02   -0.45721E-03   -0.12986E-03  1477   0.117E-01
    648 T=   739. E= -.30677134E+02 F= -.32479998E+02 E0= -.32441228E+02  EK= 0.24849E+01 SP= -.68E+00 SK= 0.23E-02 mag=      0.065
       N       E                     dE             d eps       ncg     rms          rms(c)
DAV:   1    -0.324561490633E+02    0.23392E-01   -0.18212E-02  2384   0.101E+00    0.625E-02
RMM:   2    -0.324574731143E+02   -0.13241E-02   -0.36250E-03  1468   0.245E-01
    649 T=   740. E= -.30671188E+02 F= -.32457473E+02 E0= -.32418685E+02  EK= 0.24869E+01 SP= -.70E+00 SK= 0.38E-02 mag=     -0.148
       N       E                     dE             d eps       ncg     rms          rms(c)
DAV:   1    -0.324338812318E+02    0.22268E-01   -0.27834E-02  2616   0.113E+00    0.105E-01
RMM:   2    -0.324362376191E+02   -0.23564E-02   -0.49882E-03  1569   0.262E-01    0.767E-02
RMM:   3    -0.324381211169E+02   -0.18835E-02   -0.25156E-03  1401   0.120E-01    0.475E-02
RMM:   4    -0.324388581806E+02   -0.73706E-03   -0.13943E-03  1389   0.798E-02
    650 T=   743. E= -.30667319E+02 F= -.32438858E+02 E0= -.32400035E+02  EK= 0.24954E+01 SP= -.73E+00 SK= 0.57E-02 mag=     -0.027
       N       E                     dE             d eps       ncg     rms          rms(c)
DAV:   1    -0.324174751598E+02    0.20646E-01   -0.16032E-02  2200   0.980E-01    0.112E-01
RMM:   2    -0.324201882968E+02   -0.27131E-02   -0.60985E-03  1444   0.256E-01    0.823E-02
RMM:   3    -0.324220829177E+02   -0.18946E-02   -0.28578E-03  1400   0.107E-01    0.520E-02
RMM:   4    -0.324229350739E+02   -0.85216E-03   -0.13847E-03  1382   0.759E-02
    651 T=   747. E= -.30665601E+02 F= -.32422935E+02 E0= -.32384148E+02  EK= 0.25090E+01 SP= -.76E+00 SK= 0.77E-02 mag=      0.038
       N       E                     dE             d eps       ncg     rms          rms(c)
DAV:   1    -0.324098205002E+02    0.12262E-01   -0.17594E-02  2616   0.107E+00    0.543E-02
RMM:   2    -0.324106529766E+02   -0.83248E-03   -0.29054E-03  1445   0.224E-01
    652 T=   754. E= -.30661844E+02 F= -.32410653E+02 E0= -.32371861E+02  EK= 0.25326E+01 SP= -.79E+00 SK= 0.99E-02 mag=      0.037
       N       E                     dE             d eps       ncg     rms          rms(c)
DAV:   1    -0.324014868119E+02    0.83337E-02   -0.16751E-02  2688   0.103E+00    0.444E-02
RMM:   2    -0.324023674857E+02   -0.88067E-03   -0.35139E-03  1543   0.246E-01
    653 T=   763. E= -.30658695E+02 F= -.32402367E+02 E0= -.32363567E+02  EK= 0.25635E+01 SP= -.83E+00 SK= 0.12E-01 mag=     -0.012
       N       E                     dE             d eps       ncg     rms          rms(c)
DAV:   1    -0.323969427749E+02    0.45440E-02   -0.92373E-03  2208   0.105E+00    0.369E-02
RMM:   2    -0.323977674934E+02   -0.82472E-03   -0.35445E-03  1552   0.262E-01
    654 T=   774. E= -.30655511E+02 F= -.32397767E+02 E0= -.32358971E+02  EK= 0.26017E+01 SP= -.87E+00 SK= 0.13E-01 mag=     -0.069
       N       E                     dE             d eps       ncg     rms          rms(c)
DAV:   1    -0.323956236563E+02    0.13191E-02   -0.14239E-02  2592   0.107E+00    0.417E-02
RMM:   2    -0.323964839253E+02   -0.86027E-03   -0.40264E-03  1543   0.266E-01
    655 T=   788. E= -.30651208E+02 F= -.32396484E+02 E0= -.32357682E+02  EK= 0.26470E+01 SP= -.92E+00 SK= 0.14E-01 mag=     -0.094
       N       E                     dE             d eps       ncg     rms          rms(c)
DAV:   1    -0.323974676784E+02   -0.18440E-02   -0.10933E-02  2520   0.104E+00    0.442E-02
RMM:   2    -0.323985576910E+02   -0.10900E-02   -0.44102E-03  1552   0.285E-01
    656 T=   803. E= -.30646844E+02 F= -.32398558E+02 E0= -.32359707E+02  EK= 0.26976E+01 SP= -.96E+00 SK= 0.15E-01 mag=     -0.058
       N       E                     dE             d eps       ncg     rms          rms(c)
DAV:   1    -0.324033753091E+02   -0.59076E-02   -0.14418E-02  2600   0.109E+00    0.383E-02
RMM:   2    -0.324042483948E+02   -0.87309E-03   -0.40479E-03  1544   0.275E-01
    657 T=   819. E= -.30642600E+02 F= -.32404248E+02 E0= -.32365320E+02  EK= 0.27522E+01 SP= -.10E+01 SK= 0.14E-01 mag=      0.029
       N       E                     dE             d eps       ncg     rms          rms(c)
DAV:   1    -0.324111046636E+02   -0.77294E-02   -0.13837E-02  2624   0.109E+00    0.402E-02
RMM:   2    -0.324121658097E+02   -0.10611E-02   -0.46254E-03  1576   0.290E-01
    658 T=   836. E= -.30638177E+02 F= -.32412166E+02 E0= -.32373249E+02  EK= 0.28086E+01 SP= -.10E+01 SK= 0.13E-01 mag=      0.114
       N       E                     dE             d eps       ncg     rms          rms(c)
DAV:   1    -0.324207844537E+02   -0.96798E-02   -0.15248E-02  2704   0.112E+00    0.519E-02
RMM:   2    -0.324220745561E+02   -0.12901E-02   -0.48899E-03  1573   0.287E-01
    659 T=   852. E= -.30633802E+02 F= -.32422075E+02 E0= -.32383118E+02  EK= 0.28646E+01 SP= -.11E+01 SK= 0.11E-01 mag=      0.127
       N       E                     dE             d eps       ncg     rms          rms(c)
DAV:   1    -0.324333505166E+02   -0.12566E-01   -0.14393E-02  2608   0.111E+00    0.374E-02
RMM:   2    -0.324344622069E+02   -0.11117E-02   -0.47468E-03  1573   0.301E-01
    660 T=   868. E= -.30630201E+02 F= -.32434462E+02 E0= -.32395342E+02  EK= 0.29185E+01 SP= -.11E+01 SK= 0.79E-02 mag=      0.039
       N       E                     dE             d eps       ncg     rms          rms(c)
DAV:   1    -0.324468941609E+02   -0.13544E-01   -0.16257E-02  2672   0.115E+00    0.361E-02
RMM:   2    -0.324479964134E+02   -0.11023E-02   -0.48487E-03  1553   0.299E-01
    661 T=   883. E= -.30626310E+02 F= -.32447996E+02 E0= -.32408844E+02  EK= 0.29683E+01 SP= -.12E+01 SK= 0.52E-02 mag=     -0.103
       N       E                     dE             d eps       ncg     rms          rms(c)
DAV:   1    -0.324597007594E+02   -0.12807E-01   -0.17322E-02  2816   0.116E+00    0.613E-02
RMM:   2    -0.324613200536E+02   -0.16193E-02   -0.51416E-03  1555   0.298E-01    0.468E-02
RMM:   3    -0.324620520807E+02   -0.73203E-03   -0.18384E-03  1445   0.118E-01
    662 T=   896. E= -.30623366E+02 F= -.32462052E+02 E0= -.32422870E+02  EK= 0.30106E+01 SP= -.12E+01 SK= 0.26E-02 mag=     -0.071
       N       E                     dE             d eps       ncg     rms          rms(c)
DAV:   1    -0.324753896159E+02   -0.14070E-01   -0.17795E-02  2576   0.113E+00    0.484E-02
RMM:   2    -0.324766167289E+02   -0.12271E-02   -0.36171E-03  1500   0.273E-01
    663 T=   907. E= -.30617788E+02 F= -.32476617E+02 E0= -.32437318E+02  EK= 0.30473E+01 SP= -.12E+01 SK= 0.81E-03 mag=      0.090
       N       E                     dE             d eps       ncg     rms          rms(c)
DAV:   1    -0.324883308516E+02   -0.12941E-01   -0.30649E-02  2992   0.125E+00    0.738E-02
RMM:   2    -0.324900836718E+02   -0.17528E-02   -0.47178E-03  1572   0.256E-01    0.549E-02
RMM:   3    -0.324910633126E+02   -0.97964E-03   -0.16409E-03  1406   0.109E-01
    664 T=   915. E= -.30612751E+02 F= -.32491063E+02 E0= -.32451801E+02  EK= 0.30735E+01 SP= -.12E+01 SK= 0.10E-04 mag=      0.080
       N       E                     dE             d eps       ncg     rms          rms(c)
DAV:   1    -0.325041212674E+02   -0.14038E-01   -0.14991E-02  2304   0.110E+00    0.665E-02
RMM:   2    -0.325056865444E+02   -0.15653E-02   -0.44714E-03  1549   0.277E-01    0.454E-02
RMM:   3    -0.325060385552E+02   -0.35201E-03   -0.11890E-03  1299   0.106E-01
    665 T=   918. E= -.30610408E+02 F= -.32506039E+02 E0= -.32466597E+02  EK= 0.30867E+01 SP= -.12E+01 SK= 0.54E-03 mag=     -0.034
       N       E                     dE             d eps       ncg     rms          rms(c)
DAV:   1    -0.325185314147E+02   -0.12845E-01   -0.31495E-02  2816   0.116E+00    0.545E-02
RMM:   2    -0.325197881082E+02   -0.12567E-02   -0.42791E-03  1580   0.281E-01
    666 T=   920. E= -.30604921E+02 F= -.32519788E+02 E0= -.32480402E+02  EK= 0.30906E+01 SP= -.12E+01 SK= 0.25E-02 mag=     -0.164
       N       E                     dE             d eps       ncg     rms          rms(c)
DAV:   1    -0.325318423931E+02   -0.13311E-01   -0.24471E-02  2880   0.121E+00    0.580E-02
RMM:   2    -0.325331996249E+02   -0.13572E-02   -0.45484E-03  1577   0.266E-01    0.409E-02
RMM:   3    -0.325336773342E+02   -0.47771E-03   -0.12826E-03  1457   0.109E-01
    667 T=   917. E= -.30602327E+02 F= -.32533677E+02 E0= -.32494257E+02  EK= 0.30803E+01 SP= -.12E+01 SK= 0.60E-02 mag=     -0.082
       N       E                     dE             d eps       ncg     rms          rms(c)
DAV:   1    -0.325457949550E+02   -0.12595E-01   -0.16875E-02  2408   0.114E+00    0.622E-02
RMM:   2    -0.325469085019E+02   -0.11135E-02   -0.32953E-03  1526   0.267E-01
    668 T=   911. E= -.30596862E+02 F= -.32546909E+02 E0= -.32507437E+02  EK= 0.30613E+01 SP= -.11E+01 SK= 0.11E-01 mag=      0.127
       N       E                     dE             d eps       ncg     rms          rms(c)
DAV:   1    -0.325569459389E+02   -0.11151E-01   -0.28064E-02  3040   0.125E+00    0.753E-02
RMM:   2    -0.325587097342E+02   -0.17638E-02   -0.45290E-03  1547   0.247E-01    0.583E-02
RMM:   3    -0.325595154674E+02   -0.80573E-03   -0.13664E-03  1415   0.101E-01
    669 T=   902. E= -.30590740E+02 F= -.32559515E+02 E0= -.32520222E+02  EK= 0.30323E+01 SP= -.11E+01 SK= 0.16E-01 mag=      0.090
       N       E                     dE             d eps       ncg     rms          rms(c)
DAV:   1    -0.325716727985E+02   -0.12963E-01   -0.14898E-02  2512   0.107E+00    0.675E-02
RMM:   2    -0.325729875471E+02   -0.13147E-02   -0.36274E-03  1532   0.266E-01
    670 T=   891. E= -.30585903E+02 F= -.32572988E+02 E0= -.32533512E+02  EK= 0.29939E+01 SP= -.10E+01 SK= 0.22E-01 mag=     -0.118
       N       E                     dE             d eps       ncg     rms          rms(c)
DAV:   1    -0.325826967242E+02   -0.11024E-01   -0.34694E-02  3064   0.124E+00    0.892E-02
RMM:   2    -0.325845962283E+02   -0.18995E-02   -0.48530E-03  1565   0.263E-01    0.640E-02
RMM:   3    -0.325858452191E+02   -0.12490E-02   -0.17931E-03  1469   0.113E-01
    671 T=   877. E= -.30580505E+02 F= -.32585845E+02 E0= -.32546494E+02  EK= 0.29479E+01 SP= -.97E+00 SK= 0.28E-01 mag=     -0.103
       N       E                     dE             d eps       ncg     rms          rms(c)
DAV:   1    -0.325983762126E+02   -0.13780E-01   -0.11415E-02  2416   0.106E+00    0.796E-02
RMM:   2    -0.325995485744E+02   -0.11724E-02   -0.35699E-03  1503   0.272E-01
    672 T=   862. E= -.30575402E+02 F= -.32599549E+02 E0= -.32560035E+02  EK= 0.28966E+01 SP= -.91E+00 SK= 0.34E-01 mag=      0.069
       N       E                     dE             d eps       ncg     rms          rms(c)
DAV:   1    -0.326109571954E+02   -0.12581E-01   -0.30626E-02  3104   0.123E+00    0.836E-02
RMM:   2    -0.326125869133E+02   -0.16297E-02   -0.40474E-03  1545   0.234E-01    0.590E-02
RMM:   3    -0.326133058506E+02   -0.71894E-03   -0.11726E-03  1388   0.955E-02
    673 T=   846. E= -.30569705E+02 F= -.32613306E+02 E0= -.32573892E+02  EK= 0.28417E+01 SP= -.84E+00 SK= 0.39E-01 mag=      0.096
       N       E                     dE             d eps       ncg     rms          rms(c)
DAV:   1    -0.326275506049E+02   -0.14964E-01   -0.14201E-02  2424   0.101E+00    0.860E-02
RMM:   2    -0.326287449404E+02   -0.11943E-02   -0.37024E-03  1507   0.273E-01
    674 T=   828. E= -.30565699E+02 F= -.32628745E+02 E0= -.32589262E+02  EK= 0.27843E+01 SP= -.76E+00 SK= 0.42E-01 mag=      0.002
       N       E                     dE             d eps       ncg     rms          rms(c)
DAV:   1    -0.326433576456E+02   -0.15807E-01   -0.29547E-02  3032   0.117E+00    0.769E-02
RMM:   2    -0.326448889376E+02   -0.15313E-02   -0.44121E-03  1541   0.245E-01    0.507E-02
RMM:   3    -0.326455584214E+02   -0.66948E-03   -0.14437E-03  1464   0.104E-01
    675 T=   812. E= -.30561697E+02 F= -.32645558E+02 E0= -.32606010E+02  EK= 0.27274E+01 SP= -.69E+00 SK= 0.44E-01 mag=     -0.040
       N       E                     dE             d eps       ncg     rms          rms(c)
DAV:   1    -0.326622775580E+02   -0.17389E-01   -0.12584E-02  2304   0.101E+00    0.894E-02
RMM:   2    -0.326635930799E+02   -0.13155E-02   -0.43391E-03  1489   0.276E-01
    676 T=   795. E= -.30556940E+02 F= -.32663593E+02 E0= -.32624014E+02  EK= 0.26731E+01 SP= -.61E+00 SK= 0.44E-01 mag=     -0.038
       N       E                     dE             d eps       ncg     rms          rms(c)
DAV:   1    -0.326819253000E+02   -0.19648E-01   -0.28230E-02  3016   0.115E+00    0.825E-02
RMM:   2    -0.326834556039E+02   -0.15303E-02   -0.39995E-03  1535   0.227E-01    0.550E-02
RMM:   3    -0.326841454791E+02   -0.68988E-03   -0.13760E-03  1399   0.944E-02
    677 T=   780. E= -.30552769E+02 F= -.32684145E+02 E0= -.32644494E+02  EK= 0.26226E+01 SP= -.53E+00 SK= 0.43E-01 mag=     -0.024
       N       E                     dE             d eps       ncg     rms          rms(c)
DAV:   1    -0.327048809537E+02   -0.21425E-01   -0.13767E-02  2304   0.978E-01    0.102E-01
RMM:   2    -0.327063222645E+02   -0.14413E-02   -0.45069E-03  1521   0.277E-01    0.634E-02
RMM:   3    -0.327067090136E+02   -0.38675E-03   -0.11880E-03  1352   0.111E-01
    678 T=   766. E= -.30550525E+02 F= -.32706709E+02 E0= -.32666975E+02  EK= 0.25751E+01 SP= -.46E+00 SK= 0.41E-01 mag=      0.027
       N       E                     dE             d eps       ncg     rms          rms(c)
DAV:   1    -0.327303742349E+02   -0.24052E-01   -0.25881E-02  2728   0.102E+00    0.547E-02
RMM:   2    -0.327312467487E+02   -0.87251E-03   -0.34028E-03  1537   0.249E-01
    679 T=   755. E= -.30545806E+02 F= -.32731247E+02 E0= -.32691408E+02  EK= 0.25359E+01 SP= -.39E+00 SK= 0.37E-01 mag=      0.072
       N       E                     dE             d eps       ncg     rms          rms(c)
DAV:   1    -0.327574635397E+02   -0.27089E-01   -0.18638E-02  2608   0.104E+00    0.483E-02
RMM:   2    -0.327583192844E+02   -0.85574E-03   -0.38375E-03  1538   0.254E-01
    680 T=   745. E= -.30541972E+02 F= -.32758319E+02 E0= -.32718324E+02  EK= 0.25029E+01 SP= -.32E+00 SK= 0.33E-01 mag=      0.066
       N       E                     dE             d eps       ncg     rms          rms(c)
DAV:   1    -0.327871857470E+02   -0.29722E-01   -0.11118E-02  2248   0.986E-01    0.275E-02
RMM:   2    -0.327878977326E+02   -0.71199E-03   -0.36407E-03  1518   0.278E-01
    681 T=   737. E= -.30537281E+02 F= -.32787898E+02 E0= -.32747713E+02  EK= 0.24782E+01 SP= -.26E+00 SK= 0.28E-01 mag=      0.005
       N       E                     dE             d eps       ncg     rms          rms(c)
DAV:   1    -0.328184023425E+02   -0.31217E-01   -0.13507E-02  2616   0.108E+00    0.448E-02
RMM:   2    -0.328192840846E+02   -0.88174E-03   -0.40330E-03  1528   0.262E-01
    682 T=   733. E= -.30531139E+02 F= -.32819284E+02 E0= -.32778938E+02  EK= 0.24621E+01 SP= -.20E+00 SK= 0.23E-01 mag=     -0.070
       N       E                     dE             d eps       ncg     rms          rms(c)
DAV:   1    -0.328522939408E+02   -0.33892E-01   -0.91405E-03  2320   0.961E-01    0.436E-02
RMM:   2    -0.328531587560E+02   -0.86482E-03   -0.35289E-03  1522   0.276E-01
    683 T=   730. E= -.30525589E+02 F= -.32853159E+02 E0= -.32812623E+02  EK= 0.24532E+01 SP= -.14E+00 SK= 0.19E-01 mag=     -0.098
       N       E                     dE             d eps       ncg     rms          rms(c)
DAV:   1    -0.328885278601E+02   -0.36234E-01   -0.12095E-02  2512   0.106E+00    0.296E-02
RMM:   2    -0.328891978884E+02   -0.67003E-03   -0.35784E-03  1502   0.267E-01
    684 T=   730. E= -.30520126E+02 F= -.32889198E+02 E0= -.32848321E+02  EK= 0.24518E+01 SP= -.97E-01 SK= 0.15E-01 mag=     -0.049
       N       E                     dE             d eps       ncg     rms          rms(c)
DAV:   1    -0.329252390349E+02   -0.36711E-01   -0.95705E-03  2304   0.100E+00    0.393E-02
RMM:   2    -0.329260530545E+02   -0.81402E-03   -0.38936E-03  1507   0.284E-01
    685 T=   731. E= -.30513836E+02 F= -.32926053E+02 E0= -.32884900E+02  EK= 0.24574E+01 SP= -.56E-01 SK= 0.11E-01 mag=      0.051
       N       E                     dE             d eps       ncg     rms          rms(c)
DAV:   1    -0.329627533201E+02   -0.37514E-01   -0.11736E-02  2552   0.107E+00    0.494E-02
RMM:   2    -0.329637504251E+02   -0.99711E-03   -0.39795E-03  1524   0.273E-01
    686 T=   735. E= -.30507251E+02 F= -.32963750E+02 E0= -.32922349E+02  EK= 0.24691E+01 SP= -.21E-01 SK= 0.81E-02 mag=      0.116
       N       E                     dE             d eps       ncg     rms          rms(c)
DAV:   1    -0.330021401130E+02   -0.39387E-01   -0.96254E-03  2328   0.102E+00    0.366E-02
RMM:   2    -0.330028646249E+02   -0.72451E-03   -0.39262E-03  1530   0.301E-01
    687 T=   740. E= -.30501378E+02 F= -.33002865E+02 E0= -.32961028E+02  EK= 0.24864E+01 SP= 0.93E-02 SK= 0.57E-02 mag=      0.098
       N       E                     dE             d eps       ncg     rms          rms(c)
DAV:   1    -0.330411555899E+02   -0.39015E-01   -0.12900E-02  2464   0.107E+00    0.399E-02
RMM:   2    -0.330419936559E+02   -0.83807E-03   -0.43957E-03  1524   0.286E-01
    688 T=   746. E= -.30495443E+02 F= -.33041994E+02 E0= -.32999704E+02  EK= 0.25082E+01 SP= 0.34E-01 SK= 0.39E-02 mag=     -0.005
       N       E                     dE             d eps       ncg     rms          rms(c)
DAV:   1    -0.330794934551E+02   -0.38338E-01   -0.10010E-02  2320   0.104E+00    0.465E-02
RMM:   2    -0.330804552888E+02   -0.96183E-03   -0.42537E-03  1525   0.294E-01
    689 T=   754. E= -.30489243E+02 F= -.33080455E+02 E0= -.33037852E+02  EK= 0.25336E+01 SP= 0.55E-01 SK= 0.26E-02 mag=     -0.128
       N       E                     dE             d eps       ncg     rms          rms(c)
DAV:   1    -0.331172046278E+02   -0.37711E-01   -0.12347E-02  2424   0.109E+00    0.506E-02
RMM:   2    -0.331182017966E+02   -0.99717E-03   -0.45579E-03  1543   0.305E-01
    690 T=   762. E= -.30482384E+02 F= -.33118202E+02 E0= -.33075181E+02  EK= 0.25623E+01 SP= 0.72E-01 SK= 0.17E-02 mag=     -0.164
       N       E                     dE             d eps       ncg     rms          rms(c)
DAV:   1    -0.331542144549E+02   -0.37010E-01   -0.11393E-02  2416   0.105E+00    0.374E-02
RMM:   2    -0.331550618504E+02   -0.84740E-03   -0.47312E-03  1529   0.317E-01
    691 T=   771. E= -.30476271E+02 F= -.33155062E+02 E0= -.33111417E+02  EK= 0.25922E+01 SP= 0.85E-01 SK= 0.12E-02 mag=     -0.074
       N       E                     dE             d eps       ncg     rms          rms(c)
DAV:   1    -0.331883460250E+02   -0.34132E-01   -0.13786E-02  2608   0.109E+00    0.495E-02
RMM:   2    -0.331893768655E+02   -0.10308E-02   -0.44759E-03  1519   0.294E-01
    692 T=   780. E= -.30469810E+02 F= -.33189377E+02 E0= -.33145277E+02  EK= 0.26220E+01 SP= 0.97E-01 SK= 0.83E-03 mag=      0.087
       N       E                     dE             d eps       ncg     rms          rms(c)
DAV:   1    -0.332203448161E+02   -0.31999E-01   -0.12344E-02  2472   0.108E+00    0.538E-02
RMM:   2    -0.332214168763E+02   -0.10721E-02   -0.45811E-03  1529   0.310E-01
    693 T=   789. E= -.30463000E+02 F= -.33221417E+02 E0= -.33176988E+02  EK= 0.26514E+01 SP= 0.11E+00 SK= 0.64E-03 mag=      0.211
       N       E                     dE             d eps       ncg     rms          rms(c)
DAV:   1    -0.332496945545E+02   -0.29350E-01   -0.13181E-02  2528   0.110E+00    0.524E-02
RMM:   2    -0.332508637175E+02   -0.11692E-02   -0.54319E-03  1577   0.313E-01
    694 T=   797. E= -.30456545E+02 F= -.33250864E+02 E0= -.33205868E+02  EK= 0.26786E+01 SP= 0.12E+00 SK= 0.56E-03 mag=      0.180
       N       E                     dE             d eps       ncg     rms          rms(c)
DAV:   1    -0.332761239633E+02   -0.26429E-01   -0.12174E-02  2496   0.109E+00    0.399E-02
RMM:   2    -0.332770463977E+02   -0.92243E-03   -0.46000E-03  1532   0.305E-01
    695 T=   804. E= -.30450495E+02 F= -.33277046E+02 E0= -.33231400E+02  EK= 0.27024E+01 SP= 0.12E+00 SK= 0.56E-03 mag=     -0.007
       N       E                     dE             d eps       ncg     rms          rms(c)
DAV:   1    -0.332974166493E+02   -0.21293E-01   -0.13706E-02  2512   0.113E+00    0.592E-02
RMM:   2    -0.332986378465E+02   -0.12212E-02   -0.49266E-03  1522   0.309E-01
    696 T=   810. E= -.30442873E+02 F= -.33298638E+02 E0= -.33252810E+02  EK= 0.27227E+01 SP= 0.13E+00 SK= 0.64E-03 mag=     -0.214
       N       E                     dE             d eps       ncg     rms          rms(c)
DAV:   1    -0.333152092367E+02   -0.17793E-01   -0.13430E-02  2384   0.111E+00    0.646E-02
RMM:   2    -0.333165633611E+02   -0.13541E-02   -0.52800E-03  1553   0.322E-01    0.503E-02
RMM:   3    -0.333171267498E+02   -0.56339E-03   -0.15374E-03  1489   0.128E-01
    697 T=   814. E= -.30437214E+02 F= -.33317127E+02 E0= -.33270883E+02  EK= 0.27370E+01 SP= 0.14E+00 SK= 0.79E-03 mag=     -0.138
       N       E                     dE             d eps       ncg     rms          rms(c)
DAV:   1    -0.333300166381E+02   -0.13453E-01   -0.14331E-02  2448   0.105E+00    0.525E-02
RMM:   2    -0.333309920748E+02   -0.97544E-03   -0.34763E-03  1456   0.254E-01
    698 T=   817. E= -.30430087E+02 F= -.33330992E+02 E0= -.33284179E+02  EK= 0.27470E+01 SP= 0.15E+00 SK= 0.10E-02 mag=      0.145
       N       E                     dE             d eps       ncg     rms          rms(c)
DAV:   1    -0.333363589372E+02   -0.63423E-02   -0.20699E-02  2720   0.117E+00    0.945E-02
RMM:   2    -0.333382962022E+02   -0.19373E-02   -0.47184E-03  1535   0.257E-01    0.725E-02
RMM:   3    -0.333397047288E+02   -0.14085E-02   -0.19393E-03  1408   0.117E-01    0.513E-02
RMM:   4    -0.333405796791E+02   -0.87495E-03   -0.13490E-03  1387   0.840E-02
    699 T=   818. E= -.30424819E+02 F= -.33340580E+02 E0= -.33293443E+02  EK= 0.27493E+01 SP= 0.17E+00 SK= 0.13E-02 mag=      0.048
       N       E                     dE             d eps       ncg     rms          rms(c)
DAV:   1    -0.333416165648E+02   -0.19118E-02   -0.13774E-02  1864   0.991E-01    0.969E-02
RMM:   2    -0.333435206849E+02   -0.19041E-02   -0.42461E-03  1470   0.239E-01    0.716E-02
RMM:   3    -0.333447956381E+02   -0.12750E-02   -0.22560E-03  1400   0.104E-01
    700 T=   816. E= -.30421282E+02 F= -.33344796E+02 E0= -.33297583E+02  EK= 0.27429E+01 SP= 0.18E+00 SK= 0.16E-02 mag=     -0.120
       N       E                     dE             d eps       ncg     rms          rms(c)
DAV:   1    -0.333439561693E+02   -0.43548E-03   -0.25756E-02  2656   0.108E+00    0.651E-02
RMM:   2    -0.333449507081E+02   -0.99454E-03   -0.37847E-03  1469   0.256E-01
    701 T=   813. E= -.30416264E+02 F= -.33344951E+02 E0= -.33297694E+02  EK= 0.27327E+01 SP= 0.19E+00 SK= 0.19E-02 mag=     -0.222
       N       E                     dE             d eps       ncg     rms          rms(c)
DAV:   1    -0.333396573680E+02    0.42988E-02   -0.21360E-02  2584   0.112E+00    0.553E-02
RMM:   2    -0.333406582158E+02   -0.10008E-02   -0.41862E-03  1528   0.263E-01
    702 T=   808. E= -.30412044E+02 F= -.33340658E+02 E0= -.33293190E+02  EK= 0.27162E+01 SP= 0.21E+00 SK= 0.21E-02 mag=     -0.174
       N       E                     dE             d eps       ncg     rms          rms(c)
DAV:   1    -0.333313135903E+02    0.83438E-02   -0.11358E-02  2216   0.103E+00    0.464E-02
RMM:   2    -0.333321958958E+02   -0.88231E-03   -0.41750E-03  1536   0.284E-01
    703 T=   802. E= -.30406449E+02 F= -.33332196E+02 E0= -.33284534E+02  EK= 0.26963E+01 SP= 0.23E+00 SK= 0.22E-02 mag=      0.012
       N       E                     dE             d eps       ncg     rms          rms(c)
DAV:   1    -0.333180263894E+02    0.13287E-01   -0.15766E-02  2544   0.116E+00    0.535E-02
RMM:   2    -0.333190374815E+02   -0.10111E-02   -0.44591E-03  1519   0.277E-01
    704 T=   796. E= -.30398731E+02 F= -.33319037E+02 E0= -.33271770E+02  EK= 0.26738E+01 SP= 0.24E+00 SK= 0.22E-02 mag=      0.233
       N       E                     dE             d eps       ncg     rms          rms(c)
DAV:   1    -0.333004606541E+02    0.17566E-01   -0.12708E-02  2456   0.102E+00    0.709E-02
RMM:   2    -0.333018947964E+02   -0.14341E-02   -0.43549E-03  1533   0.294E-01    0.556E-02
RMM:   3    -0.333027929954E+02   -0.89820E-03   -0.18083E-03  1427   0.121E-01
    705 T=   787. E= -.30393279E+02 F= -.33302793E+02 E0= -.33255753E+02  EK= 0.26465E+01 SP= 0.26E+00 SK= 0.20E-02 mag=      0.109
       N       E                     dE             d eps       ncg     rms          rms(c)
DAV:   1    -0.332816314682E+02    0.20263E-01   -0.15640E-02  2536   0.103E+00    0.606E-02
RMM:   2    -0.332828139829E+02   -0.11825E-02   -0.36682E-03  1555   0.264E-01
    706 T=   779. E= -.30385827E+02 F= -.33282814E+02 E0= -.33236021E+02  EK= 0.26186E+01 SP= 0.28E+00 SK= 0.17E-02 mag=     -0.229
       N       E                     dE             d eps       ncg     rms          rms(c)
DAV:   1    -0.332550150790E+02    0.26616E-01   -0.26742E-02  2816   0.111E+00    0.106E-01
RMM:   2    -0.332575008797E+02   -0.24858E-02   -0.51940E-03  1537   0.256E-01    0.855E-02
RMM:   3    -0.332594068713E+02   -0.19060E-02   -0.21365E-03  1447   0.115E-01    0.592E-02
RMM:   4    -0.332606743433E+02   -0.12675E-02   -0.19292E-03  1404   0.927E-02
    707 T=   770. E= -.30381266E+02 F= -.33260674E+02 E0= -.33213979E+02  EK= 0.25875E+01 SP= 0.29E+00 SK= 0.12E-02 mag=     -0.028
       N       E                     dE             d eps       ncg     rms          rms(c)
DAV:   1    -0.332301561866E+02    0.29251E-01   -0.13289E-02  2368   0.973E-01    0.112E-01
RMM:   2    -0.332325384715E+02   -0.23823E-02   -0.41799E-03  1446   0.223E-01    0.874E-02
RMM:   3    -0.332342717528E+02   -0.17333E-02   -0.19257E-03  1399   0.929E-02    0.576E-02
RMM:   4    -0.332352337151E+02   -0.96196E-03   -0.97777E-04  1363   0.695E-02
    708 T=   760. E= -.30379387E+02 F= -.33235234E+02 E0= -.33189052E+02  EK= 0.25530E+01 SP= 0.30E+00 SK= 0.72E-03 mag=      0.078
       N       E                     dE             d eps       ncg     rms          rms(c)
DAV:   1    -0.332072460338E+02    0.27026E-01   -0.22617E-02  2568   0.107E+00    0.565E-02
RMM:   2    -0.332080174867E+02   -0.77145E-03   -0.34224E-03  1503   0.242E-01
    709 T=   751. E= -.30374990E+02 F= -.33208017E+02 E0= -.33162100E+02  EK= 0.25225E+01 SP= 0.31E+00 SK= 0.28E-03 mag=      0.060
       N       E                     dE             d eps       ncg     rms          rms(c)
DAV:   1    -0.331783916767E+02    0.28854E-01   -0.16885E-02  2784   0.102E+00    0.412E-02
RMM:   2    -0.331791868340E+02   -0.79516E-03   -0.36787E-03  1537   0.248E-01
    710 T=   742. E= -.30370793E+02 F= -.33179187E+02 E0= -.33133745E+02  EK= 0.24941E+01 SP= 0.31E+00 SK= 0.19E-04 mag=     -0.055
       N       E                     dE             d eps       ncg     rms          rms(c)
DAV:   1    -0.331480468401E+02    0.30345E-01   -0.87497E-03  2096   0.102E+00    0.440E-02
RMM:   2    -0.331489137151E+02   -0.86688E-03   -0.41504E-03  1548   0.280E-01
    711 T=   734. E= -.30367129E+02 F= -.33148914E+02 E0= -.33104123E+02  EK= 0.24682E+01 SP= 0.31E+00 SK= 0.93E-04 mag=     -0.162
       N       E                     dE             d eps       ncg     rms          rms(c)
DAV:   1    -0.331171220908E+02    0.30925E-01   -0.14636E-02  2704   0.106E+00    0.520E-02
RMM:   2    -0.331181137428E+02   -0.99165E-03   -0.43245E-03  1531   0.276E-01
    712 T=   728. E= -.30361982E+02 F= -.33118114E+02 E0= -.33073893E+02  EK= 0.24482E+01 SP= 0.31E+00 SK= 0.64E-03 mag=     -0.178
       N       E                     dE             d eps       ncg     rms          rms(c)
DAV:   1    -0.330864244259E+02    0.30698E-01   -0.10693E-02  2384   0.100E+00    0.395E-02
RMM:   2    -0.330872989296E+02   -0.87450E-03   -0.42136E-03  1539   0.291E-01
    713 T=   724. E= -.30356582E+02 F= -.33087299E+02 E0= -.33043478E+02  EK= 0.24339E+01 SP= 0.30E+00 SK= 0.18E-02 mag=     -0.064
       N       E                     dE             d eps       ncg     rms          rms(c)
DAV:   1    -0.330556426658E+02    0.30782E-01   -0.11046E-02  2360   0.103E+00    0.382E-02
RMM:   2    -0.330564008855E+02   -0.75822E-03   -0.39543E-03  1543   0.278E-01
    714 T=   722. E= -.30350618E+02 F= -.33056401E+02 E0= -.33013189E+02  EK= 0.24256E+01 SP= 0.28E+00 SK= 0.35E-02 mag=      0.121
       N       E                     dE             d eps       ncg     rms          rms(c)
DAV:   1    -0.330242311336E+02    0.31412E-01   -0.12832E-02  2544   0.102E+00    0.608E-02
RMM:   2    -0.330254927980E+02   -0.12617E-02   -0.44178E-03  1532   0.283E-01
    715 T=   721. E= -.30343840E+02 F= -.33025493E+02 E0= -.32983089E+02  EK= 0.24240E+01 SP= 0.25E+00 SK= 0.60E-02 mag=      0.205
       N       E                     dE             d eps       ncg     rms          rms(c)
DAV:   1    -0.329961477563E+02    0.28083E-01   -0.14505E-02  2728   0.105E+00    0.503E-02
RMM:   2    -0.329970303512E+02   -0.88259E-03   -0.43927E-03  1558   0.286E-01
    716 T=   723. E= -.30338778E+02 F= -.32997030E+02 E0= -.32954979E+02  EK= 0.24290E+01 SP= 0.22E+00 SK= 0.91E-02 mag=      0.123
       N       E                     dE             d eps       ncg     rms          rms(c)
DAV:   1    -0.329683995061E+02    0.27748E-01   -0.13724E-02  2424   0.986E-01    0.375E-02
RMM:   2    -0.329691951155E+02   -0.79561E-03   -0.43558E-03  1545   0.291E-01
    717 T=   726. E= -.30333729E+02 F= -.32969195E+02 E0= -.32927556E+02  EK= 0.24405E+01 SP= 0.18E+00 SK= 0.13E-01 mag=     -0.081
       N       E                     dE             d eps       ncg     rms          rms(c)
DAV:   1    -0.329404331827E+02    0.27966E-01   -0.10462E-02  2456   0.102E+00    0.666E-02
RMM:   2    -0.329418332165E+02   -0.14000E-02   -0.47175E-03  1534   0.279E-01    0.508E-02
RMM:   3    -0.329424702380E+02   -0.63702E-03   -0.16373E-03  1451   0.114E-01
    718 T=   731. E= -.30329281E+02 F= -.32942470E+02 E0= -.32901512E+02  EK= 0.24583E+01 SP= 0.14E+00 SK= 0.17E-01 mag=     -0.123
       N       E                     dE             d eps       ncg     rms          rms(c)
DAV:   1    -0.329181712954E+02    0.23662E-01   -0.10822E-02  2464   0.988E-01    0.435E-02
RMM:   2    -0.329187466412E+02   -0.57535E-03   -0.22643E-03  1401   0.235E-01
    719 T=   740. E= -.30324205E+02 F= -.32918747E+02 E0= -.32878157E+02  EK= 0.24854E+01 SP= 0.89E-01 SK= 0.21E-01 mag=     -0.003
       N       E                     dE             d eps       ncg     rms          rms(c)
DAV:   1    -0.328952074358E+02    0.22964E-01   -0.16154E-02  2896   0.110E+00    0.555E-02
RMM:   2    -0.328961912827E+02   -0.98385E-03   -0.40099E-03  1557   0.225E-01
    720 T=   750. E= -.30318700E+02 F= -.32896191E+02 E0= -.32856093E+02  EK= 0.25193E+01 SP= 0.34E-01 SK= 0.24E-01 mag=      0.136
       N       E                     dE             d eps       ncg     rms          rms(c)
DAV:   1    -0.328751933646E+02    0.20014E-01   -0.91064E-03  2112   0.954E-01    0.558E-02
RMM:   2    -0.328762025583E+02   -0.10092E-02   -0.42449E-03  1541   0.280E-01
    721 T=   761. E= -.30315400E+02 F= -.32876203E+02 E0= -.32836565E+02  EK= 0.25582E+01 SP= -.25E-01 SK= 0.28E-01 mag=      0.168
       N       E                     dE             d eps       ncg     rms          rms(c)
DAV:   1    -0.328586031993E+02    0.16590E-01   -0.17857E-02  2856   0.117E+00    0.408E-02
RMM:   2    -0.328594671031E+02   -0.86390E-03   -0.39320E-03  1538   0.264E-01
    722 T=   775. E= -.30312412E+02 F= -.32859467E+02 E0= -.32820066E+02  EK= 0.26041E+01 SP= -.87E-01 SK= 0.30E-01 mag=      0.062
       N       E                     dE             d eps       ncg     rms          rms(c)
DAV:   1    -0.328442787893E+02    0.14324E-01   -0.10070E-02  2384   0.983E-01    0.399E-02
RMM:   2    -0.328452831524E+02   -0.10044E-02   -0.46607E-03  1526   0.302E-01
    723 T=   790. E= -.30308512E+02 F= -.32845283E+02 E0= -.32806193E+02  EK= 0.26566E+01 SP= -.15E+00 SK= 0.31E-01 mag=     -0.105
       N       E                     dE             d eps       ncg     rms          rms(c)
DAV:   1    -0.328322274841E+02    0.12051E-01   -0.15468E-02  2784   0.113E+00    0.627E-02
RMM:   2    -0.328334805542E+02   -0.12531E-02   -0.42886E-03  1525   0.276E-01
    724 T=   808. E= -.30303757E+02 F= -.32833481E+02 E0= -.32794858E+02  EK= 0.27144E+01 SP= -.22E+00 SK= 0.32E-01 mag=     -0.187
       N       E                     dE             d eps       ncg     rms          rms(c)
DAV:   1    -0.328242875878E+02    0.79399E-02   -0.12157E-02  2528   0.107E+00    0.476E-02
RMM:   2    -0.328253793391E+02   -0.10918E-02   -0.44759E-03  1558   0.291E-01
    725 T=   826. E= -.30300490E+02 F= -.32825379E+02 E0= -.32786971E+02  EK= 0.27753E+01 SP= -.28E+00 SK= 0.30E-01 mag=     -0.115
       N       E                     dE             d eps       ncg     rms          rms(c)
DAV:   1    -0.328191154227E+02    0.51722E-02   -0.17054E-02  2728   0.113E+00    0.415E-02
RMM:   2    -0.328201671380E+02   -0.10517E-02   -0.44934E-03  1551   0.288E-01
    726 T=   845. E= -.30297039E+02 F= -.32820167E+02 E0= -.32781813E+02  EK= 0.28384E+01 SP= -.34E+00 SK= 0.27E-01 mag=      0.059
       N       E                     dE             d eps       ncg     rms          rms(c)
DAV:   1    -0.328157292345E+02    0.33862E-02   -0.14032E-02  2656   0.110E+00    0.641E-02
RMM:   2    -0.328171897468E+02   -0.14605E-02   -0.53095E-03  1601   0.299E-01    0.460E-02
RMM:   3    -0.328176660645E+02   -0.47632E-03   -0.14645E-03  1449   0.117E-01
    727 T=   863. E= -.30294248E+02 F= -.32817666E+02 E0= -.32779587E+02  EK= 0.29012E+01 SP= -.40E+00 SK= 0.24E-01 mag=      0.066
       N       E                     dE             d eps       ncg     rms          rms(c)
DAV:   1    -0.328170741234E+02    0.11562E-03   -0.20542E-02  2640   0.113E+00    0.517E-02
RMM:   2    -0.328182360529E+02   -0.11619E-02   -0.34128E-03  1523   0.264E-01
    728 T=   882. E= -.30288978E+02 F= -.32818236E+02 E0= -.32780230E+02  EK= 0.29651E+01 SP= -.45E+00 SK= 0.19E-01 mag=     -0.054
       N       E                     dE             d eps       ncg     rms          rms(c)
DAV:   1    -0.328193920910E+02   -0.23180E-02   -0.28942E-02  3048   0.122E+00    0.695E-02
RMM:   2    -0.328208989741E+02   -0.15069E-02   -0.42991E-03  1553   0.252E-01    0.486E-02
RMM:   3    -0.328215223381E+02   -0.62336E-03   -0.12524E-03  1458   0.102E-01
    729 T=   900. E= -.30284916E+02 F= -.32821522E+02 E0= -.32783617E+02  EK= 0.30241E+01 SP= -.50E+00 SK= 0.14E-01 mag=     -0.050
       N       E                     dE             d eps       ncg     rms          rms(c)
DAV:   1    -0.328256974689E+02   -0.47985E-02   -0.15436E-02  2152   0.107E+00    0.616E-02
RMM:   2    -0.328270520650E+02   -0.13546E-02   -0.31971E-03  1524   0.260E-01    0.425E-02
RMM:   3    -0.328273647564E+02   -0.31269E-03   -0.87401E-04  1256   0.986E-02
    730 T=   915. E= -.30283152E+02 F= -.32827365E+02 E0= -.32789513E+02  EK= 0.30750E+01 SP= -.54E+00 SK= 0.84E-02 mag=      0.004
       N       E                     dE             d eps       ncg     rms          rms(c)
DAV:   1    -0.328344536305E+02   -0.74016E-02   -0.27650E-02  2832   0.116E+00    0.418E-02
RMM:   2    -0.328354295439E+02   -0.97591E-03   -0.37040E-03  1550   0.264E-01
    731 T=   928. E= -.30279264E+02 F= -.32835430E+02 E0= -.32797593E+02  EK= 0.31199E+01 SP= -.57E+00 SK= 0.41E-02 mag=      0.061
       N       E                     dE             d eps       ncg     rms          rms(c)
DAV:   1    -0.328447537379E+02   -0.10300E-01   -0.20102E-02  3024   0.121E+00    0.356E-02
RMM:   2    -0.328457469704E+02   -0.99323E-03   -0.38571E-03  1569   0.249E-01
    732 T=   938. E= -.30278050E+02 F= -.32845747E+02 E0= -.32807954E+02  EK= 0.31524E+01 SP= -.59E+00 SK= 0.11E-02 mag=      0.069
       N       E                     dE             d eps       ncg     rms          rms(c)
DAV:   1    -0.328567452106E+02   -0.11991E-01   -0.15306E-02  2464   0.114E+00    0.317E-02
RMM:   2    -0.328578055073E+02   -0.10603E-02   -0.41906E-03  1585   0.297E-01
    733 T=   945. E= -.30275898E+02 F= -.32857806E+02 E0= -.32820001E+02  EK= 0.31743E+01 SP= -.59E+00 SK= 0.26E-05 mag=      0.023
       N       E                     dE             d eps       ncg     rms          rms(c)
DAV:   1    -0.328701484117E+02   -0.13403E-01   -0.23170E-02  2744   0.125E+00    0.379E-02
RMM:   2    -0.328713507019E+02   -0.12023E-02   -0.45156E-03  1561   0.288E-01
    734 T=   948. E= -.30272296E+02 F= -.32871351E+02 E0= -.32833510E+02  EK= 0.31851E+01 SP= -.59E+00 SK= 0.10E-02 mag=     -0.044
       N       E                     dE             d eps       ncg     rms          rms(c)
DAV:   1    -0.328851581945E+02   -0.15010E-01   -0.14532E-02  2528   0.115E+00    0.340E-02
RMM:   2    -0.328862524754E+02   -0.10943E-02   -0.36946E-03  1547   0.280E-01
    735 T=   947. E= -.30269185E+02 F= -.32886252E+02 E0= -.32848365E+02  EK= 0.31822E+01 SP= -.57E+00 SK= 0.43E-02 mag=     -0.077
       N       E                     dE             d eps       ncg     rms          rms(c)
DAV:   1    -0.329014073961E+02   -0.16249E-01   -0.21778E-02  2864   0.121E+00    0.323E-02
RMM:   2    -0.329024600563E+02   -0.10527E-02   -0.38730E-03  1568   0.274E-01
    736 T=   942. E= -.30265501E+02 F= -.32902460E+02 E0= -.32864514E+02  EK= 0.31669E+01 SP= -.54E+00 SK= 0.96E-02 mag=     -0.047
       N       E                     dE             d eps       ncg     rms          rms(c)
DAV:   1    -0.329181864353E+02   -0.16779E-01   -0.16803E-02  2768   0.116E+00    0.360E-02
RMM:   2    -0.329194552825E+02   -0.12688E-02   -0.50529E-03  1602   0.290E-01
    737 T=   934. E= -.30262335E+02 F= -.32919455E+02 E0= -.32881402E+02  EK= 0.31383E+01 SP= -.50E+00 SK= 0.17E-01 mag=      0.027
       N       E                     dE             d eps       ncg     rms          rms(c)
DAV:   1    -0.329361571739E+02   -0.17971E-01   -0.19139E-02  2832   0.116E+00    0.417E-02
RMM:   2    -0.329374286008E+02   -0.12714E-02   -0.42578E-03  1565   0.276E-01
    738 T=   922. E= -.30259597E+02 F= -.32937429E+02 E0= -.32899262E+02  EK= 0.30979E+01 SP= -.45E+00 SK= 0.25E-01 mag=      0.071
       N       E                     dE             d eps       ncg     rms          rms(c)
DAV:   1    -0.329553970113E+02   -0.19240E-01   -0.18393E-02  2760   0.115E+00    0.319E-02
RMM:   2    -0.329564924927E+02   -0.10955E-02   -0.45886E-03  1576   0.297E-01
    739 T=   907. E= -.30256816E+02 F= -.32956492E+02 E0= -.32918180E+02  EK= 0.30480E+01 SP= -.38E+00 SK= 0.34E-01 mag=      0.058
       N       E                     dE             d eps       ncg     rms          rms(c)
DAV:   1    -0.329737503178E+02   -0.18353E-01   -0.20593E-02  2904   0.112E+00    0.446E-02
RMM:   2    -0.329751020496E+02   -0.13517E-02   -0.48299E-03  1566   0.290E-01    0.329E-02
RMM:   3    -0.329754888897E+02   -0.38684E-03   -0.13221E-03  1446   0.107E-01
    740 T=   890. E= -.30253676E+02 F= -.32975489E+02 E0= -.32936999E+02  EK= 0.29897E+01 SP= -.31E+00 SK= 0.43E-01 mag=     -0.001
       N       E                     dE             d eps       ncg     rms          rms(c)
DAV:   1    -0.329943779372E+02   -0.19276E-01   -0.16406E-02  2520   0.109E+00    0.353E-02
RMM:   2    -0.329952745033E+02   -0.89657E-03   -0.27035E-03  1476   0.251E-01
    741 T=   871. E= -.30247901E+02 F= -.32995275E+02 E0= -.32956569E+02  EK= 0.29283E+01 SP= -.23E+00 SK= 0.51E-01 mag=     -0.060
       N       E                     dE             d eps       ncg     rms          rms(c)
DAV:   1    -0.330139621867E+02   -0.19584E-01   -0.24575E-02  3040   0.119E+00    0.430E-02
RMM:   2    -0.330149975037E+02   -0.10353E-02   -0.34573E-03  1572   0.233E-01
    742 T=   852. E= -.30242413E+02 F= -.33014998E+02 E0= -.32976121E+02  EK= 0.28620E+01 SP= -.15E+00 SK= 0.57E-01 mag=     -0.062
       N       E                     dE             d eps       ncg     rms          rms(c)
DAV:   1    -0.330342093965E+02   -0.20247E-01   -0.78272E-03  2008   0.100E+00    0.359E-02
RMM:   2    -0.330352333846E+02   -0.10240E-02   -0.44782E-03  1574   0.285E-01
    743 T=   831. E= -.30239065E+02 F= -.33035233E+02 E0= -.32996032E+02  EK= 0.27917E+01 SP= -.57E-01 SK= 0.62E-01 mag=     -0.004
       N       E                     dE             d eps       ncg     rms          rms(c)
DAV:   1    -0.330550590449E+02   -0.20850E-01   -0.22160E-02  2776   0.116E+00    0.300E-02
RMM:   2    -0.330560102727E+02   -0.95123E-03   -0.39698E-03  1564   0.265E-01
    744 T=   810. E= -.30235128E+02 F= -.33056010E+02 E0= -.33016482E+02  EK= 0.27223E+01 SP= 0.34E-01 SK= 0.64E-01 mag=      0.062
       N       E                     dE             d eps       ncg     rms          rms(c)
DAV:   1    -0.330755954239E+02   -0.20536E-01   -0.12595E-02  2272   0.981E-01    0.370E-02
RMM:   2    -0.330766771812E+02   -0.10818E-02   -0.45389E-03  1560   0.287E-01
    745 T=   790. E= -.30230507E+02 F= -.33076677E+02 E0= -.33036854E+02  EK= 0.26550E+01 SP= 0.13E+00 SK= 0.64E-01 mag=      0.081
       N       E                     dE             d eps       ncg     rms          rms(c)
DAV:   1    -0.330964797902E+02   -0.20884E-01   -0.17025E-02  2776   0.108E+00    0.409E-02
RMM:   2    -0.330974992179E+02   -0.10194E-02   -0.38817E-03  1558   0.262E-01
    746 T=   771. E= -.30225370E+02 F= -.33097499E+02 E0= -.33057288E+02  EK= 0.25914E+01 SP= 0.22E+00 SK= 0.62E-01 mag=      0.027
       N       E                     dE             d eps       ncg     rms          rms(c)
DAV:   1    -0.331176712216E+02   -0.21191E-01   -0.10943E-02  2536   0.993E-01    0.264E-02
RMM:   2    -0.331185734287E+02   -0.90221E-03   -0.43360E-03  1571   0.265E-01
    747 T=   753. E= -.30221921E+02 F= -.33118573E+02 E0= -.33077920E+02  EK= 0.25307E+01 SP= 0.31E+00 SK= 0.58E-01 mag=     -0.063
       N       E                     dE             d eps       ncg     rms          rms(c)
DAV:   1    -0.331382435411E+02   -0.20572E-01   -0.14064E-02  2496   0.102E+00    0.427E-02
RMM:   2    -0.331392521278E+02   -0.10086E-02   -0.41656E-03  1547   0.260E-01
    748 T=   737. E= -.30218311E+02 F= -.33139252E+02 E0= -.33098225E+02  EK= 0.24754E+01 SP= 0.39E+00 SK= 0.52E-01 mag=     -0.100
       N       E                     dE             d eps       ncg     rms          rms(c)
DAV:   1    -0.331591704500E+02   -0.20927E-01   -0.13271E-02  2504   0.984E-01    0.437E-02
RMM:   2    -0.331600799761E+02   -0.90953E-03   -0.35859E-03  1542   0.257E-01
    749 T=   722. E= -.30214226E+02 F= -.33160080E+02 E0= -.33118578E+02  EK= 0.24271E+01 SP= 0.47E+00 SK= 0.45E-01 mag=     -0.051
       N       E                     dE             d eps       ncg     rms          rms(c)
DAV:   1    -0.331800612624E+02   -0.20891E-01   -0.13747E-02  2664   0.997E-01    0.356E-02
RMM:   2    -0.331809481908E+02   -0.88693E-03   -0.38102E-03  1552   0.260E-01
    750 T=   710. E= -.30209727E+02 F= -.33180948E+02 E0= -.33138943E+02  EK= 0.23864E+01 SP= 0.55E+00 SK= 0.37E-01 mag=      0.052
       N       E                     dE             d eps       ncg     rms          rms(c)
DAV:   1    -0.332003334796E+02   -0.20272E-01   -0.10563E-02  2248   0.966E-01    0.429E-02
RMM:   2    -0.332012506841E+02   -0.91720E-03   -0.40619E-03  1545   0.271E-01
    751 T=   700. E= -.30205348E+02 F= -.33201251E+02 E0= -.33158815E+02  EK= 0.23525E+01 SP= 0.61E+00 SK= 0.29E-01 mag=      0.134
       N       E                     dE             d eps       ncg     rms          rms(c)
DAV:   1    -0.332200759821E+02   -0.19743E-01   -0.13459E-02  2760   0.102E+00    0.542E-02
RMM:   2    -0.332212366131E+02   -0.11606E-02   -0.45180E-03  1576   0.264E-01
    752 T=   692. E= -.30200806E+02 F= -.33221237E+02 E0= -.33178373E+02  EK= 0.23265E+01 SP= 0.67E+00 SK= 0.22E-01 mag=      0.089
       N       E                     dE             d eps       ncg     rms          rms(c)
DAV:   1    -0.332409289287E+02   -0.20853E-01   -0.14639E-02  2680   0.983E-01    0.396E-02
RMM:   2    -0.332417786891E+02   -0.84976E-03   -0.44853E-03  1573   0.279E-01
    753 T=   687. E= -.30196926E+02 F= -.33241779E+02 E0= -.33198360E+02  EK= 0.23086E+01 SP= 0.72E+00 SK= 0.15E-01 mag=     -0.056
       N       E                     dE             d eps       ncg     rms          rms(c)
DAV:   1    -0.332596690523E+02   -0.18740E-01   -0.17233E-02  2576   0.972E-01    0.575E-02
RMM:   2    -0.332607941157E+02   -0.11251E-02   -0.41860E-03  1527   0.273E-01
    754 T=   684. E= -.30192094E+02 F= -.33260794E+02 E0= -.33217044E+02  EK= 0.22984E+01 SP= 0.76E+00 SK= 0.92E-02 mag=     -0.170
       N       E                     dE             d eps       ncg     rms          rms(c)
DAV:   1    -0.332787978999E+02   -0.19129E-01   -0.11164E-02  2416   0.990E-01    0.579E-02
RMM:   2    -0.332798356794E+02   -0.10378E-02   -0.38677E-03  1524   0.261E-01
    755 T=   683. E= -.30187932E+02 F= -.33279836E+02 E0= -.33235658E+02  EK= 0.22959E+01 SP= 0.79E+00 SK= 0.48E-02 mag=     -0.162
       N       E                     dE             d eps       ncg     rms          rms(c)
DAV:   1    -0.332976564663E+02   -0.18859E-01   -0.11205E-02  2576   0.999E-01    0.444E-02
RMM:   2    -0.332985132402E+02   -0.85677E-03   -0.38725E-03  1551   0.266E-01
    756 T=   685. E= -.30184058E+02 F= -.33298513E+02 E0= -.33253842E+02  EK= 0.23010E+01 SP= 0.81E+00 SK= 0.18E-02 mag=     -0.016
       N       E                     dE             d eps       ncg     rms          rms(c)
DAV:   1    -0.333151121813E+02   -0.17456E-01   -0.11698E-02  2504   0.982E-01    0.531E-02
RMM:   2    -0.333161137773E+02   -0.10016E-02   -0.41615E-03  1539   0.271E-01
    757 T=   688. E= -.30179850E+02 F= -.33316114E+02 E0= -.33271156E+02  EK= 0.23135E+01 SP= 0.82E+00 SK= 0.29E-03 mag=      0.177
       N       E                     dE             d eps       ncg     rms          rms(c)
DAV:   1    -0.333313264378E+02   -0.16214E-01   -0.13182E-02  2592   0.100E+00    0.739E-02
RMM:   2    -0.333327318398E+02   -0.14054E-02   -0.41060E-03  1525   0.267E-01    0.557E-02
RMM:   3    -0.333335664898E+02   -0.83465E-03   -0.16824E-03  1433   0.114E-01
    758 T=   694. E= -.30176770E+02 F= -.33333566E+02 E0= -.33288315E+02  EK= 0.23327E+01 SP= 0.82E+00 SK= 0.60E-04 mag=      0.090
       N       E                     dE             d eps       ncg     rms          rms(c)
DAV:   1    -0.333486079079E+02   -0.15876E-01   -0.13475E-02  2464   0.951E-01    0.682E-02
RMM:   2    -0.333497627748E+02   -0.11549E-02   -0.31843E-03  1472   0.240E-01
    759 T=   702. E= -.30171552E+02 F= -.33349763E+02 E0= -.33304241E+02  EK= 0.23604E+01 SP= 0.82E+00 SK= 0.95E-03 mag=     -0.133
       N       E                     dE             d eps       ncg     rms          rms(c)
DAV:   1    -0.333631813445E+02   -0.14573E-01   -0.25038E-02  2904   0.108E+00    0.766E-02
RMM:   2    -0.333648228114E+02   -0.16415E-02   -0.41660E-03  1520   0.238E-01    0.617E-02
RMM:   3    -0.333656801767E+02   -0.85737E-03   -0.12983E-03  1435   0.970E-02
    760 T=   712. E= -.30167757E+02 F= -.33365680E+02 E0= -.33320069E+02  EK= 0.23937E+01 SP= 0.80E+00 SK= 0.27E-02 mag=     -0.113
       N       E                     dE             d eps       ncg     rms          rms(c)
DAV:   1    -0.333798296013E+02   -0.15007E-01   -0.15967E-02  2312   0.943E-01    0.621E-02
RMM:   2    -0.333810403304E+02   -0.12107E-02   -0.36265E-03  1461   0.228E-01
    761 T=   724. E= -.30164986E+02 F= -.33381040E+02 E0= -.33335030E+02  EK= 0.24321E+01 SP= 0.78E+00 SK= 0.50E-02 mag=      0.090
       N       E                     dE             d eps       ncg     rms          rms(c)
DAV:   1    -0.333917814360E+02   -0.11952E-01   -0.26916E-02  2728   0.107E+00    0.947E-02
RMM:   2    -0.333938070840E+02   -0.20256E-02   -0.46431E-03  1546   0.249E-01    0.693E-02
RMM:   3    -0.333954913682E+02   -0.16843E-02   -0.28000E-03  1407   0.121E-01    0.368E-02
RMM:   4    -0.333958927930E+02   -0.40142E-03   -0.94720E-04  1362   0.756E-02
    762 T=   737. E= -.30162513E+02 F= -.33395893E+02 E0= -.33349727E+02  EK= 0.24759E+01 SP= 0.75E+00 SK= 0.75E-02 mag=      0.047
       N       E                     dE             d eps       ncg     rms          rms(c)
DAV:   1    -0.334052989863E+02   -0.98076E-02   -0.18608E-02  2264   0.951E-01    0.103E-01
RMM:   2    -0.334076212223E+02   -0.23222E-02   -0.56295E-03  1467   0.252E-01    0.719E-02
RMM:   3    -0.334091239778E+02   -0.15028E-02   -0.30049E-03  1400   0.113E-01    0.382E-02
RMM:   4    -0.334095633062E+02   -0.43933E-03   -0.10527E-03  1374   0.767E-02
    763 T=   751. E= -.30160963E+02 F= -.33409563E+02 E0= -.33363283E+02  EK= 0.25229E+01 SP= 0.72E+00 SK= 0.99E-02 mag=     -0.012
       N       E                     dE             d eps       ncg     rms          rms(c)
DAV:   1    -0.334209465133E+02   -0.11823E-01   -0.13596E-02  2472   0.103E+00    0.544E-02
RMM:   2    -0.334218243339E+02   -0.87782E-03   -0.31155E-03  1486   0.223E-01
    764 T=   766. E= -.30156654E+02 F= -.33421824E+02 E0= -.33375615E+02  EK= 0.25758E+01 SP= 0.68E+00 SK= 0.12E-01 mag=     -0.079
       N       E                     dE             d eps       ncg     rms          rms(c)
DAV:   1    -0.334324273572E+02   -0.11481E-01   -0.16480E-02  2584   0.105E+00    0.482E-02
RMM:   2    -0.334334378365E+02   -0.10105E-02   -0.38217E-03  1541   0.255E-01
    765 T=   783. E= -.30153201E+02 F= -.33433438E+02 E0= -.33387325E+02  EK= 0.26306E+01 SP= 0.64E+00 SK= 0.13E-01 mag=     -0.120
       N       E                     dE             d eps       ncg     rms          rms(c)
DAV:   1    -0.334434802128E+02   -0.11053E-01   -0.12581E-02  2328   0.104E+00    0.347E-02
RMM:   2    -0.334443412085E+02   -0.86100E-03   -0.40140E-03  1558   0.278E-01
    766 T=   799. E= -.30149943E+02 F= -.33444341E+02 E0= -.33398204E+02  EK= 0.26868E+01 SP= 0.59E+00 SK= 0.14E-01 mag=     -0.086
       N       E                     dE             d eps       ncg     rms          rms(c)
DAV:   1    -0.334526201951E+02   -0.91400E-02   -0.16603E-02  2664   0.110E+00    0.380E-02
RMM:   2    -0.334535703582E+02   -0.95016E-03   -0.45236E-03  1573   0.272E-01
    767 T=   816. E= -.30145182E+02 F= -.33453570E+02 E0= -.33407527E+02  EK= 0.27437E+01 SP= 0.55E+00 SK= 0.13E-01 mag=      0.029
       N       E                     dE             d eps       ncg     rms          rms(c)
DAV:   1    -0.334600906123E+02   -0.74704E-02   -0.12587E-02  2344   0.106E+00    0.469E-02
RMM:   2    -0.334612756944E+02   -0.11851E-02   -0.47341E-03  1565   0.295E-01
    768 T=   833. E= -.30139784E+02 F= -.33461276E+02 E0= -.33415598E+02  EK= 0.27992E+01 SP= 0.51E+00 SK= 0.12E-01 mag=      0.154
       N       E                     dE             d eps       ncg     rms          rms(c)
DAV:   1    -0.334669426107E+02   -0.68520E-02   -0.17222E-02  2784   0.114E+00    0.467E-02
RMM:   2    -0.334679776600E+02   -0.10350E-02   -0.41721E-03  1546   0.282E-01
    769 T=   848. E= -.30134804E+02 F= -.33467978E+02 E0= -.33422504E+02  EK= 0.28513E+01 SP= 0.47E+00 SK= 0.10E-01 mag=      0.189
       N       E                     dE             d eps       ncg     rms          rms(c)
DAV:   1    -0.334719990053E+02   -0.50564E-02   -0.15418E-02  2464   0.109E+00    0.397E-02
RMM:   2    -0.334731117262E+02   -0.11127E-02   -0.48175E-03  1550   0.304E-01
    770 T=   862. E= -.30130088E+02 F= -.33473112E+02 E0= -.33427692E+02  EK= 0.28979E+01 SP= 0.44E+00 SK= 0.77E-02 mag=      0.071
       N       E                     dE             d eps       ncg     rms          rms(c)
DAV:   1    -0.334752299600E+02   -0.32310E-02   -0.16425E-02  2584   0.116E+00    0.412E-02
RMM:   2    -0.334764222553E+02   -0.11923E-02   -0.54439E-03  1606   0.294E-01
    771 T=   874. E= -.30124867E+02 F= -.33476422E+02 E0= -.33431359E+02  EK= 0.29382E+01 SP= 0.41E+00 SK= 0.52E-02 mag=     -0.144
       N       E                     dE             d eps       ncg     rms          rms(c)
DAV:   1    -0.334753750469E+02   -0.14509E-03   -0.16251E-02  2480   0.110E+00    0.628E-02
RMM:   2    -0.334769317432E+02   -0.15567E-02   -0.53177E-03  1592   0.316E-01    0.493E-02
RMM:   3    -0.334776738199E+02   -0.74208E-03   -0.17607E-03  1465   0.124E-01
    772 T=   883. E= -.30120849E+02 F= -.33477674E+02 E0= -.33433026E+02  EK= 0.29688E+01 SP= 0.39E+00 SK= 0.29E-02 mag=     -0.103
       N       E                     dE             d eps       ncg     rms          rms(c)
DAV:   1    -0.334758373499E+02    0.10944E-02   -0.18863E-02  2640   0.113E+00    0.526E-02
RMM:   2    -0.334769762226E+02   -0.11389E-02   -0.32840E-03  1475   0.265E-01
    773 T=   890. E= -.30114484E+02 F= -.33476976E+02 E0= -.33432485E+02  EK= 0.29924E+01 SP= 0.37E+00 SK= 0.12E-02 mag=      0.125
       N       E                     dE             d eps       ncg     rms          rms(c)
DAV:   1    -0.334706454872E+02    0.51919E-02   -0.26766E-02  2928   0.122E+00    0.839E-02
RMM:   2    -0.334725383918E+02   -0.18929E-02   -0.46702E-03  1532   0.251E-01    0.642E-02
RMM:   3    -0.334738240016E+02   -0.12856E-02   -0.17981E-03  1406   0.109E-01
    774 T=   894. E= -.30108867E+02 F= -.33473824E+02 E0= -.33429863E+02  EK= 0.30046E+01 SP= 0.36E+00 SK= 0.17E-03 mag=      0.141
       N       E                     dE             d eps       ncg     rms          rms(c)
DAV:   1    -0.334677903967E+02    0.47480E-02   -0.15043E-02  2320   0.105E+00    0.671E-02
RMM:   2    -0.334691392802E+02   -0.13489E-02   -0.37688E-03  1462   0.259E-01
    775 T=   894. E= -.30104473E+02 F= -.33469139E+02 E0= -.33425166E+02  EK= 0.30053E+01 SP= 0.36E+00 SK= 0.68E-04 mag=     -0.029
       N       E                     dE             d eps       ncg     rms          rms(c)
DAV:   1    -0.334591757907E+02    0.86146E-02   -0.29524E-02  3000   0.124E+00    0.856E-02
RMM:   2    -0.334610590577E+02   -0.18833E-02   -0.44717E-03  1547   0.242E-01    0.623E-02
RMM:   3    -0.334623153214E+02   -0.12563E-02   -0.21040E-03  1399   0.109E-01
    776 T=   891. E= -.30100189E+02 F= -.33462315E+02 E0= -.33418770E+02  EK= 0.29951E+01 SP= 0.37E+00 SK= 0.86E-03 mag=     -0.091
       N       E                     dE             d eps       ncg     rms          rms(c)
DAV:   1    -0.334507266099E+02    0.10332E-01   -0.18447E-02  2296   0.108E+00    0.960E-02
RMM:   2    -0.334527064499E+02   -0.19798E-02   -0.44418E-03  1498   0.280E-01    0.648E-02
RMM:   3    -0.334534243877E+02   -0.71794E-03   -0.14424E-03  1406   0.116E-01
    777 T=   885. E= -.30097146E+02 F= -.33453424E+02 E0= -.33410055E+02  EK= 0.29732E+01 SP= 0.38E+00 SK= 0.24E-02 mag=     -0.040
       N       E                     dE             d eps       ncg     rms          rms(c)
DAV:   1    -0.334415386239E+02    0.11168E-01   -0.32632E-02  2856   0.113E+00    0.513E-02
RMM:   2    -0.334426012784E+02   -0.10627E-02   -0.38709E-03  1533   0.259E-01
    778 T=   876. E= -.30092153E+02 F= -.33442601E+02 E0= -.33399528E+02  EK= 0.29438E+01 SP= 0.40E+00 SK= 0.46E-02 mag=      0.095
       N       E                     dE             d eps       ncg     rms          rms(c)
DAV:   1    -0.334279751468E+02    0.13563E-01   -0.27089E-02  2808   0.116E+00    0.611E-02
RMM:   2    -0.334293244090E+02   -0.13493E-02   -0.44806E-03  1545   0.260E-01
    779 T=   864. E= -.30089143E+02 F= -.33429324E+02 E0= -.33386822E+02  EK= 0.29033E+01 SP= 0.43E+00 SK= 0.70E-02 mag=      0.200
       N       E                     dE             d eps       ncg     rms          rms(c)
DAV:   1    -0.334137540059E+02    0.14221E-01   -0.15747E-02  2496   0.108E+00    0.550E-02
RMM:   2    -0.334150293418E+02   -0.12753E-02   -0.43564E-03  1540   0.287E-01
    780 T=   850. E= -.30085947E+02 F= -.33415029E+02 E0= -.33372728E+02  EK= 0.28568E+01 SP= 0.46E+00 SK= 0.93E-02 mag=      0.166
       N       E                     dE             d eps       ncg     rms          rms(c)
DAV:   1    -0.333981178827E+02    0.15636E-01   -0.20339E-02  2792   0.119E+00    0.322E-02
RMM:   2    -0.333991691041E+02   -0.10512E-02   -0.46763E-03  1541   0.279E-01
    781 T=   835. E= -.30081630E+02 F= -.33399169E+02 E0= -.33356907E+02  EK= 0.28061E+01 SP= 0.50E+00 SK= 0.11E-01 mag=     -0.008
       N       E                     dE             d eps       ncg     rms          rms(c)
DAV:   1    -0.333793459110E+02    0.18772E-01   -0.14576E-02  2552   0.107E+00    0.589E-02
RMM:   2    -0.333807502549E+02   -0.14043E-02   -0.46717E-03  1559   0.290E-01    0.436E-02
RMM:   3    -0.333813051590E+02   -0.55490E-03   -0.15657E-03  1466   0.114E-01
    782 T=   818. E= -.30078133E+02 F= -.33381305E+02 E0= -.33339504E+02  EK= 0.27503E+01 SP= 0.54E+00 SK= 0.13E-01 mag=     -0.098
       N       E                     dE             d eps       ncg     rms          rms(c)
DAV:   1    -0.333617633542E+02    0.18987E-01   -0.19809E-02  2536   0.105E+00    0.410E-02
RMM:   2    -0.333627419518E+02   -0.97860E-03   -0.31953E-03  1514   0.254E-01
    783 T=   802. E= -.30072258E+02 F= -.33362742E+02 E0= -.33321108E+02  EK= 0.26954E+01 SP= 0.58E+00 SK= 0.13E-01 mag=     -0.069
       N       E                     dE             d eps       ncg     rms          rms(c)
DAV:   1    -0.333419190708E+02    0.19844E-01   -0.23442E-02  2872   0.114E+00    0.467E-02
RMM:   2    -0.333430061047E+02   -0.10870E-02   -0.38106E-03  1558   0.234E-01
    784 T=   785. E= -.30067231E+02 F= -.33343006E+02 E0= -.33301651E+02  EK= 0.26392E+01 SP= 0.62E+00 SK= 0.13E-01 mag=      0.050
       N       E                     dE             d eps       ncg     rms          rms(c)
DAV:   1    -0.333214832297E+02    0.20436E-01   -0.10120E-02  2144   0.997E-01    0.482E-02
RMM:   2    -0.333226472326E+02   -0.11640E-02   -0.44334E-03  1565   0.276E-01
    785 T=   769. E= -.30063377E+02 F= -.33322647E+02 E0= -.33281704E+02  EK= 0.25833E+01 SP= 0.66E+00 SK= 0.12E-01 mag=      0.147
       N       E                     dE             d eps       ncg     rms          rms(c)
DAV:   1    -0.333007902251E+02    0.20693E-01   -0.24163E-02  2608   0.116E+00    0.454E-02
RMM:   2    -0.333019598471E+02   -0.11696E-02   -0.45191E-03  1551   0.279E-01
    786 T=   753. E= -.30058803E+02 F= -.33301960E+02 E0= -.33261287E+02  EK= 0.25311E+01 SP= 0.70E+00 SK= 0.98E-02 mag=      0.141
       N       E                     dE             d eps       ncg     rms          rms(c)
DAV:   1    -0.332797364538E+02    0.21054E-01   -0.14667E-02  2448   0.971E-01    0.440E-02
RMM:   2    -0.332809403817E+02   -0.12039E-02   -0.47317E-03  1541   0.287E-01
    787 T=   739. E= -.30054533E+02 F= -.33280940E+02 E0= -.33240450E+02  EK= 0.24825E+01 SP= 0.74E+00 SK= 0.75E-02 mag=      0.021
       N       E                     dE             d eps       ncg     rms          rms(c)
DAV:   1    -0.332584125482E+02    0.21324E-01   -0.15581E-02  2592   0.106E+00    0.487E-02
RMM:   2    -0.332595834885E+02   -0.11709E-02   -0.44973E-03  1580   0.265E-01
    788 T=   726. E= -.30049655E+02 F= -.33259583E+02 E0= -.33219496E+02  EK= 0.24394E+01 SP= 0.77E+00 SK= 0.51E-02 mag=     -0.124
       N       E                     dE             d eps       ncg     rms          rms(c)
DAV:   1    -0.332366866949E+02    0.21726E-01   -0.15216E-02  2376   0.985E-01    0.544E-02
RMM:   2    -0.332379456688E+02   -0.12590E-02   -0.44958E-03  1555   0.279E-01
    789 T=   715. E= -.30045249E+02 F= -.33237946E+02 E0= -.33198263E+02  EK= 0.24016E+01 SP= 0.79E+00 SK= 0.28E-02 mag=     -0.189
       N       E                     dE             d eps       ncg     rms          rms(c)
DAV:   1    -0.332154485335E+02    0.21238E-01   -0.16949E-02  2696   0.104E+00    0.556E-02
RMM:   2    -0.332168279540E+02   -0.13794E-02   -0.46177E-03  1549   0.264E-01    0.423E-02
RMM:   3    -0.332174049842E+02   -0.57703E-03   -0.15051E-03  1465   0.106E-01
    790 T=   705. E= -.30042691E+02 F= -.33217405E+02 E0= -.33177849E+02  EK= 0.23696E+01 SP= 0.80E+00 SK= 0.11E-02 mag=     -0.038
       N       E                     dE             d eps       ncg     rms          rms(c)
DAV:   1    -0.331944077331E+02    0.22420E-01   -0.17107E-02  2344   0.973E-01    0.700E-02
RMM:   2    -0.331958835375E+02   -0.14758E-02   -0.29517E-03  1453   0.230E-01    0.531E-02
RMM:   3    -0.331964846398E+02   -0.60110E-03   -0.88979E-04  1293   0.870E-02
    791 T=   698. E= -.30039355E+02 F= -.33196485E+02 E0= -.33157331E+02  EK= 0.23451E+01 SP= 0.81E+00 SK= 0.10E-03 mag=      0.085
       N       E                     dE             d eps       ncg     rms          rms(c)
DAV:   1    -0.331754827845E+02    0.20401E-01   -0.24643E-02  2448   0.979E-01    0.471E-02
RMM:   2    -0.331763012044E+02   -0.81842E-03   -0.33472E-03  1541   0.247E-01
    792 T=   693. E= -.30034876E+02 F= -.33176301E+02 E0= -.33137416E+02  EK= 0.23298E+01 SP= 0.81E+00 SK= 0.19E-03 mag=      0.103
       N       E                     dE             d eps       ncg     rms          rms(c)
DAV:   1    -0.331558675807E+02    0.19615E-01   -0.18005E-02  2792   0.104E+00    0.331E-02
RMM:   2    -0.331566186897E+02   -0.75111E-03   -0.34897E-03  1541   0.231E-01
    793 T=   691. E= -.30032306E+02 F= -.33156619E+02 E0= -.33117956E+02  EK= 0.23209E+01 SP= 0.80E+00 SK= 0.15E-02 mag=      0.008
       N       E                     dE             d eps       ncg     rms          rms(c)
DAV:   1    -0.331363664023E+02    0.19501E-01   -0.11888E-02  2416   0.964E-01    0.432E-02
RMM:   2    -0.331372168946E+02   -0.85049E-03   -0.33671E-03  1550   0.272E-01
    794 T=   690. E= -.30029775E+02 F= -.33137217E+02 E0= -.33098955E+02  EK= 0.23200E+01 SP= 0.78E+00 SK= 0.40E-02 mag=     -0.114
       N       E                     dE             d eps       ncg     rms          rms(c)
DAV:   1    -0.331174357026E+02    0.18931E-01   -0.15598E-02  2424   0.108E+00    0.539E-02
RMM:   2    -0.331184877863E+02   -0.10521E-02   -0.36433E-03  1531   0.252E-01
    795 T=   693. E= -.30026088E+02 F= -.33118488E+02 E0= -.33080656E+02  EK= 0.23288E+01 SP= 0.76E+00 SK= 0.77E-02 mag=     -0.158
       N       E                     dE             d eps       ncg     rms          rms(c)
DAV:   1    -0.331005240687E+02    0.16912E-01   -0.92389E-03  2336   0.991E-01    0.382E-02
RMM:   2    -0.331014439038E+02   -0.91984E-03   -0.39808E-03  1560   0.268E-01
    796 T=   698. E= -.30022241E+02 F= -.33101444E+02 E0= -.33063845E+02  EK= 0.23474E+01 SP= 0.72E+00 SK= 0.12E-01 mag=     -0.068
       N       E                     dE             d eps       ncg     rms          rms(c)
DAV:   1    -0.330845411535E+02    0.15983E-01   -0.14730E-02  2552   0.107E+00    0.392E-02
RMM:   2    -0.330853549506E+02   -0.81380E-03   -0.37615E-03  1531   0.267E-01
    797 T=   707. E= -.30018167E+02 F= -.33085355E+02 E0= -.33048058E+02  EK= 0.23748E+01 SP= 0.67E+00 SK= 0.18E-01 mag=      0.093
       N       E                     dE             d eps       ncg     rms          rms(c)
DAV:   1    -0.330678304980E+02    0.16711E-01   -0.12629E-02  2536   0.101E+00    0.628E-02
RMM:   2    -0.330691923147E+02   -0.13618E-02   -0.43672E-03  1540   0.275E-01    0.480E-02
RMM:   3    -0.330699957942E+02   -0.80348E-03   -0.17729E-03  1442   0.114E-01
    798 T=   717. E= -.30015725E+02 F= -.33069996E+02 E0= -.33033076E+02  EK= 0.24088E+01 SP= 0.62E+00 SK= 0.24E-01 mag=      0.031
       N       E                     dE             d eps       ncg     rms          rms(c)
DAV:   1    -0.330548224233E+02    0.14370E-01   -0.14595E-02  2576   0.103E+00    0.614E-02
RMM:   2    -0.330558769364E+02   -0.10545E-02   -0.30167E-03  1515   0.249E-01
    799 T=   730. E= -.30010855E+02 F= -.33055877E+02 E0= -.33019346E+02  EK= 0.24534E+01 SP= 0.56E+00 SK= 0.29E-01 mag=     -0.138
       N       E                     dE             d eps       ncg     rms          rms(c)
DAV:   1    -0.330413332817E+02    0.13489E-01   -0.23568E-02  2968   0.113E+00    0.834E-02
RMM:   2    -0.330430068703E+02   -0.16736E-02   -0.41376E-03  1553   0.240E-01    0.619E-02
RMM:   3    -0.330439753734E+02   -0.96850E-03   -0.13188E-03  1406   0.103E-01
    800 T=   745. E= -.30007303E+02 F= -.33043975E+02 E0= -.33007815E+02  EK= 0.25054E+01 SP= 0.50E+00 SK= 0.34E-01 mag=     -0.033
       N       E                     dE             d eps       ncg     rms          rms(c)
DAV:   1    -0.330318768137E+02    0.11130E-01   -0.14263E-02  2312   0.101E+00    0.872E-02
RMM:   2    -0.330334716412E+02   -0.15948E-02   -0.31085E-03  1501   0.247E-01    0.625E-02
RMM:   3    -0.330339692894E+02   -0.49765E-03   -0.82419E-04  1248   0.927E-02
    801 T=   763. E= -.30005696E+02 F= -.33033969E+02 E0= -.32998118E+02  EK= 0.25629E+01 SP= 0.43E+00 SK= 0.38E-01 mag=      0.049
       N       E                     dE             d eps       ncg     rms          rms(c)
DAV:   1    -0.330253657200E+02    0.81059E-02   -0.32277E-02  2728   0.108E+00    0.528E-02
RMM:   2    -0.330262348826E+02   -0.86916E-03   -0.41817E-03  1551   0.278E-01
    802 T=   782. E= -.30002124E+02 F= -.33026235E+02 E0= -.32990672E+02  EK= 0.26292E+01 SP= 0.35E+00 SK= 0.41E-01 mag=      0.076
       N       E                     dE             d eps       ncg     rms          rms(c)
DAV:   1    -0.330201761786E+02    0.51895E-02   -0.21884E-02  2816   0.113E+00    0.385E-02
RMM:   2    -0.330209743631E+02   -0.79818E-03   -0.41125E-03  1567   0.257E-01
    803 T=   803. E= -.29999806E+02 F= -.33020974E+02 E0= -.32985693E+02  EK= 0.27001E+01 SP= 0.28E+00 SK= 0.42E-01 mag=      0.030
       N       E                     dE             d eps       ncg     rms          rms(c)
DAV:   1    -0.330176800343E+02    0.24961E-02   -0.13070E-02  2584   0.107E+00    0.355E-02
RMM:   2    -0.330184766706E+02   -0.79664E-03   -0.40890E-03  1571   0.293E-01
    804 T=   826. E= -.29996850E+02 F= -.33018477E+02 E0= -.32983528E+02  EK= 0.27760E+01 SP= 0.21E+00 SK= 0.40E-01 mag=     -0.049
       N       E                     dE             d eps       ncg     rms          rms(c)
DAV:   1    -0.330175062550E+02    0.17378E-03   -0.17653E-02  2488   0.119E+00    0.478E-02
RMM:   2    -0.330185537606E+02   -0.10475E-02   -0.46672E-03  1551   0.283E-01
    805 T=   850. E= -.29992255E+02 F= -.33018554E+02 E0= -.32984011E+02  EK= 0.28561E+01 SP= 0.13E+00 SK= 0.37E-01 mag=     -0.097
       N       E                     dE             d eps       ncg     rms          rms(c)
DAV:   1    -0.330216859131E+02   -0.41797E-02   -0.10781E-02  2432   0.109E+00    0.377E-02
RMM:   2    -0.330225876367E+02   -0.90172E-03   -0.44474E-03  1566   0.296E-01
    806 T=   874. E= -.29988188E+02 F= -.33022588E+02 E0= -.32988317E+02  EK= 0.29373E+01 SP= 0.65E-01 SK= 0.32E-01 mag=     -0.065
       N       E                     dE             d eps       ncg     rms          rms(c)
DAV:   1    -0.330294936698E+02   -0.78078E-02   -0.18364E-02  2704   0.119E+00    0.327E-02
RMM:   2    -0.330303845992E+02   -0.89093E-03   -0.51983E-03  1592   0.291E-01
    807 T=   898. E= -.29983993E+02 F= -.33030385E+02 E0= -.32996355E+02  EK= 0.30176E+01 SP= 0.36E-02 SK= 0.25E-01 mag=      0.027
       N       E                     dE             d eps       ncg     rms          rms(c)
DAV:   1    -0.330399583252E+02   -0.10465E-01   -0.18489E-02  2552   0.114E+00    0.483E-02
RMM:   2    -0.330411532783E+02   -0.11950E-02   -0.52505E-03  1583   0.310E-01
    808 T=   921. E= -.29979308E+02 F= -.33041153E+02 E0= -.33007481E+02  EK= 0.30940E+01 SP= -.50E-01 SK= 0.18E-01 mag=      0.100
       N       E                     dE             d eps       ncg     rms          rms(c)
DAV:   1    -0.330550903539E+02   -0.15132E-01   -0.20542E-02  2872   0.120E+00    0.488E-02
RMM:   2    -0.330561995387E+02   -0.11092E-02   -0.48343E-03  1573   0.298E-01
    809 T=   941. E= -.29975103E+02 F= -.33056200E+02 E0= -.33022775E+02  EK= 0.31640E+01 SP= -.94E-01 SK= 0.11E-01 mag=      0.082
       N       E                     dE             d eps       ncg     rms          rms(c)
DAV:   1    -0.330744374664E+02   -0.19347E-01   -0.14162E-02  2280   0.117E+00    0.254E-02
RMM:   2    -0.330753179467E+02   -0.88048E-03   -0.49330E-03  1578   0.319E-01
    810 T=   960. E= -.29970774E+02 F= -.33075318E+02 E0= -.33042051E+02  EK= 0.32253E+01 SP= -.13E+00 SK= 0.48E-02 mag=     -0.017
       N       E                     dE             d eps       ncg     rms          rms(c)
DAV:   1    -0.330958812142E+02   -0.21444E-01   -0.19330E-02  2928   0.122E+00    0.545E-02
RMM:   2    -0.330972168655E+02   -0.13357E-02   -0.58622E-03  1610   0.308E-01
    811 T=   975. E= -.29965178E+02 F= -.33097217E+02 E0= -.33064223E+02  EK= 0.32753E+01 SP= -.14E+00 SK= 0.99E-03 mag=     -0.103
       N       E                     dE             d eps       ncg     rms          rms(c)
DAV:   1    -0.331216696465E+02   -0.25788E-01   -0.18346E-02  2728   0.119E+00    0.552E-02
RMM:   2    -0.331229022623E+02   -0.12326E-02   -0.51955E-03  1590   0.323E-01
    812 T=   985. E= -.29960739E+02 F= -.33122902E+02 E0= -.33090062E+02  EK= 0.33106E+01 SP= -.15E+00 SK= 0.90E-04 mag=     -0.097
       N       E                     dE             d eps       ncg     rms          rms(c)
DAV:   1    -0.331507425132E+02   -0.29073E-01   -0.17516E-02  2648   0.122E+00    0.260E-02
RMM:   2    -0.331516467566E+02   -0.90424E-03   -0.49324E-03  1575   0.311E-01
    813 T=   991. E= -.29956265E+02 F= -.33151647E+02 E0= -.33118843E+02  EK= 0.33300E+01 SP= -.14E+00 SK= 0.27E-02 mag=     -0.002
       N       E                     dE             d eps       ncg     rms          rms(c)
DAV:   1    -0.331807849947E+02   -0.30042E-01   -0.16743E-02  2720   0.121E+00    0.523E-02
RMM:   2    -0.331822378381E+02   -0.14528E-02   -0.73949E-03  1648   0.333E-01    0.378E-02
RMM:   3    -0.331826371042E+02   -0.39927E-03   -0.17334E-03  1442   0.129E-01
    814 T=   991. E= -.29952377E+02 F= -.33182637E+02 E0= -.33149938E+02  EK= 0.33315E+01 SP= -.11E+00 SK= 0.92E-02 mag=      0.023
       N       E                     dE             d eps       ncg     rms          rms(c)
DAV:   1    -0.332148402664E+02   -0.32602E-01   -0.19835E-02  2552   0.119E+00    0.365E-02
RMM:   2    -0.332156763736E+02   -0.83611E-03   -0.32922E-03  1545   0.287E-01
    815 T=   988. E= -.29944842E+02 F= -.33215676E+02 E0= -.33182967E+02  EK= 0.33192E+01 SP= -.68E-01 SK= 0.19E-01 mag=     -0.012
       N       E                     dE             d eps       ncg     rms          rms(c)
DAV:   1    -0.332486779709E+02   -0.33838E-01   -0.27100E-02  3056   0.130E+00    0.386E-02
RMM:   2    -0.332495731721E+02   -0.89520E-03   -0.43996E-03  1598   0.262E-01
    816 T=   978. E= -.29937823E+02 F= -.33249573E+02 E0= -.33216831E+02  EK= 0.32884E+01 SP= -.93E-02 SK= 0.33E-01 mag=     -0.050
       N       E                     dE             d eps       ncg     rms          rms(c)
DAV:   1    -0.332835093774E+02   -0.34831E-01   -0.90104E-03  1880   0.111E+00    0.350E-02
RMM:   2    -0.332845011168E+02   -0.99174E-03   -0.53128E-03  1590   0.319E-01
    817 T=   964. E= -.29933887E+02 F= -.33284501E+02 E0= -.33251695E+02  EK= 0.32386E+01 SP= 0.64E-01 SK= 0.48E-01 mag=     -0.049
       N       E                     dE             d eps       ncg     rms          rms(c)
DAV:   1    -0.333187361060E+02   -0.35227E-01   -0.21444E-02  2968   0.130E+00    0.271E-02
RMM:   2    -0.333196251653E+02   -0.88906E-03   -0.47265E-03  1571   0.293E-01
    818 T=   945. E= -.29929145E+02 F= -.33319625E+02 E0= -.33286678E+02  EK= 0.31751E+01 SP= 0.15E+00 SK= 0.65E-01 mag=     -0.009
       N       E                     dE             d eps       ncg     rms          rms(c)
DAV:   1    -0.333530585819E+02   -0.34322E-01   -0.11712E-02  2296   0.112E+00    0.271E-02
RMM:   2    -0.333539634268E+02   -0.90484E-03   -0.50118E-03  1580   0.330E-01
    819 T=   923. E= -.29922795E+02 F= -.33353963E+02 E0= -.33320840E+02  EK= 0.31007E+01 SP= 0.25E+00 SK= 0.81E-01 mag=      0.036
       N       E                     dE             d eps       ncg     rms          rms(c)
DAV:   1    -0.333864016253E+02   -0.33343E-01   -0.16809E-02  2672   0.122E+00    0.327E-02
RMM:   2    -0.333873050680E+02   -0.90344E-03   -0.48136E-03  1577   0.293E-01
    820 T=   898. E= -.29915931E+02 F= -.33387305E+02 E0= -.33353969E+02  EK= 0.30172E+01 SP= 0.36E+00 SK= 0.96E-01 mag=      0.043
       N       E                     dE             d eps       ncg     rms          rms(c)
DAV:   1    -0.334183340348E+02   -0.31932E-01   -0.13416E-02  2552   0.113E+00    0.251E-02
RMM:   2    -0.334191264845E+02   -0.79245E-03   -0.43074E-03  1563   0.299E-01
    821 T=   870. E= -.29910525E+02 F= -.33419126E+02 E0= -.33385534E+02  EK= 0.29252E+01 SP= 0.47E+00 SK= 0.11E+00 mag=      0.011
       N       E                     dE             d eps       ncg     rms          rms(c)
DAV:   1    -0.334480347719E+02   -0.29701E-01   -0.15669E-02  2544   0.115E+00    0.274E-02
RMM:   2    -0.334488380133E+02   -0.80324E-03   -0.44419E-03  1549   0.283E-01
    822 T=   842. E= -.29905130E+02 F= -.33448838E+02 E0= -.33414946E+02  EK= 0.28290E+01 SP= 0.60E+00 SK= 0.12E+00 mag=     -0.025
       N       E                     dE             d eps       ncg     rms          rms(c)
DAV:   1    -0.334755875130E+02   -0.27553E-01   -0.10234E-02  2296   0.109E+00    0.285E-02
RMM:   2    -0.334764177041E+02   -0.83019E-03   -0.48527E-03  1577   0.302E-01
    823 T=   813. E= -.29899556E+02 F= -.33476418E+02 E0= -.33442222E+02  EK= 0.27317E+01 SP= 0.72E+00 SK= 0.12E+00 mag=     -0.037
       N       E                     dE             d eps       ncg     rms          rms(c)
DAV:   1    -0.335007450265E+02   -0.25158E-01   -0.15727E-02  2760   0.113E+00    0.268E-02
RMM:   2    -0.335014797085E+02   -0.73468E-03   -0.40199E-03  1537   0.281E-01
    824 T=   784. E= -.29893626E+02 F= -.33501480E+02 E0= -.33466929E+02  EK= 0.26356E+01 SP= 0.85E+00 SK= 0.12E+00 mag=     -0.019
       N       E                     dE             d eps       ncg     rms          rms(c)
DAV:   1    -0.335229868114E+02   -0.22242E-01   -0.10960E-02  2416   0.109E+00    0.239E-02
RMM:   2    -0.335237189737E+02   -0.73216E-03   -0.43934E-03  1539   0.293E-01
    825 T=   756. E= -.29888038E+02 F= -.33523719E+02 E0= -.33488788E+02  EK= 0.25422E+01 SP= 0.98E+00 SK= 0.12E+00 mag=      0.011
       N       E                     dE             d eps       ncg     rms          rms(c)
DAV:   1    -0.335426011963E+02   -0.19614E-01   -0.11176E-02  2408   0.107E+00    0.281E-02
RMM:   2    -0.335433523704E+02   -0.75117E-03   -0.45789E-03  1553   0.282E-01
    826 T=   730. E= -.29882489E+02 F= -.33543352E+02 E0= -.33508030E+02  EK= 0.24536E+01 SP= 0.11E+01 SK= 0.11E+00 mag=      0.030
       N       E                     dE             d eps       ncg     rms          rms(c)
DAV:   1    -0.335597153508E+02   -0.17114E-01   -0.12288E-02  2648   0.106E+00    0.285E-02
RMM:   2    -0.335604232743E+02   -0.70792E-03   -0.39506E-03  1538   0.272E-01
    827 T=   706. E= -.29877363E+02 F= -.33560423E+02 E0= -.33524696E+02  EK= 0.23712E+01 SP= 0.12E+01 SK= 0.96E-01 mag=      0.026
       N       E                     dE             d eps       ncg     rms          rms(c)
DAV:   1    -0.335742539282E+02   -0.14539E-01   -0.10289E-02  2448   0.101E+00    0.233E-02
RMM:   2    -0.335749018627E+02   -0.64793E-03   -0.40826E-03  1524   0.272E-01
    828 T=   683. E= -.29872239E+02 F= -.33574902E+02 E0= -.33538697E+02  EK= 0.22964E+01 SP= 0.13E+01 SK= 0.81E-01 mag=      0.004
       N       E                     dE             d eps       ncg     rms          rms(c)
DAV:   1    -0.335858402134E+02   -0.11586E-01   -0.95912E-03  2344   0.101E+00    0.308E-02
RMM:   2    -0.335865228755E+02   -0.68266E-03   -0.41101E-03  1526   0.270E-01
    829 T=   664. E= -.29866832E+02 F= -.33586523E+02 E0= -.33549855E+02  EK= 0.22299E+01 SP= 0.14E+01 SK= 0.66E-01 mag=     -0.018
       N       E                     dE             d eps       ncg     rms          rms(c)
DAV:   1    -0.335950025660E+02   -0.91624E-02   -0.11165E-02  2384   0.992E-01    0.291E-02
RMM:   2    -0.335956687774E+02   -0.66621E-03   -0.40951E-03  1553   0.269E-01
    830 T=   646. E= -.29861275E+02 F= -.33595669E+02 E0= -.33558512E+02  EK= 0.21727E+01 SP= 0.15E+01 SK= 0.50E-01 mag=     -0.027
       N       E                     dE             d eps       ncg     rms          rms(c)
DAV:   1    -0.336018093876E+02   -0.68068E-02   -0.10746E-02  2320   0.984E-01    0.319E-02
RMM:   2    -0.336024610768E+02   -0.65169E-03   -0.40592E-03  1534   0.270E-01
    831 T=   632. E= -.29855932E+02 F= -.33602461E+02 E0= -.33564777E+02  EK= 0.21248E+01 SP= 0.16E+01 SK= 0.35E-01 mag=     -0.019
       N       E                     dE             d eps       ncg     rms          rms(c)
DAV:   1    -0.336062039419E+02   -0.43946E-02   -0.89170E-03  2304   0.958E-01    0.288E-02
RMM:   2    -0.336067979252E+02   -0.59398E-03   -0.37395E-03  1531   0.263E-01
    832 T=   621. E= -.29850749E+02 F= -.33606798E+02 E0= -.33568528E+02  EK= 0.20864E+01 SP= 0.16E+01 SK= 0.22E-01 mag=      0.004
       N       E                     dE             d eps       ncg     rms          rms(c)
DAV:   1    -0.336080256390E+02   -0.18217E-02   -0.10086E-02  2480   0.940E-01    0.383E-02
RMM:   2    -0.336086658161E+02   -0.64018E-03   -0.35307E-03  1528   0.250E-01
    833 T=   612. E= -.29845737E+02 F= -.33608666E+02 E0= -.33569831E+02  EK= 0.20576E+01 SP= 0.17E+01 SK= 0.11E-01 mag=      0.026
       N       E                     dE             d eps       ncg     rms          rms(c)
DAV:   1    -0.336081839302E+02   -0.15829E-03   -0.94037E-03  2304   0.934E-01    0.325E-02
RMM:   2    -0.336087115729E+02   -0.52764E-03   -0.33864E-03  1527   0.250E-01
    834 T=   607. E= -.29841131E+02 F= -.33608712E+02 E0= -.33569239E+02  EK= 0.20389E+01 SP= 0.17E+01 SK= 0.38E-02 mag=      0.031
       N       E                     dE             d eps       ncg     rms          rms(c)
DAV:   1    -0.336059521820E+02    0.22317E-02   -0.10024E-02  2408   0.928E-01    0.401E-02
RMM:   2    -0.336065421183E+02   -0.58994E-03   -0.34996E-03  1519   0.251E-01
    835 T=   604. E= -.29836409E+02 F= -.33606542E+02 E0= -.33566425E+02  EK= 0.20304E+01 SP= 0.17E+01 SK= 0.31E-03 mag=      0.011
       N       E                     dE             d eps       ncg     rms          rms(c)
DAV:   1    -0.336019516319E+02    0.40006E-02   -0.87329E-03  2240   0.932E-01    0.372E-02
RMM:   2    -0.336024929760E+02   -0.54134E-03   -0.34201E-03  1521   0.255E-01
    836 T=   605. E= -.29832060E+02 F= -.33602493E+02 E0= -.33561688E+02  EK= 0.20319E+01 SP= 0.17E+01 SK= 0.72E-03 mag=     -0.024
       N       E                     dE             d eps       ncg     rms          rms(c)
DAV:   1    -0.335959335632E+02    0.60181E-02   -0.91694E-03  2392   0.942E-01    0.428E-02
RMM:   2    -0.335965056530E+02   -0.57209E-03   -0.36692E-03  1548   0.255E-01
    837 T=   608. E= -.29827698E+02 F= -.33596506E+02 E0= -.33555029E+02  EK= 0.20439E+01 SP= 0.17E+01 SK= 0.50E-02 mag=     -0.043
       N       E                     dE             d eps       ncg     rms          rms(c)
DAV:   1    -0.335879070801E+02    0.80265E-02   -0.11205E-02  2320   0.941E-01    0.409E-02
RMM:   2    -0.335884660596E+02   -0.55898E-03   -0.35553E-03  1535   0.264E-01
    838 T=   615. E= -.29823375E+02 F= -.33588466E+02 E0= -.33546270E+02  EK= 0.20661E+01 SP= 0.17E+01 SK= 0.13E-01 mag=     -0.033
       N       E                     dE             d eps       ncg     rms          rms(c)
DAV:   1    -0.335777566996E+02    0.10150E-01   -0.10630E-02  2424   0.950E-01    0.440E-02
RMM:   2    -0.335783258054E+02   -0.56911E-03   -0.33833E-03  1529   0.250E-01
    839 T=   624. E= -.29819309E+02 F= -.33578326E+02 E0= -.33535426E+02  EK= 0.20981E+01 SP= 0.16E+01 SK= 0.24E-01 mag=      0.006
       N       E                     dE             d eps       ncg     rms          rms(c)
DAV:   1    -0.335658462378E+02    0.11910E-01   -0.92197E-03  2224   0.955E-01    0.405E-02
RMM:   2    -0.335664540749E+02   -0.60784E-03   -0.40705E-03  1563   0.265E-01
    840 T=   637. E= -.29815507E+02 F= -.33566454E+02 E0= -.33522847E+02  EK= 0.21404E+01 SP= 0.16E+01 SK= 0.37E-01 mag=      0.050
       N       E                     dE             d eps       ncg     rms          rms(c)
DAV:   1    -0.335519847554E+02    0.13861E-01   -0.11848E-02  2296   0.965E-01    0.483E-02
RMM:   2    -0.335526066682E+02   -0.62191E-03   -0.38536E-03  1543   0.266E-01
    841 T=   653. E= -.29811478E+02 F= -.33552607E+02 E0= -.33508346E+02  EK= 0.21929E+01 SP= 0.15E+01 SK= 0.52E-01 mag=      0.066
       N       E                     dE             d eps       ncg     rms          rms(c)
DAV:   1    -0.335361086930E+02    0.15876E-01   -0.12802E-02  2544   0.100E+00    0.472E-02
RMM:   2    -0.335367819796E+02   -0.67329E-03   -0.43205E-03  1582   0.273E-01
    842 T=   671. E= -.29807749E+02 F= -.33536782E+02 E0= -.33491857E+02  EK= 0.22549E+01 SP= 0.14E+01 SK= 0.68E-01 mag=      0.037
       N       E                     dE             d eps       ncg     rms          rms(c)
DAV:   1    -0.335179737137E+02    0.18135E-01   -0.12394E-02  2400   0.979E-01    0.518E-02
RMM:   2    -0.335186388669E+02   -0.66515E-03   -0.41985E-03  1561   0.278E-01
    843 T=   692. E= -.29804331E+02 F= -.33518639E+02 E0= -.33473110E+02  EK= 0.23257E+01 SP= 0.13E+01 SK= 0.83E-01 mag=     -0.027
       N       E                     dE             d eps       ncg     rms          rms(c)
DAV:   1    -0.334975686270E+02    0.20405E-01   -0.12428E-02  2424   0.105E+00    0.531E-02
RMM:   2    -0.334982652588E+02   -0.69663E-03   -0.42993E-03  1561   0.288E-01
    844 T=   716. E= -.29800765E+02 F= -.33498265E+02 E0= -.33452240E+02  EK= 0.24049E+01 SP= 0.12E+01 SK= 0.96E-01 mag=     -0.093
       N       E                     dE             d eps       ncg     rms          rms(c)
DAV:   1    -0.334746887282E+02    0.22880E-01   -0.14551E-02  2616   0.102E+00    0.629E-02
RMM:   2    -0.334754502972E+02   -0.76157E-03   -0.40060E-03  1535   0.277E-01
    845 T=   741. E= -.29797181E+02 F= -.33475450E+02 E0= -.33429037E+02  EK= 0.24915E+01 SP= 0.11E+01 SK= 0.11E+00 mag=     -0.107
       N       E                     dE             d eps       ncg     rms          rms(c)
DAV:   1    -0.334497510244E+02    0.24938E-01   -0.14076E-02  2552   0.110E+00    0.622E-02
RMM:   2    -0.334504912338E+02   -0.74021E-03   -0.44277E-03  1558   0.297E-01
    846 T=   769. E= -.29794188E+02 F= -.33450491E+02 E0= -.33403638E+02  EK= 0.25838E+01 SP= 0.96E+00 SK= 0.11E+00 mag=     -0.049
       N       E                     dE             d eps       ncg     rms          rms(c)
DAV:   1    -0.334217441303E+02    0.28007E-01   -0.15002E-02  2680   0.105E+00    0.660E-02
RMM:   2    -0.334224940348E+02   -0.74990E-03   -0.45151E-03  1565   0.293E-01
    847 T=   797. E= -.29791240E+02 F= -.33422494E+02 E0= -.33375397E+02  EK= 0.26798E+01 SP= 0.84E+00 SK= 0.12E+00 mag=      0.058
       N       E                     dE             d eps       ncg     rms          rms(c)
DAV:   1    -0.333903082854E+02    0.31436E-01   -0.15221E-02  2496   0.113E+00    0.704E-02
RMM:   2    -0.333912439182E+02   -0.93563E-03   -0.49944E-03  1601   0.308E-01
    848 T=   827. E= -.29787680E+02 F= -.33391244E+02 E0= -.33344190E+02  EK= 0.27777E+01 SP= 0.71E+00 SK= 0.11E+00 mag=      0.162
       N       E                     dE             d eps       ncg     rms          rms(c)
DAV:   1    -0.333560517741E+02    0.34257E-01   -0.16250E-02  2688   0.109E+00    0.830E-02
RMM:   2    -0.333570984077E+02   -0.10466E-02   -0.49206E-03  1571   0.294E-01
    849 T=   855. E= -.29784450E+02 F= -.33357098E+02 E0= -.33310170E+02  EK= 0.28746E+01 SP= 0.59E+00 SK= 0.11E+00 mag=      0.179
       N       E                     dE             d eps       ncg     rms          rms(c)
DAV:   1    -0.333195048719E+02    0.36547E-01   -0.16779E-02  2536   0.114E+00    0.673E-02
RMM:   2    -0.333204023550E+02   -0.89748E-03   -0.46863E-03  1562   0.309E-01
    850 T=   883. E= -.29782034E+02 F= -.33320402E+02 E0= -.33273405E+02  EK= 0.29675E+01 SP= 0.47E+00 SK= 0.97E-01 mag=      0.082
       N       E                     dE             d eps       ncg     rms          rms(c)
DAV:   1    -0.332786259043E+02    0.40879E-01   -0.19275E-02  2720   0.113E+00    0.881E-02
RMM:   2    -0.332796390602E+02   -0.10132E-02   -0.56809E-03  1596   0.305E-01
    851 T=   908. E= -.29778883E+02 F= -.33279639E+02 E0= -.33232964E+02  EK= 0.30532E+01 SP= 0.36E+00 SK= 0.84E-01 mag=     -0.093
       N       E                     dE             d eps       ncg     rms          rms(c)
DAV:   1    -0.332333420891E+02    0.45284E-01   -0.18415E-02  2648   0.117E+00    0.680E-02
RMM:   2    -0.332347448653E+02   -0.14028E-02   -0.55444E-03  1603   0.318E-01    0.494E-02
RMM:   3    -0.332351260856E+02   -0.38122E-03   -0.14607E-03  1424   0.121E-01
    852 T=   931. E= -.29776433E+02 F= -.33235126E+02 E0= -.33189212E+02  EK= 0.31274E+01 SP= 0.26E+00 SK= 0.69E-01 mag=     -0.147
       N       E                     dE             d eps       ncg     rms          rms(c)
DAV:   1    -0.331870710991E+02    0.47674E-01   -0.22798E-02  2592   0.114E+00    0.687E-02
RMM:   2    -0.331880435007E+02   -0.97240E-03   -0.37146E-03  1551   0.288E-01
    853 T=   950. E= -.29771326E+02 F= -.33188044E+02 E0= -.33142423E+02  EK= 0.31915E+01 SP= 0.17E+00 SK= 0.54E-01 mag=     -0.056
       N       E                     dE             d eps       ncg     rms          rms(c)
DAV:   1    -0.331354183639E+02    0.51653E-01   -0.29793E-02  3024   0.128E+00    0.579E-02
RMM:   2    -0.331366658271E+02   -0.12475E-02   -0.49710E-03  1615   0.264E-01
    854 T=   964. E= -.29766346E+02 F= -.33136666E+02 E0= -.33091887E+02  EK= 0.32383E+01 SP= 0.94E-01 SK= 0.38E-01 mag=      0.113
       N       E                     dE             d eps       ncg     rms          rms(c)
DAV:   1    -0.330808405433E+02    0.54578E-01   -0.14105E-02  2152   0.109E+00    0.662E-02
RMM:   2    -0.330822701130E+02   -0.14296E-02   -0.58703E-03  1609   0.341E-01    0.448E-02
RMM:   3    -0.330828044214E+02   -0.53431E-03   -0.18887E-03  1443   0.131E-01
    855 T=   971. E= -.29765139E+02 F= -.33082804E+02 E0= -.33039028E+02  EK= 0.32636E+01 SP= 0.29E-01 SK= 0.25E-01 mag=      0.142
       N       E                     dE             d eps       ncg     rms          rms(c)
DAV:   1    -0.330247202773E+02    0.57550E-01   -0.26847E-02  2664   0.121E+00    0.515E-02
RMM:   2    -0.330257384394E+02   -0.10182E-02   -0.34508E-03  1520   0.257E-01
    856 T=   974. E= -.29760381E+02 F= -.33025738E+02 E0= -.32982715E+02  EK= 0.32724E+01 SP= -.21E-01 SK= 0.14E-01 mag=      0.029
       N       E                     dE             d eps       ncg     rms          rms(c)
DAV:   1    -0.329634672698E+02    0.61253E-01   -0.25877E-02  2968   0.128E+00    0.630E-02
RMM:   2    -0.329648976669E+02   -0.14304E-02   -0.51372E-03  1583   0.260E-01    0.441E-02
RMM:   3    -0.329654272831E+02   -0.52962E-03   -0.13533E-03  1394   0.109E-01
    857 T=   970. E= -.29756347E+02 F= -.32965427E+02 E0= -.32923530E+02  EK= 0.32597E+01 SP= -.57E-01 SK= 0.63E-02 mag=     -0.068
       N       E                     dE             d eps       ncg     rms          rms(c)
DAV:   1    -0.329017455604E+02    0.63152E-01   -0.21494E-02  2440   0.108E+00    0.603E-02
RMM:   2    -0.329029886969E+02   -0.12431E-02   -0.43167E-03  1525   0.277E-01
    858 T=   961. E= -.29750295E+02 F= -.32902989E+02 E0= -.32862235E+02  EK= 0.32296E+01 SP= -.79E-01 SK= 0.17E-02 mag=     -0.106
       N       E                     dE             d eps       ncg     rms          rms(c)
DAV:   1    -0.328363630861E+02    0.65382E-01   -0.34798E-02  3000   0.126E+00    0.699E-02
RMM:   2    -0.328379210129E+02   -0.15579E-02   -0.50059E-03  1601   0.258E-01    0.486E-02
RMM:   3    -0.328386509752E+02   -0.72996E-03   -0.16749E-03  1419   0.106E-01
    859 T=   947. E= -.29744319E+02 F= -.32838651E+02 E0= -.32799007E+02  EK= 0.31813E+01 SP= -.87E-01 SK= 0.42E-04 mag=     -0.036
       N       E                     dE             d eps       ncg     rms          rms(c)
DAV:   1    -0.327707807450E+02    0.67140E-01   -0.18705E-02  2176   0.105E+00    0.768E-02
RMM:   2    -0.327723058374E+02   -0.15251E-02   -0.39375E-03  1590   0.274E-01    0.514E-02
RMM:   3    -0.327727489291E+02   -0.44309E-03   -0.11576E-03  1341   0.106E-01
    860 T=   927. E= -.29740813E+02 F= -.32772749E+02 E0= -.32734273E+02  EK= 0.31147E+01 SP= -.83E-01 SK= 0.61E-03 mag=      0.059
       N       E                     dE             d eps       ncg     rms          rms(c)
DAV:   1    -0.327048885070E+02    0.67417E-01   -0.31591E-02  2648   0.112E+00    0.512E-02
RMM:   2    -0.327058702954E+02   -0.98179E-03   -0.40931E-03  1583   0.268E-01
    861 T=   904. E= -.29734640E+02 F= -.32705870E+02 E0= -.32668608E+02  EK= 0.30378E+01 SP= -.69E-01 SK= 0.26E-02 mag=      0.104
       N       E                     dE             d eps       ncg     rms          rms(c)
DAV:   1    -0.326374238321E+02    0.67465E-01   -0.21919E-02  2776   0.115E+00    0.431E-02
RMM:   2    -0.326383904841E+02   -0.96665E-03   -0.44821E-03  1561   0.258E-01
    862 T=   877. E= -.29730799E+02 F= -.32638390E+02 E0= -.32602246E+02  EK= 0.29487E+01 SP= -.46E-01 SK= 0.51E-02 mag=      0.062
       N       E                     dE             d eps       ncg     rms          rms(c)
DAV:   1    -0.325704568932E+02    0.66967E-01   -0.14490E-02  2216   0.108E+00    0.322E-02
RMM:   2    -0.325713460837E+02   -0.88919E-03   -0.46474E-03  1580   0.304E-01
    863 T=   850. E= -.29725943E+02 F= -.32571346E+02 E0= -.32536256E+02  EK= 0.28550E+01 SP= -.17E-01 SK= 0.74E-02 mag=     -0.038
       N       E                     dE             d eps       ncg     rms          rms(c)
DAV:   1    -0.325040564143E+02    0.66400E-01   -0.22244E-02  2752   0.115E+00    0.483E-02
RMM:   2    -0.325050955498E+02   -0.10391E-02   -0.47662E-03  1585   0.277E-01
    864 T=   821. E= -.29719652E+02 F= -.32505096E+02 E0= -.32471160E+02  EK= 0.27603E+01 SP= 0.16E-01 SK= 0.88E-02 mag=     -0.112
       N       E                     dE             d eps       ncg     rms          rms(c)
DAV:   1    -0.324398556508E+02    0.64201E-01   -0.12777E-02  2352   0.101E+00    0.462E-02
RMM:   2    -0.324408920645E+02   -0.10364E-02   -0.43329E-03  1552   0.285E-01
    865 T=   793. E= -.29714752E+02 F= -.32440892E+02 E0= -.32407987E+02  EK= 0.26655E+01 SP= 0.51E-01 SK= 0.91E-02 mag=     -0.097
       N       E                     dE             d eps       ncg     rms          rms(c)
DAV:   1    -0.323788278684E+02    0.61028E-01   -0.16085E-02  2600   0.108E+00    0.338E-02
RMM:   2    -0.323795514382E+02   -0.72357E-03   -0.39025E-03  1529   0.257E-01
    866 T=   766. E= -.29710274E+02 F= -.32379551E+02 E0= -.32347469E+02  EK= 0.25750E+01 SP= 0.86E-01 SK= 0.83E-02 mag=     -0.006
       N       E                     dE             d eps       ncg     rms          rms(c)
DAV:   1    -0.323195015600E+02    0.59326E-01   -0.13536E-02  2304   0.995E-01    0.432E-02
RMM:   2    -0.323204162906E+02   -0.91473E-03   -0.46841E-03  1550   0.290E-01
    867 T=   741. E= -.29705138E+02 F= -.32320416E+02 E0= -.32289280E+02  EK= 0.24910E+01 SP= 0.12E+00 SK= 0.65E-02 mag=      0.102
       N       E                     dE             d eps       ncg     rms          rms(c)
DAV:   1    -0.322633223802E+02    0.56179E-01   -0.17086E-02  2592   0.103E+00    0.656E-02
RMM:   2    -0.322647099948E+02   -0.13876E-02   -0.47366E-03  1527   0.263E-01    0.502E-02
RMM:   3    -0.322656036816E+02   -0.89369E-03   -0.21686E-03  1408   0.110E-01
    868 T=   719. E= -.29701183E+02 F= -.32265604E+02 E0= -.32235290E+02  EK= 0.24156E+01 SP= 0.14E+00 SK= 0.42E-02 mag=      0.036
       N       E                     dE             d eps       ncg     rms          rms(c)
DAV:   1    -0.322133887956E+02    0.51321E-01   -0.19731E-02  2448   0.957E-01    0.667E-02
RMM:   2    -0.322145288815E+02   -0.11401E-02   -0.29270E-03  1453   0.239E-01
    869 T=   700. E= -.29695860E+02 F= -.32214529E+02 E0= -.32185014E+02  EK= 0.23520E+01 SP= 0.16E+00 SK= 0.19E-02 mag=     -0.089
       N       E                     dE             d eps       ncg     rms          rms(c)
DAV:   1    -0.321663132313E+02    0.47076E-01   -0.32828E-02  2736   0.107E+00    0.713E-02
RMM:   2    -0.321678849289E+02   -0.15717E-02   -0.47185E-03  1529   0.245E-01    0.564E-02
RMM:   3    -0.321685286186E+02   -0.64369E-03   -0.12799E-03  1459   0.964E-02
    870 T=   684. E= -.29691383E+02 F= -.32168529E+02 E0= -.32139772E+02  EK= 0.23002E+01 SP= 0.18E+00 SK= 0.37E-03 mag=     -0.046
       N       E                     dE             d eps       ncg     rms          rms(c)
DAV:   1    -0.321269710492E+02    0.40914E-01   -0.20061E-02  2448   0.939E-01    0.579E-02
RMM:   2    -0.321280643259E+02   -0.10933E-02   -0.39709E-03  1446   0.231E-01
    871 T=   673. E= -.29688314E+02 F= -.32128064E+02 E0= -.32099880E+02  EK= 0.22608E+01 SP= 0.18E+00 SK= 0.70E-04 mag=      0.101
       N       E                     dE             d eps       ncg     rms          rms(c)
DAV:   1    -0.320888294198E+02    0.38142E-01   -0.31366E-02  2712   0.103E+00    0.964E-02
RMM:   2    -0.320909859181E+02   -0.21565E-02   -0.54402E-03  1549   0.255E-01    0.707E-02
RMM:   3    -0.320929902300E+02   -0.20043E-02   -0.35886E-03  1403   0.121E-01    0.365E-02
RMM:   4    -0.320934628393E+02   -0.47261E-03   -0.13156E-03  1385   0.756E-02
    872 T=   665. E= -.29685874E+02 F= -.32093463E+02 E0= -.32065855E+02  EK= 0.22356E+01 SP= 0.17E+00 SK= 0.15E-02 mag=      0.008
       N       E                     dE             d eps       ncg     rms          rms(c)
DAV:   1    -0.320598976245E+02    0.33093E-01   -0.18789E-02  2312   0.905E-01    0.997E-02
RMM:   2    -0.320620334625E+02   -0.21358E-02   -0.53975E-03  1457   0.245E-01    0.719E-02
RMM:   3    -0.320638174861E+02   -0.17840E-02   -0.34964E-03  1400   0.104E-01    0.385E-02
RMM:   4    -0.320643325225E+02   -0.51504E-03   -0.11852E-03  1375   0.712E-02
    873 T=   662. E= -.29684288E+02 F= -.32064333E+02 E0= -.32037315E+02  EK= 0.22242E+01 SP= 0.15E+00 SK= 0.48E-02 mag=     -0.017
       N       E                     dE             d eps       ncg     rms          rms(c)
DAV:   1    -0.320405674658E+02    0.23250E-01   -0.11976E-02  2608   0.954E-01    0.453E-02
RMM:   2    -0.320411361897E+02   -0.56872E-03   -0.26238E-03  1428   0.201E-01
    874 T=   664. E= -.29681012E+02 F= -.32041136E+02 E0= -.32014665E+02  EK= 0.22300E+01 SP= 0.12E+00 SK= 0.10E-01 mag=      0.003
       N       E                     dE             d eps       ncg     rms          rms(c)
DAV:   1    -0.320233304394E+02    0.17237E-01   -0.10169E-02  2400   0.944E-01    0.381E-02
RMM:   2    -0.320240431858E+02   -0.71275E-03   -0.40026E-03  1537   0.249E-01
    875 T=   670. E= -.29677928E+02 F= -.32024043E+02 E0= -.31998108E+02  EK= 0.22512E+01 SP= 0.78E-01 SK= 0.17E-01 mag=      0.033
       N       E                     dE             d eps       ncg     rms          rms(c)
DAV:   1    -0.320126612728E+02    0.10669E-01   -0.90023E-03  2176   0.965E-01    0.316E-02
RMM:   2    -0.320132765420E+02   -0.61527E-03   -0.34710E-03  1536   0.257E-01
    876 T=   681. E= -.29674550E+02 F= -.32013277E+02 E0= -.31987864E+02  EK= 0.22887E+01 SP= 0.25E-01 SK= 0.25E-01 mag=      0.047
       N       E                     dE             d eps       ncg     rms          rms(c)
DAV:   1    -0.320081746424E+02    0.44866E-02   -0.12919E-02  2472   0.987E-01    0.361E-02
RMM:   2    -0.320088433952E+02   -0.66875E-03   -0.38302E-03  1520   0.260E-01
    877 T=   697. E= -.29670118E+02 F= -.32008843E+02 E0= -.31983894E+02  EK= 0.23430E+01 SP= -.38E-01 SK= 0.34E-01 mag=      0.035
       N       E                     dE             d eps       ncg     rms          rms(c)
DAV:   1    -0.320095870800E+02   -0.14124E-02   -0.91189E-03  2248   0.976E-01    0.340E-02
RMM:   2    -0.320103062352E+02   -0.71916E-03   -0.40120E-03  1525   0.273E-01
    878 T=   718. E= -.29665316E+02 F= -.32010306E+02 E0= -.31985776E+02  EK= 0.24125E+01 SP= -.11E+00 SK= 0.42E-01 mag=      0.002
       N       E                     dE             d eps       ncg     rms          rms(c)
DAV:   1    -0.320162616358E+02   -0.66746E-02   -0.11615E-02  2496   0.102E+00    0.316E-02
RMM:   2    -0.320169322750E+02   -0.67064E-03   -0.41215E-03  1533   0.272E-01
    879 T=   743. E= -.29660330E+02 F= -.32016932E+02 E0= -.31992835E+02  EK= 0.24957E+01 SP= -.19E+00 SK= 0.49E-01 mag=     -0.038
       N       E                     dE             d eps       ncg     rms          rms(c)
DAV:   1    -0.320271893128E+02   -0.10928E-01   -0.12204E-02  2440   0.103E+00    0.415E-02
RMM:   2    -0.320281425191E+02   -0.95321E-03   -0.48029E-03  1579   0.289E-01
    880 T=   771. E= -.29655327E+02 F= -.32028143E+02 E0= -.32004450E+02  EK= 0.25905E+01 SP= -.27E+00 SK= 0.54E-01 mag=     -0.048
       N       E                     dE             d eps       ncg     rms          rms(c)
DAV:   1    -0.320433867802E+02   -0.16197E-01   -0.13623E-02  2528   0.108E+00    0.372E-02
RMM:   2    -0.320441028923E+02   -0.71611E-03   -0.42364E-03  1538   0.284E-01
    881 T=   802. E= -.29651132E+02 F= -.32044103E+02 E0= -.32020690E+02  EK= 0.26946E+01 SP= -.36E+00 SK= 0.55E-01 mag=     -0.015
       N       E                     dE             d eps       ncg     rms          rms(c)
DAV:   1    -0.320620707848E+02   -0.18684E-01   -0.12666E-02  2432   0.110E+00    0.340E-02
RMM:   2    -0.320629181300E+02   -0.84735E-03   -0.48780E-03  1540   0.303E-01
    882 T=   835. E= -.29646233E+02 F= -.32062918E+02 E0= -.32039808E+02  EK= 0.28056E+01 SP= -.44E+00 SK= 0.53E-01 mag=      0.040
       N       E                     dE             d eps       ncg     rms          rms(c)
DAV:   1    -0.320830455080E+02   -0.20975E-01   -0.13127E-02  2456   0.114E+00    0.456E-02
RMM:   2    -0.320841877504E+02   -0.11422E-02   -0.56718E-03  1605   0.307E-01
    883 T=   869. E= -.29640818E+02 F= -.32084188E+02 E0= -.32061379E+02  EK= 0.29200E+01 SP= -.52E+00 SK= 0.48E-01 mag=      0.070
       N       E                     dE             d eps       ncg     rms          rms(c)
DAV:   1    -0.321065255738E+02   -0.23480E-01   -0.15802E-02  2592   0.117E+00    0.391E-02
RMM:   2    -0.321074758687E+02   -0.95029E-03   -0.48204E-03  1563   0.313E-01
    884 T=   902. E= -.29636721E+02 F= -.32107476E+02 E0= -.32084830E+02  EK= 0.30323E+01 SP= -.60E+00 SK= 0.40E-01 mag=      0.042
       N       E                     dE             d eps       ncg     rms          rms(c)
DAV:   1    -0.321303493783E+02   -0.23824E-01   -0.15318E-02  2504   0.119E+00    0.312E-02
RMM:   2    -0.321312460579E+02   -0.89668E-03   -0.51449E-03  1564   0.317E-01
    885 T=   934. E= -.29632828E+02 F= -.32131246E+02 E0= -.32108723E+02  EK= 0.31382E+01 SP= -.67E+00 SK= 0.30E-01 mag=     -0.028
       N       E                     dE             d eps       ncg     rms          rms(c)
DAV:   1    -0.321525787471E+02   -0.22229E-01   -0.17946E-02  2712   0.122E+00    0.515E-02
RMM:   2    -0.321538860017E+02   -0.13073E-02   -0.55072E-03  1568   0.315E-01
    886 T=   962. E= -.29627731E+02 F= -.32153886E+02 E0= -.32131535E+02  EK= 0.32336E+01 SP= -.73E+00 SK= 0.19E-01 mag=     -0.074
       N       E                     dE             d eps       ncg     rms          rms(c)
DAV:   1    -0.321748062715E+02   -0.22228E-01   -0.18251E-02  2712   0.126E+00    0.445E-02
RMM:   2    -0.321759611829E+02   -0.11549E-02   -0.54749E-03  1579   0.327E-01
    887 T=   986. E= -.29623236E+02 F= -.32175961E+02 E0= -.32153602E+02  EK= 0.33133E+01 SP= -.77E+00 SK= 0.98E-02 mag=     -0.057
       N       E                     dE             d eps       ncg     rms          rms(c)
DAV:   1    -0.321950915492E+02   -0.20285E-01   -0.17185E-02  2568   0.124E+00    0.341E-02
RMM:   2    -0.321961336801E+02   -0.10421E-02   -0.58395E-03  1594   0.337E-01
    888 T=  1004. E= -.29619295E+02 F= -.32196134E+02 E0= -.32173699E+02  EK= 0.33726E+01 SP= -.80E+00 SK= 0.30E-02 mag=      0.014
       N       E                     dE             d eps       ncg     rms          rms(c)
DAV:   1    -0.322112586485E+02   -0.16167E-01   -0.18833E-02  2784   0.128E+00    0.490E-02
RMM:   2    -0.322126290702E+02   -0.13704E-02   -0.59483E-03  1582   0.329E-01    0.364E-02
RMM:   3    -0.322130836822E+02   -0.45461E-03   -0.16954E-03  1449   0.126E-01
    889 T=  1014. E= -.29615527E+02 F= -.32213084E+02 E0= -.32190627E+02  EK= 0.34078E+01 SP= -.81E+00 SK= 0.52E-04 mag=      0.040
       N       E                     dE             d eps       ncg     rms          rms(c)
DAV:   1    -0.322264493193E+02   -0.13820E-01   -0.17335E-02  2632   0.125E+00    0.369E-02
RMM:   2    -0.322273979705E+02   -0.94865E-03   -0.45408E-03  1541   0.300E-01
    890 T=  1018. E= -.29608513E+02 F= -.32227398E+02 E0= -.32204761E+02  EK= 0.34211E+01 SP= -.80E+00 SK= 0.18E-02 mag=      0.013
       N       E                     dE             d eps       ncg     rms          rms(c)
DAV:   1    -0.322374294194E+02   -0.10980E-01   -0.27987E-02  2992   0.139E+00    0.389E-02
RMM:   2    -0.322384410242E+02   -0.10116E-02   -0.48482E-03  1579   0.272E-01
    891 T=  1014. E= -.29602109E+02 F= -.32238441E+02 E0= -.32215640E+02  EK= 0.34077E+01 SP= -.78E+00 SK= 0.83E-02 mag=     -0.036
       N       E                     dE             d eps       ncg     rms          rms(c)
DAV:   1    -0.322451263788E+02   -0.76970E-02   -0.11470E-02  2120   0.119E+00    0.402E-02
RMM:   2    -0.322461902153E+02   -0.10638E-02   -0.49337E-03  1606   0.326E-01
    892 T=  1002. E= -.29597889E+02 F= -.32246190E+02 E0= -.32223205E+02  EK= 0.33668E+01 SP= -.74E+00 SK= 0.19E-01 mag=     -0.063
       N       E                     dE             d eps       ncg     rms          rms(c)
DAV:   1    -0.322496550538E+02   -0.45287E-02   -0.26719E-02  2944   0.140E+00    0.395E-02
RMM:   2    -0.322508103862E+02   -0.11553E-02   -0.56396E-03  1616   0.324E-01
    893 T=   983. E= -.29593058E+02 F= -.32250810E+02 E0= -.32227534E+02  EK= 0.33034E+01 SP= -.68E+00 SK= 0.33E-01 mag=     -0.040
       N       E                     dE             d eps       ncg     rms          rms(c)
DAV:   1    -0.322522101793E+02   -0.25551E-02   -0.16124E-02  2680   0.118E+00    0.318E-02
RMM:   2    -0.322531990004E+02   -0.98882E-03   -0.54717E-03  1581   0.337E-01
    894 T=   958. E= -.29588619E+02 F= -.32253199E+02 E0= -.32229591E+02  EK= 0.32206E+01 SP= -.60E+00 SK= 0.49E-01 mag=      0.019
       N       E                     dE             d eps       ncg     rms          rms(c)
DAV:   1    -0.322519637735E+02    0.24641E-03   -0.21347E-02  2840   0.127E+00    0.410E-02
RMM:   2    -0.322530985883E+02   -0.11348E-02   -0.56018E-03  1620   0.305E-01
    895 T=   929. E= -.29583197E+02 F= -.32253099E+02 E0= -.32229238E+02  EK= 0.31234E+01 SP= -.52E+00 SK= 0.64E-01 mag=      0.063
       N       E                     dE             d eps       ncg     rms          rms(c)
DAV:   1    -0.322510244937E+02    0.93928E-03   -0.17713E-02  2864   0.119E+00    0.445E-02
RMM:   2    -0.322521062860E+02   -0.10818E-02   -0.51541E-03  1569   0.320E-01
    896 T=   897. E= -.29578767E+02 F= -.32252106E+02 E0= -.32227890E+02  EK= 0.30153E+01 SP= -.42E+00 SK= 0.78E-01 mag=      0.058
       N       E                     dE             d eps       ncg     rms          rms(c)
DAV:   1    -0.322501821438E+02    0.84235E-03   -0.16704E-02  2872   0.122E+00    0.335E-02
RMM:   2    -0.322511013750E+02   -0.91923E-03   -0.50529E-03  1581   0.306E-01
    897 T=   863. E= -.29574820E+02 F= -.32251101E+02 E0= -.32226461E+02  EK= 0.29019E+01 SP= -.31E+00 SK= 0.89E-01 mag=      0.002
       N       E                     dE             d eps       ncg     rms          rms(c)
DAV:   1    -0.322491193593E+02    0.10628E-02   -0.14842E-02  2624   0.114E+00    0.370E-02
RMM:   2    -0.322500294247E+02   -0.91007E-03   -0.50575E-03  1578   0.312E-01
    898 T=   829. E= -.29570509E+02 F= -.32250029E+02 E0= -.32225071E+02  EK= 0.27877E+01 SP= -.20E+00 SK= 0.95E-01 mag=     -0.063
       N       E                     dE             d eps       ncg     rms          rms(c)
DAV:   1    -0.322482453675E+02    0.87399E-03   -0.18080E-02  2832   0.115E+00    0.528E-02
RMM:   2    -0.322494916870E+02   -0.12463E-02   -0.51213E-03  1538   0.297E-01
    899 T=   797. E= -.29565415E+02 F= -.32249492E+02 E0= -.32224223E+02  EK= 0.26769E+01 SP= -.90E-01 SK= 0.97E-01 mag=     -0.071
       N       E                     dE             d eps       ncg     rms          rms(c)
DAV:   1    -0.322512829963E+02   -0.30376E-02   -0.15562E-02  2840   0.115E+00    0.341E-02
RMM:   2    -0.322520349155E+02   -0.75192E-03   -0.47915E-03  1559   0.316E-01
    900 T=   766. E= -.29561594E+02 F= -.32252035E+02 E0= -.32226240E+02  EK= 0.25728E+01 SP= 0.23E-01 SK= 0.94E-01 mag=     -0.013
       N       E                     dE             d eps       ncg     rms          rms(c)
DAV:   1    -0.322551651429E+02   -0.38821E-02   -0.18807E-02  2744   0.106E+00    0.385E-02
RMM:   2    -0.322560450742E+02   -0.87993E-03   -0.48665E-03  1546   0.301E-01
    901 T=   737. E= -.29556825E+02 F= -.32256045E+02 E0= -.32229910E+02  EK= 0.24779E+01 SP= 0.13E+00 SK= 0.87E-01 mag=      0.061
       N       E                     dE             d eps       ncg     rms          rms(c)
DAV:   1    -0.322614455249E+02   -0.62804E-02   -0.12608E-02  2504   0.108E+00    0.537E-02
RMM:   2    -0.322626275399E+02   -0.11820E-02   -0.52040E-03  1579   0.288E-01
    902 T=   712. E= -.29552128E+02 F= -.32262628E+02 E0= -.32236182E+02  EK= 0.23939E+01 SP= 0.24E+00 SK= 0.78E-01 mag=      0.088
       N       E                     dE             d eps       ncg     rms          rms(c)
DAV:   1    -0.322727349211E+02   -0.11289E-01   -0.12090E-02  2784   0.103E+00    0.408E-02
RMM:   2    -0.322735363666E+02   -0.80145E-03   -0.41023E-03  1537   0.288E-01
    903 T=   691. E= -.29548511E+02 F= -.32273536E+02 E0= -.32246589E+02  EK= 0.23225E+01 SP= 0.34E+00 SK= 0.66E-01 mag=      0.041
       N       E                     dE             d eps       ncg     rms          rms(c)
DAV:   1    -0.322869666851E+02   -0.14232E-01   -0.11474E-02  2352   0.102E+00    0.288E-02
RMM:   2    -0.322876460093E+02   -0.67932E-03   -0.44661E-03  1555   0.288E-01
    904 T=   674. E= -.29544178E+02 F= -.32287646E+02 E0= -.32260283E+02  EK= 0.22651E+01 SP= 0.43E+00 SK= 0.53E-01 mag=     -0.047
       N       E                     dE             d eps       ncg     rms          rms(c)
DAV:   1    -0.323034154989E+02   -0.16449E-01   -0.15343E-02  2528   0.989E-01    0.596E-02
RMM:   2    -0.323046733713E+02   -0.12579E-02   -0.49282E-03  1523   0.281E-01
    905 T=   661. E= -.29538370E+02 F= -.32304673E+02 E0= -.32277061E+02  EK= 0.22224E+01 SP= 0.50E+00 SK= 0.40E-01 mag=     -0.093
       N       E                     dE             d eps       ncg     rms          rms(c)
DAV:   1    -0.323265921513E+02   -0.23177E-01   -0.12771E-02  2576   0.103E+00    0.474E-02
RMM:   2    -0.323274693217E+02   -0.87717E-03   -0.42202E-03  1534   0.286E-01
    906 T=   653. E= -.29534001E+02 F= -.32327469E+02 E0= -.32299340E+02  EK= 0.21946E+01 SP= 0.57E+00 SK= 0.28E-01 mag=     -0.060
       N       E                     dE             d eps       ncg     rms          rms(c)
DAV:   1    -0.323532557228E+02   -0.26664E-01   -0.13307E-02  2408   0.960E-01    0.305E-02
RMM:   2    -0.323538777316E+02   -0.62201E-03   -0.41422E-03  1524   0.281E-01
    907 T=   649. E= -.29529837E+02 F= -.32353878E+02 E0= -.32325270E+02  EK= 0.21806E+01 SP= 0.63E+00 SK= 0.18E-01 mag=      0.030
       N       E                     dE             d eps       ncg     rms          rms(c)
DAV:   1    -0.323814878918E+02   -0.28232E-01   -0.11392E-02  2384   0.988E-01    0.572E-02
RMM:   2    -0.323826253012E+02   -0.11374E-02   -0.47770E-03  1519   0.275E-01
    908 T=   649. E= -.29524583E+02 F= -.32382625E+02 E0= -.32353766E+02  EK= 0.21804E+01 SP= 0.67E+00 SK= 0.97E-02 mag=      0.101
       N       E                     dE             d eps       ncg     rms          rms(c)
DAV:   1    -0.324144778760E+02   -0.32990E-01   -0.11876E-02  2512   0.996E-01    0.614E-02
RMM:   2    -0.324156952265E+02   -0.12174E-02   -0.44019E-03  1524   0.286E-01
    909 T=   653. E= -.29519436E+02 F= -.32415695E+02 E0= -.32386421E+02  EK= 0.21946E+01 SP= 0.70E+00 SK= 0.42E-02 mag=      0.085
       N       E                     dE             d eps       ncg     rms          rms(c)
DAV:   1    -0.324522627130E+02   -0.37785E-01   -0.11261E-02  2320   0.101E+00    0.283E-02
RMM:   2    -0.324528818385E+02   -0.61913E-03   -0.43266E-03  1544   0.291E-01
    910 T=   661. E= -.29515393E+02 F= -.32452882E+02 E0= -.32423022E+02  EK= 0.22215E+01 SP= 0.71E+00 SK= 0.10E-02 mag=     -0.009
       N       E                     dE             d eps       ncg     rms          rms(c)
DAV:   1    -0.324897899004E+02   -0.37527E-01   -0.16327E-02  2520   0.968E-01    0.578E-02
RMM:   2    -0.324909373323E+02   -0.11474E-02   -0.50225E-03  1522   0.284E-01
    911 T=   672. E= -.29510111E+02 F= -.32490937E+02 E0= -.32460774E+02  EK= 0.22600E+01 SP= 0.72E+00 SK= 0.26E-05 mag=     -0.100
       N       E                     dE             d eps       ncg     rms          rms(c)
DAV:   1    -0.325298775414E+02   -0.40088E-01   -0.14851E-02  2528   0.103E+00    0.699E-02
RMM:   2    -0.325313928750E+02   -0.15153E-02   -0.50185E-03  1538   0.280E-01    0.531E-02
RMM:   3    -0.325321510193E+02   -0.75814E-03   -0.15729E-03  1457   0.112E-01
    912 T=   687. E= -.29507098E+02 F= -.32532151E+02 E0= -.32501522E+02  EK= 0.23083E+01 SP= 0.72E+00 SK= 0.66E-03 mag=     -0.022
       N       E                     dE             d eps       ncg     rms          rms(c)
DAV:   1    -0.325719180309E+02   -0.40525E-01   -0.28027E-02  2408   0.976E-01    0.793E-02
RMM:   2    -0.325736090588E+02   -0.16910E-02   -0.36267E-03  1447   0.247E-01    0.596E-02
RMM:   3    -0.325742695275E+02   -0.66047E-03   -0.10875E-03  1321   0.895E-02
    913 T=   704. E= -.29504111E+02 F= -.32574270E+02 E0= -.32543181E+02  EK= 0.23657E+01 SP= 0.70E+00 SK= 0.25E-02 mag=      0.050
       N       E                     dE             d eps       ncg     rms          rms(c)
DAV:   1    -0.326163430879E+02   -0.42734E-01   -0.43777E-02  2296   0.101E+00    0.512E-02
RMM:   2    -0.326171079460E+02   -0.76486E-03   -0.43155E-03  1530   0.283E-01
    914 T=   724. E= -.29499833E+02 F= -.32617108E+02 E0= -.32585490E+02  EK= 0.24325E+01 SP= 0.68E+00 SK= 0.48E-02 mag=      0.071
       N       E                     dE             d eps       ncg     rms          rms(c)
DAV:   1    -0.326591028617E+02   -0.42760E-01   -0.24882E-02  2560   0.104E+00    0.325E-02
RMM:   2    -0.326597841787E+02   -0.68132E-03   -0.44677E-03  1556   0.275E-01
    915 T=   745. E= -.29496628E+02 F= -.32659784E+02 E0= -.32627599E+02  EK= 0.25045E+01 SP= 0.65E+00 SK= 0.71E-02 mag=      0.024
       N       E                     dE             d eps       ncg     rms          rms(c)
DAV:   1    -0.327003488874E+02   -0.41246E-01   -0.14325E-02  2496   0.102E+00    0.332E-02
RMM:   2    -0.327009931348E+02   -0.64425E-03   -0.39387E-03  1537   0.291E-01
    916 T=   768. E= -.29493443E+02 F= -.32700993E+02 E0= -.32668262E+02  EK= 0.25800E+01 SP= 0.62E+00 SK= 0.88E-02 mag=     -0.049
       N       E                     dE             d eps       ncg     rms          rms(c)
DAV:   1    -0.327384184753E+02   -0.38070E-01   -0.16627E-02  2368   0.116E+00    0.503E-02
RMM:   2    -0.327394072329E+02   -0.98876E-03   -0.45822E-03  1540   0.279E-01
    917 T=   791. E= -.29488196E+02 F= -.32739407E+02 E0= -.32706208E+02  EK= 0.26584E+01 SP= 0.58E+00 SK= 0.98E-02 mag=     -0.083
       N       E                     dE             d eps       ncg     rms          rms(c)
DAV:   1    -0.327749355423E+02   -0.36517E-01   -0.10825E-02  2360   0.105E+00    0.364E-02
RMM:   2    -0.327756799157E+02   -0.74437E-03   -0.40488E-03  1536   0.296E-01
    918 T=   814. E= -.29482810E+02 F= -.32775680E+02 E0= -.32741801E+02  EK= 0.27365E+01 SP= 0.55E+00 SK= 0.96E-02 mag=     -0.049
       N       E                     dE             d eps       ncg     rms          rms(c)
DAV:   1    -0.328072277591E+02   -0.32292E-01   -0.14347E-02  2496   0.115E+00    0.334E-02
RMM:   2    -0.328078729381E+02   -0.64518E-03   -0.41989E-03  1538   0.287E-01
    919 T=   836. E= -.29477007E+02 F= -.32807873E+02 E0= -.32773290E+02  EK= 0.28108E+01 SP= 0.51E+00 SK= 0.85E-02 mag=      0.030
       N       E                     dE             d eps       ncg     rms          rms(c)
DAV:   1    -0.328333603369E+02   -0.26133E-01   -0.13312E-02  2216   0.109E+00    0.469E-02
RMM:   2    -0.328344305665E+02   -0.10702E-02   -0.52009E-03  1548   0.306E-01
    920 T=   856. E= -.29470498E+02 F= -.32834431E+02 E0= -.32799263E+02  EK= 0.28779E+01 SP= 0.48E+00 SK= 0.67E-02 mag=      0.100
       N       E                     dE             d eps       ncg     rms          rms(c)
DAV:   1    -0.328545179445E+02   -0.21158E-01   -0.16082E-02  2744   0.117E+00    0.566E-02
RMM:   2    -0.328557645496E+02   -0.12466E-02   -0.50380E-03  1562   0.300E-01
    921 T=   873. E= -.29464709E+02 F= -.32855765E+02 E0= -.32819903E+02  EK= 0.29347E+01 SP= 0.45E+00 SK= 0.45E-02 mag=      0.086
       N       E                     dE             d eps       ncg     rms          rms(c)
DAV:   1    -0.328708214941E+02   -0.16304E-01   -0.16186E-02  2392   0.113E+00    0.329E-02
RMM:   2    -0.328716539238E+02   -0.83243E-03   -0.57045E-03  1612   0.328E-01
    922 T=   886. E= -.29459947E+02 F= -.32871654E+02 E0= -.32834807E+02  EK= 0.29789E+01 SP= 0.43E+00 SK= 0.24E-02 mag=     -0.008
       N       E                     dE             d eps       ncg     rms          rms(c)
DAV:   1    -0.328776665284E+02   -0.68450E-02   -0.24577E-02  2760   0.116E+00    0.606E-02
RMM:   2    -0.328790660710E+02   -0.13995E-02   -0.63722E-03  1567   0.315E-01    0.451E-02
RMM:   3    -0.328797261673E+02   -0.66010E-03   -0.19796E-03  1472   0.122E-01
    923 T=   895. E= -.29454901E+02 F= -.32879726E+02 E0= -.32842126E+02  EK= 0.30078E+01 SP= 0.42E+00 SK= 0.80E-03 mag=     -0.059
       N       E                     dE             d eps       ncg     rms          rms(c)
DAV:   1    -0.328807612573E+02   -0.16952E-02   -0.14114E-02  2544   0.112E+00    0.432E-02
RMM:   2    -0.328813942466E+02   -0.63299E-03   -0.30614E-03  1523   0.268E-01
    924 T=   899. E= -.29449073E+02 F= -.32881394E+02 E0= -.32842842E+02  EK= 0.30225E+01 SP= 0.41E+00 SK= 0.39E-04 mag=     -0.037
       N       E                     dE             d eps       ncg     rms          rms(c)
DAV:   1    -0.328747811646E+02    0.59801E-02   -0.21095E-02  2984   0.123E+00    0.390E-02
RMM:   2    -0.328755644865E+02   -0.78332E-03   -0.40444E-03  1541   0.252E-01
    925 T=   899. E= -.29443224E+02 F= -.32875564E+02 E0= -.32836113E+02  EK= 0.30204E+01 SP= 0.41E+00 SK= 0.27E-03 mag=      0.035
       N       E                     dE             d eps       ncg     rms          rms(c)
DAV:   1    -0.328615273263E+02    0.13254E-01   -0.87003E-03  1736   0.107E+00    0.446E-02
RMM:   2    -0.328625567660E+02   -0.10294E-02   -0.54250E-03  1557   0.317E-01
    926 T=   893. E= -.29437624E+02 F= -.32862557E+02 E0= -.32822293E+02  EK= 0.30018E+01 SP= 0.42E+00 SK= 0.15E-02 mag=      0.099
       N       E                     dE             d eps       ncg     rms          rms(c)
DAV:   1    -0.328423050407E+02    0.19222E-01   -0.21427E-02  2976   0.125E+00    0.449E-02
RMM:   2    -0.328432912476E+02   -0.98621E-03   -0.49555E-03  1549   0.291E-01
    927 T=   883. E= -.29431714E+02 F= -.32843291E+02 E0= -.32802092E+02  EK= 0.29688E+01 SP= 0.44E+00 SK= 0.34E-02 mag=      0.093
       N       E                     dE             d eps       ncg     rms          rms(c)
DAV:   1    -0.328169244231E+02    0.25381E-01   -0.14848E-02  2280   0.108E+00    0.300E-02
RMM:   2    -0.328178322098E+02   -0.90779E-03   -0.55015E-03  1562   0.339E-01
    928 T=   870. E= -.29425649E+02 F= -.32817832E+02 E0= -.32775634E+02  EK= 0.29224E+01 SP= 0.46E+00 SK= 0.57E-02 mag=      0.007
       N       E                     dE             d eps       ncg     rms          rms(c)
DAV:   1    -0.327849859910E+02    0.31938E-01   -0.19610E-02  2848   0.118E+00    0.515E-02
RMM:   2    -0.327860713264E+02   -0.10853E-02   -0.55811E-03  1570   0.292E-01
    929 T=   853. E= -.29418360E+02 F= -.32786071E+02 E0= -.32743117E+02  EK= 0.28652E+01 SP= 0.49E+00 SK= 0.80E-02 mag=     -0.095
       N       E                     dE             d eps       ncg     rms          rms(c)
DAV:   1    -0.327488275570E+02    0.36158E-01   -0.13748E-02  2520   0.114E+00    0.501E-02
RMM:   2    -0.327499035090E+02   -0.10760E-02   -0.55626E-03  1591   0.338E-01
    930 T=   833. E= -.29411639E+02 F= -.32749904E+02 E0= -.32706167E+02  EK= 0.27991E+01 SP= 0.53E+00 SK= 0.99E-02 mag=     -0.145
       N       E                     dE             d eps       ncg     rms          rms(c)
DAV:   1    -0.327091826722E+02    0.39645E-01   -0.17838E-02  2584   0.113E+00    0.466E-02
RMM:   2    -0.327101256871E+02   -0.94301E-03   -0.49509E-03  1554   0.296E-01
    931 T=   811. E= -.29405730E+02 F= -.32710126E+02 E0= -.32665494E+02  EK= 0.27267E+01 SP= 0.57E+00 SK= 0.11E-01 mag=     -0.081
       N       E                     dE             d eps       ncg     rms          rms(c)
DAV:   1    -0.326660375423E+02    0.43145E-01   -0.14192E-02  2456   0.110E+00    0.455E-02
RMM:   2    -0.326669369285E+02   -0.89939E-03   -0.50209E-03  1560   0.315E-01
    932 T=   789. E= -.29400172E+02 F= -.32666937E+02 E0= -.32621640E+02  EK= 0.26506E+01 SP= 0.61E+00 SK= 0.11E-01 mag=      0.074
       N       E                     dE             d eps       ncg     rms          rms(c)
DAV:   1    -0.326194321458E+02    0.46605E-01   -0.17775E-02  2784   0.108E+00    0.667E-02
RMM:   2    -0.326207834643E+02   -0.13513E-02   -0.52858E-03  1536   0.287E-01    0.499E-02
RMM:   3    -0.326215564209E+02   -0.77296E-03   -0.20181E-03  1428   0.116E-01
    933 T=   766. E= -.29395094E+02 F= -.32621556E+02 E0= -.32575750E+02  EK= 0.25739E+01 SP= 0.64E+00 SK= 0.98E-02 mag=      0.120
       N       E                     dE             d eps       ncg     rms          rms(c)
DAV:   1    -0.325748572400E+02    0.45926E-01   -0.14405E-02  2360   0.101E+00    0.637E-02
RMM:   2    -0.325754749116E+02   -0.61767E-03   -0.28551E-03  1465   0.253E-01
    934 T=   744. E= -.29389821E+02 F= -.32575475E+02 E0= -.32528957E+02  EK= 0.25003E+01 SP= 0.68E+00 SK= 0.79E-02 mag=      0.026
       N       E                     dE             d eps       ncg     rms          rms(c)
DAV:   1    -0.325271491604E+02    0.47708E-01   -0.23094E-02  2936   0.115E+00    0.550E-02
RMM:   2    -0.325281813507E+02   -0.10322E-02   -0.40799E-03  1500   0.241E-01
    935 T=   723. E= -.29384174E+02 F= -.32528181E+02 E0= -.32481424E+02  EK= 0.24311E+01 SP= 0.71E+00 SK= 0.54E-02 mag=     -0.153
       N       E                     dE             d eps       ncg     rms          rms(c)
DAV:   1    -0.324801303275E+02    0.47019E-01   -0.10498E-02  2152   0.933E-01    0.763E-02
RMM:   2    -0.324815190714E+02   -0.13887E-02   -0.42897E-03  1547   0.282E-01    0.563E-02
RMM:   3    -0.324823748778E+02   -0.85581E-03   -0.16621E-03  1411   0.119E-01
    936 T=   704. E= -.29381752E+02 F= -.32482375E+02 E0= -.32435338E+02  EK= 0.23665E+01 SP= 0.73E+00 SK= 0.29E-02 mag=     -0.136
       N       E                     dE             d eps       ncg     rms          rms(c)
DAV:   1    -0.324369257683E+02    0.44593E-01   -0.21452E-02  2488   0.101E+00    0.624E-02
RMM:   2    -0.324379070337E+02   -0.98127E-03   -0.31914E-03  1518   0.259E-01
    937 T=   688. E= -.29376803E+02 F= -.32437907E+02 E0= -.32390431E+02  EK= 0.23133E+01 SP= 0.75E+00 SK= 0.93E-03 mag=      0.051
       N       E                     dE             d eps       ncg     rms          rms(c)
DAV:   1    -0.323920839246E+02    0.44842E-01   -0.27185E-02  2824   0.108E+00    0.739E-02
RMM:   2    -0.323939123069E+02   -0.18284E-02   -0.48721E-03  1512   0.252E-01    0.614E-02
RMM:   3    -0.323950957524E+02   -0.11834E-02   -0.19410E-03  1400   0.103E-01
    938 T=   675. E= -.29372580E+02 F= -.32395096E+02 E0= -.32347651E+02  EK= 0.22691E+01 SP= 0.75E+00 SK= 0.12E-04 mag=      0.123
       N       E                     dE             d eps       ncg     rms          rms(c)
DAV:   1    -0.323544572546E+02    0.39455E-01   -0.21641E-02  2496   0.951E-01    0.582E-02
RMM:   2    -0.323555840132E+02   -0.11268E-02   -0.38768E-03  1427   0.227E-01
    939 T=   665. E= -.29369889E+02 F= -.32355584E+02 E0= -.32307841E+02  EK= 0.22355E+01 SP= 0.75E+00 SK= 0.68E-03 mag=      0.048
       N       E                     dE             d eps       ncg     rms          rms(c)
DAV:   1    -0.323157804571E+02    0.38677E-01   -0.33492E-02  2824   0.103E+00    0.875E-02
RMM:   2    -0.323178208361E+02   -0.20404E-02   -0.47532E-03  1517   0.239E-01    0.643E-02
RMM:   3    -0.323197745061E+02   -0.19537E-02   -0.38565E-03  1400   0.113E-01    0.310E-02
RMM:   4    -0.323201104763E+02   -0.33597E-03   -0.10893E-03  1366   0.688E-02
    940 T=   659. E= -.29367934E+02 F= -.32320110E+02 E0= -.32272249E+02  EK= 0.22145E+01 SP= 0.73E+00 SK= 0.33E-02 mag=     -0.035
       N       E                     dE             d eps       ncg     rms          rms(c)
DAV:   1    -0.322831698436E+02    0.36605E-01   -0.24433E-02  2392   0.910E-01    0.932E-02
RMM:   2    -0.322854210905E+02   -0.22512E-02   -0.61760E-03  1417   0.247E-01    0.684E-02
RMM:   3    -0.322869300621E+02   -0.15090E-02   -0.26368E-03  1396   0.107E-01    0.449E-02
RMM:   4    -0.322877219500E+02   -0.79189E-03   -0.20486E-03  1397   0.778E-02
    941 T=   656. E= -.29366371E+02 F= -.32287722E+02 E0= -.32239902E+02  EK= 0.22057E+01 SP= 0.71E+00 SK= 0.81E-02 mag=     -0.015
       N       E                     dE             d eps       ncg     rms          rms(c)
DAV:   1    -0.322586046935E+02    0.28325E-01   -0.14710E-02  2608   0.957E-01    0.456E-02
RMM:   2    -0.322592088090E+02   -0.60412E-03   -0.25745E-03  1492   0.207E-01
    942 T=   658. E= -.29362959E+02 F= -.32259209E+02 E0= -.32211517E+02  EK= 0.22124E+01 SP= 0.67E+00 SK= 0.15E-01 mag=      0.067
       N       E                     dE             d eps       ncg     rms          rms(c)
DAV:   1    -0.322338573869E+02    0.24747E-01   -0.14817E-02  2608   0.930E-01    0.501E-02
RMM:   2    -0.322347702182E+02   -0.91283E-03   -0.36686E-03  1518   0.237E-01
    943 T=   664. E= -.29360192E+02 F= -.32234770E+02 E0= -.32187313E+02  EK= 0.22325E+01 SP= 0.62E+00 SK= 0.24E-01 mag=      0.138
       N       E                     dE             d eps       ncg     rms          rms(c)
DAV:   1    -0.322141895189E+02    0.19668E-01   -0.93130E-03  2168   0.962E-01    0.394E-02
RMM:   2    -0.322149762508E+02   -0.78673E-03   -0.36569E-03  1532   0.255E-01
    944 T=   674. E= -.29357830E+02 F= -.32214976E+02 E0= -.32167686E+02  EK= 0.22667E+01 SP= 0.56E+00 SK= 0.34E-01 mag=      0.119
       N       E                     dE             d eps       ncg     rms          rms(c)
DAV:   1    -0.321987074882E+02    0.15482E-01   -0.14396E-02  2448   0.979E-01    0.323E-02
RMM:   2    -0.321994187370E+02   -0.71125E-03   -0.40471E-03  1541   0.268E-01
    945 T=   689. E= -.29354249E+02 F= -.32199419E+02 E0= -.32152248E+02  EK= 0.23163E+01 SP= 0.48E+00 SK= 0.44E-01 mag=      0.013
       N       E                     dE             d eps       ncg     rms          rms(c)
DAV:   1    -0.321865387590E+02    0.12169E-01   -0.11807E-02  2416   0.963E-01    0.452E-02
RMM:   2    -0.321874851239E+02   -0.94636E-03   -0.41105E-03  1540   0.271E-01
    946 T=   708. E= -.29350019E+02 F= -.32187485E+02 E0= -.32140601E+02  EK= 0.23797E+01 SP= 0.40E+00 SK= 0.55E-01 mag=     -0.109
       N       E                     dE             d eps       ncg     rms          rms(c)
DAV:   1    -0.321787417804E+02    0.77970E-02   -0.14326E-02  2552   0.102E+00    0.454E-02
RMM:   2    -0.321796734091E+02   -0.93163E-03   -0.43401E-03  1566   0.278E-01
    947 T=   731. E= -.29345838E+02 F= -.32179673E+02 E0= -.32133100E+02  EK= 0.24561E+01 SP= 0.31E+00 SK= 0.63E-01 mag=     -0.170
       N       E                     dE             d eps       ncg     rms          rms(c)
DAV:   1    -0.321742491482E+02    0.44926E-02   -0.14572E-02  2432   0.101E+00    0.391E-02
RMM:   2    -0.321752301785E+02   -0.98103E-03   -0.45719E-03  1570   0.293E-01
    948 T=   757. E= -.29342068E+02 F= -.32175230E+02 E0= -.32128812E+02  EK= 0.25435E+01 SP= 0.22E+00 SK= 0.70E-01 mag=     -0.115
       N       E                     dE             d eps       ncg     rms          rms(c)
DAV:   1    -0.321729007018E+02    0.13484E-02   -0.14238E-02  2656   0.106E+00    0.412E-02
RMM:   2    -0.321738369981E+02   -0.93630E-03   -0.44376E-03  1559   0.282E-01
    949 T=   786. E= -.29338776E+02 F= -.32173837E+02 E0= -.32127543E+02  EK= 0.26401E+01 SP= 0.12E+00 SK= 0.74E-01 mag=      0.038
       N       E                     dE             d eps       ncg     rms          rms(c)
DAV:   1    -0.321733279155E+02   -0.42721E-03   -0.15128E-02  2536   0.107E+00    0.483E-02
RMM:   2    -0.321744932583E+02   -0.11653E-02   -0.48426E-03  1585   0.297E-01
    950 T=   817. E= -.29334989E+02 F= -.32174493E+02 E0= -.32128543E+02  EK= 0.27441E+01 SP= 0.22E-01 SK= 0.74E-01 mag=      0.174
       N       E                     dE             d eps       ncg     rms          rms(c)
DAV:   1    -0.321760231358E+02   -0.26952E-02   -0.19195E-02  2664   0.112E+00    0.540E-02
RMM:   2    -0.321772462021E+02   -0.12231E-02   -0.49116E-03  1576   0.302E-01
    951 T=   849. E= -.29331409E+02 F= -.32177246E+02 E0= -.32131478E+02  EK= 0.28525E+01 SP= -.76E-01 SK= 0.70E-01 mag=      0.203
       N       E                     dE             d eps       ncg     rms          rms(c)
DAV:   1    -0.321804941343E+02   -0.44710E-02   -0.17491E-02  2576   0.113E+00    0.447E-02
RMM:   2    -0.321817487321E+02   -0.12546E-02   -0.53804E-03  1605   0.313E-01
    952 T=   881. E= -.29328226E+02 F= -.32181749E+02 E0= -.32135902E+02  EK= 0.29618E+01 SP= -.17E+00 SK= 0.62E-01 mag=      0.076
       N       E                     dE             d eps       ncg     rms          rms(c)
DAV:   1    -0.321858194144E+02   -0.53253E-02   -0.20949E-02  2808   0.119E+00    0.456E-02
RMM:   2    -0.321870443340E+02   -0.12249E-02   -0.57098E-03  1633   0.329E-01
    953 T=   913. E= -.29324452E+02 F= -.32187044E+02 E0= -.32141279E+02  EK= 0.30687E+01 SP= -.26E+00 SK= 0.52E-01 mag=     -0.144
       N       E                     dE             d eps       ncg     rms          rms(c)
DAV:   1    -0.321899702869E+02   -0.41509E-02   -0.23909E-02  2792   0.118E+00    0.691E-02
RMM:   2    -0.321918608621E+02   -0.18906E-02   -0.62110E-03  1589   0.332E-01    0.550E-02
RMM:   3    -0.321928192859E+02   -0.95842E-03   -0.22206E-03  1460   0.129E-01
    954 T=   943. E= -.29321511E+02 F= -.32192819E+02 E0= -.32147246E+02  EK= 0.31678E+01 SP= -.34E+00 SK= 0.39E-01 mag=     -0.112
       N       E                     dE             d eps       ncg     rms          rms(c)
DAV:   1    -0.321974857028E+02   -0.56248E-02   -0.23199E-02  2640   0.120E+00    0.586E-02
RMM:   2    -0.321989815093E+02   -0.14958E-02   -0.46734E-03  1565   0.305E-01    0.397E-02
RMM:   3    -0.321993045171E+02   -0.32301E-03   -0.98868E-04  1235   0.110E-01
    955 T=   969. E= -.29318239E+02 F= -.32199305E+02 E0= -.32153467E+02  EK= 0.32564E+01 SP= -.40E+00 SK= 0.26E-01 mag=      0.064
       N       E                     dE             d eps       ncg     rms          rms(c)
DAV:   1    -0.322028710337E+02   -0.38895E-02   -0.35322E-02  2816   0.122E+00    0.600E-02
RMM:   2    -0.322041903849E+02   -0.13194E-02   -0.46032E-03  1568   0.282E-01
    956 T=   991. E= -.29312482E+02 F= -.32204190E+02 E0= -.32158595E+02  EK= 0.33309E+01 SP= -.45E+00 SK= 0.15E-01 mag=      0.241
       N       E                     dE             d eps       ncg     rms          rms(c)
DAV:   1    -0.322078452428E+02   -0.49742E-02   -0.24209E-02  3048   0.126E+00    0.642E-02
RMM:   2    -0.322093668110E+02   -0.15216E-02   -0.49230E-03  1598   0.283E-01    0.474E-02
RMM:   3    -0.322098674561E+02   -0.50065E-03   -0.13643E-03  1418   0.114E-01
    957 T=  1007. E= -.29311045E+02 F= -.32209867E+02 E0= -.32164140E+02  EK= 0.33832E+01 SP= -.49E+00 SK= 0.58E-02 mag=      0.111
       N       E                     dE             d eps       ncg     rms          rms(c)
DAV:   1    -0.322137724907E+02   -0.44057E-02   -0.22476E-02  2576   0.121E+00    0.635E-02
RMM:   2    -0.322151048595E+02   -0.13324E-02   -0.38044E-03  1577   0.291E-01
    958 T=  1017. E= -.29305973E+02 F= -.32215105E+02 E0= -.32169190E+02  EK= 0.34177E+01 SP= -.51E+00 SK= 0.78E-03 mag=     -0.218
       N       E                     dE             d eps       ncg     rms          rms(c)
DAV:   1    -0.322146964714E+02   -0.92398E-03   -0.36526E-02  3136   0.133E+00    0.100E-01
RMM:   2    -0.322172595613E+02   -0.25631E-02   -0.56335E-03  1576   0.275E-01    0.787E-02
RMM:   3    -0.322191858249E+02   -0.19263E-02   -0.25828E-03  1406   0.120E-01    0.555E-02
RMM:   4    -0.322203175470E+02   -0.11317E-02   -0.18811E-03  1400   0.916E-02
    959 T=  1021. E= -.29300758E+02 F= -.32220318E+02 E0= -.32174111E+02  EK= 0.34297E+01 SP= -.51E+00 SK= 0.48E-03 mag=     -0.031
       N       E                     dE             d eps       ncg     rms          rms(c)
DAV:   1    -0.322196013003E+02   -0.41548E-03   -0.13541E-02  2248   0.113E+00    0.107E-01
RMM:   2    -0.322220803178E+02   -0.24790E-02   -0.46786E-03  1542   0.283E-01    0.789E-02
RMM:   3    -0.322234989839E+02   -0.14187E-02   -0.18840E-03  1398   0.115E-01    0.556E-02
RMM:   4    -0.322244995285E+02   -0.10005E-02   -0.12461E-03  1387   0.836E-02
    960 T=  1016. E= -.29298595E+02 F= -.32224500E+02 E0= -.32178248E+02  EK= 0.34143E+01 SP= -.49E+00 SK= 0.51E-02 mag=      0.096
       N       E                     dE             d eps       ncg     rms          rms(c)
DAV:   1    -0.322278740290E+02   -0.43750E-02   -0.30117E-02  3056   0.124E+00    0.647E-02
RMM:   2    -0.322289712823E+02   -0.10973E-02   -0.37400E-03  1508   0.249E-01
    961 T=  1005. E= -.29295126E+02 F= -.32228971E+02 E0= -.32182568E+02  EK= 0.33781E+01 SP= -.46E+00 SK= 0.14E-01 mag=      0.115
       N       E                     dE             d eps       ncg     rms          rms(c)
DAV:   1    -0.322328623585E+02   -0.49883E-02   -0.20397E-02  2992   0.118E+00    0.354E-02
RMM:   2    -0.322339546831E+02   -0.10923E-02   -0.46637E-03  1574   0.267E-01
    962 T=   988. E= -.29294430E+02 F= -.32233955E+02 E0= -.32187363E+02  EK= 0.33192E+01 SP= -.41E+00 SK= 0.27E-01 mag=      0.023
       N       E                     dE             d eps       ncg     rms          rms(c)
DAV:   1    -0.322379978374E+02   -0.51355E-02   -0.16440E-02  2536   0.116E+00    0.437E-02
RMM:   2    -0.322391682946E+02   -0.11705E-02   -0.45120E-03  1550   0.285E-01
    963 T=   965. E= -.29292415E+02 F= -.32239168E+02 E0= -.32192654E+02  EK= 0.32441E+01 SP= -.34E+00 SK= 0.42E-01 mag=     -0.132
       N       E                     dE             d eps       ncg     rms          rms(c)
DAV:   1    -0.322433970978E+02   -0.53993E-02   -0.25692E-02  2984   0.118E+00    0.520E-02
RMM:   2    -0.322448036186E+02   -0.14065E-02   -0.48982E-03  1546   0.297E-01    0.405E-02
RMM:   3    -0.322452113294E+02   -0.40771E-03   -0.13427E-03  1465   0.109E-01
    964 T=   939. E= -.29288961E+02 F= -.32245211E+02 E0= -.32198856E+02  EK= 0.31570E+01 SP= -.26E+00 SK= 0.57E-01 mag=     -0.103
       N       E                     dE             d eps       ncg     rms          rms(c)
DAV:   1    -0.322513777313E+02   -0.65741E-02   -0.16636E-02  2376   0.109E+00    0.506E-02
RMM:   2    -0.322524642965E+02   -0.10866E-02   -0.32599E-03  1516   0.277E-01
    965 T=   911. E= -.29282922E+02 F= -.32252464E+02 E0= -.32205934E+02  EK= 0.30631E+01 SP= -.17E+00 SK= 0.72E-01 mag=      0.080
       N       E                     dE             d eps       ncg     rms          rms(c)
DAV:   1    -0.322585488979E+02   -0.71712E-02   -0.29435E-02  3056   0.121E+00    0.651E-02
RMM:   2    -0.322598882715E+02   -0.13394E-02   -0.42256E-03  1551   0.239E-01
    966 T=   882. E= -.29276213E+02 F= -.32259888E+02 E0= -.32213954E+02  EK= 0.29630E+01 SP= -.63E-01 SK= 0.84E-01 mag=      0.266
       N       E                     dE             d eps       ncg     rms          rms(c)
DAV:   1    -0.322677833633E+02   -0.92345E-02   -0.98059E-03  2104   0.101E+00    0.668E-02
RMM:   2    -0.322692002453E+02   -0.14169E-02   -0.52134E-03  1557   0.298E-01    0.484E-02
RMM:   3    -0.322699153302E+02   -0.71508E-03   -0.18202E-03  1390   0.123E-01
    967 T=   850. E= -.29274628E+02 F= -.32269915E+02 E0= -.32223832E+02  EK= 0.28570E+01 SP= 0.46E-01 SK= 0.93E-01 mag=      0.111
       N       E                     dE             d eps       ncg     rms          rms(c)
DAV:   1    -0.322790066815E+02   -0.98064E-02   -0.18215E-02  2328   0.108E+00    0.694E-02
RMM:   2    -0.322802766673E+02   -0.12700E-02   -0.34704E-03  1552   0.273E-01
    968 T=   820. E= -.29269085E+02 F= -.32280277E+02 E0= -.32234459E+02  EK= 0.27551E+01 SP= 0.16E+00 SK= 0.98E-01 mag=     -0.255
       N       E                     dE             d eps       ncg     rms          rms(c)
DAV:   1    -0.322863923799E+02   -0.73857E-02   -0.22252E-02  3000   0.113E+00    0.119E-01
RMM:   2    -0.322891215988E+02   -0.27292E-02   -0.48666E-03  1487   0.239E-01    0.912E-02
RMM:   3    -0.322921342713E+02   -0.30127E-02   -0.38390E-03  1400   0.128E-01    0.509E-02
RMM:   4    -0.322930184505E+02   -0.88418E-03   -0.15761E-03  1392   0.896E-02
    969 T=   790. E= -.29265973E+02 F= -.32293018E+02 E0= -.32247084E+02  EK= 0.26557E+01 SP= 0.27E+00 SK= 0.98E-01 mag=     -0.022
       N       E                     dE             d eps       ncg     rms          rms(c)
DAV:   1    -0.322991425682E+02   -0.70083E-02   -0.16129E-02  2232   0.984E-01    0.130E-01
RMM:   2    -0.323021252110E+02   -0.29826E-02   -0.43433E-03  1460   0.253E-01    0.987E-02
RMM:   3    -0.323047811897E+02   -0.26560E-02   -0.27682E-03  1400   0.105E-01    0.586E-02
RMM:   4    -0.323058615734E+02   -0.10804E-02   -0.12434E-03  1382   0.814E-02
    970 T=   762. E= -.29263951E+02 F= -.32305862E+02 E0= -.32260266E+02  EK= 0.25603E+01 SP= 0.39E+00 SK= 0.95E-01 mag=      0.068
       N       E                     dE             d eps       ncg     rms          rms(c)
DAV:   1    -0.323193355417E+02   -0.14554E-01   -0.20585E-02  2824   0.103E+00    0.598E-02
RMM:   2    -0.323200177751E+02   -0.68223E-03   -0.28365E-03  1504   0.219E-01
    971 T=   736. E= -.29261012E+02 F= -.32320018E+02 E0= -.32274538E+02  EK= 0.24739E+01 SP= 0.50E+00 SK= 0.88E-01 mag=      0.020
       N       E                     dE             d eps       ncg     rms          rms(c)
DAV:   1    -0.323336727357E+02   -0.14337E-01   -0.15035E-02  2712   0.997E-01    0.464E-02
RMM:   2    -0.323345343411E+02   -0.86161E-03   -0.36982E-03  1529   0.254E-01
    972 T=   713. E= -.29258511E+02 F= -.32334534E+02 E0= -.32289414E+02  EK= 0.23955E+01 SP= 0.60E+00 SK= 0.78E-01 mag=     -0.109
       N       E                     dE             d eps       ncg     rms          rms(c)
DAV:   1    -0.323482774454E+02   -0.14605E-01   -0.96104E-03  2280   0.986E-01    0.616E-02
RMM:   2    -0.323492370934E+02   -0.95965E-03   -0.37648E-03  1525   0.265E-01
    973 T=   693. E= -.29255193E+02 F= -.32349237E+02 E0= -.32304578E+02  EK= 0.23274E+01 SP= 0.70E+00 SK= 0.66E-01 mag=     -0.200
       N       E                     dE             d eps       ncg     rms          rms(c)
DAV:   1    -0.323636490567E+02   -0.15372E-01   -0.13355E-02  2632   0.103E+00    0.496E-02
RMM:   2    -0.323644900537E+02   -0.84100E-03   -0.37657E-03  1516   0.262E-01
    974 T=   676. E= -.29251234E+02 F= -.32364490E+02 E0= -.32320088E+02  EK= 0.22703E+01 SP= 0.79E+00 SK= 0.53E-01 mag=     -0.181
       N       E                     dE             d eps       ncg     rms          rms(c)
DAV:   1    -0.323787737620E+02   -0.15125E-01   -0.90310E-03  2224   0.950E-01    0.464E-02
RMM:   2    -0.323795732079E+02   -0.79945E-03   -0.38914E-03  1539   0.279E-01
    975 T=   662. E= -.29246788E+02 F= -.32379573E+02 E0= -.32335380E+02  EK= 0.22240E+01 SP= 0.87E+00 SK= 0.40E-01 mag=     -0.038
       N       E                     dE             d eps       ncg     rms          rms(c)
DAV:   1    -0.323927760984E+02   -0.14002E-01   -0.10274E-02  2560   0.100E+00    0.508E-02
RMM:   2    -0.323936211427E+02   -0.84504E-03   -0.37281E-03  1519   0.261E-01
    976 T=   651. E= -.29241636E+02 F= -.32393621E+02 E0= -.32349850E+02  EK= 0.21879E+01 SP= 0.94E+00 SK= 0.28E-01 mag=      0.141
       N       E                     dE             d eps       ncg     rms          rms(c)
DAV:   1    -0.324053141491E+02   -0.12538E-01   -0.10089E-02  2264   0.960E-01    0.568E-02
RMM:   2    -0.324063530009E+02   -0.10389E-02   -0.40955E-03  1532   0.273E-01
    977 T=   643. E= -.29236056E+02 F= -.32406353E+02 E0= -.32363085E+02  EK= 0.21617E+01 SP= 0.99E+00 SK= 0.18E-01 mag=      0.189
       N       E                     dE             d eps       ncg     rms          rms(c)
DAV:   1    -0.324178124931E+02   -0.12498E-01   -0.13863E-02  2704   0.102E+00    0.465E-02
RMM:   2    -0.324186210276E+02   -0.80853E-03   -0.39941E-03  1527   0.272E-01
    978 T=   638. E= -.29231416E+02 F= -.32418621E+02 E0= -.32375494E+02  EK= 0.21450E+01 SP= 0.10E+01 SK= 0.93E-02 mag=      0.072
       N       E                     dE             d eps       ncg     rms          rms(c)
DAV:   1    -0.324275210824E+02   -0.97086E-02   -0.12568E-02  2368   0.940E-01    0.548E-02
RMM:   2    -0.324284628437E+02   -0.94176E-03   -0.39833E-03  1523   0.275E-01
    979 T=   636. E= -.29226969E+02 F= -.32428463E+02 E0= -.32385688E+02  EK= 0.21365E+01 SP= 0.11E+01 SK= 0.35E-02 mag=     -0.112
       N       E                     dE             d eps       ncg     rms          rms(c)
DAV:   1    -0.324351576512E+02   -0.76366E-02   -0.10315E-02  2424   0.982E-01    0.616E-02
RMM:   2    -0.324362130003E+02   -0.10553E-02   -0.41398E-03  1524   0.266E-01
    980 T=   636. E= -.29222153E+02 F= -.32436213E+02 E0= -.32393960E+02  EK= 0.21372E+01 SP= 0.11E+01 SK= 0.49E-03 mag=     -0.220
       N       E                     dE             d eps       ncg     rms          rms(c)
DAV:   1    -0.324409165969E+02   -0.57589E-02   -0.11233E-02  2464   0.984E-01    0.596E-02
RMM:   2    -0.324420935967E+02   -0.11770E-02   -0.46661E-03  1556   0.291E-01
    981 T=   639. E= -.29216799E+02 F= -.32442094E+02 E0= -.32400127E+02  EK= 0.21475E+01 SP= 0.11E+01 SK= 0.22E-03 mag=     -0.145
       N       E                     dE             d eps       ncg     rms          rms(c)
DAV:   1    -0.324451541115E+02   -0.42375E-02   -0.11490E-02  2368   0.100E+00    0.487E-02
RMM:   2    -0.324459693371E+02   -0.81523E-03   -0.42971E-03  1528   0.293E-01
    982 T=   645. E= -.29211642E+02 F= -.32445969E+02 E0= -.32404144E+02  EK= 0.21662E+01 SP= 0.11E+01 SK= 0.26E-02 mag=      0.066
       N       E                     dE             d eps       ncg     rms          rms(c)
DAV:   1    -0.324442577121E+02    0.89640E-03   -0.12765E-02  2376   0.972E-01    0.714E-02
RMM:   2    -0.324456528820E+02   -0.13952E-02   -0.46788E-03  1523   0.283E-01    0.553E-02
RMM:   3    -0.324464932343E+02   -0.84035E-03   -0.16874E-03  1469   0.117E-01
    983 T=   652. E= -.29207441E+02 F= -.32446493E+02 E0= -.32405101E+02  EK= 0.21912E+01 SP= 0.10E+01 SK= 0.73E-02 mag=      0.090
       N       E                     dE             d eps       ncg     rms          rms(c)
DAV:   1    -0.324433185165E+02    0.23344E-02   -0.11198E-02  2344   0.956E-01    0.604E-02
RMM:   2    -0.324441496712E+02   -0.83115E-03   -0.26637E-03  1433   0.231E-01
    984 T=   662. E= -.29203111E+02 F= -.32444150E+02 E0= -.32402999E+02  EK= 0.22238E+01 SP= 0.10E+01 SK= 0.14E-01 mag=     -0.035
       N       E                     dE             d eps       ncg     rms          rms(c)
DAV:   1    -0.324366614837E+02    0.66570E-02   -0.16841E-02  2768   0.108E+00    0.769E-02
RMM:   2    -0.324380366159E+02   -0.13751E-02   -0.36316E-03  1513   0.225E-01    0.569E-02
RMM:   3    -0.324388022310E+02   -0.76562E-03   -0.12391E-03  1405   0.966E-02
    985 T=   673. E= -.29199664E+02 F= -.32438802E+02 E0= -.32397936E+02  EK= 0.22626E+01 SP= 0.95E+00 SK= 0.22E-01 mag=     -0.047
       N       E                     dE             d eps       ncg     rms          rms(c)
DAV:   1    -0.324285247996E+02    0.95118E-02   -0.11735E-02  1976   0.947E-01    0.808E-02
RMM:   2    -0.324298672317E+02   -0.13424E-02   -0.30579E-03  1479   0.241E-01
    986 T=   687. E= -.29196340E+02 F= -.32429867E+02 E0= -.32389266E+02  EK= 0.23074E+01 SP= 0.90E+00 SK= 0.31E-01 mag=      0.016
       N       E                     dE             d eps       ncg     rms          rms(c)
DAV:   1    -0.324155106702E+02    0.13014E-01   -0.21736E-02  2784   0.110E+00    0.963E-02
RMM:   2    -0.324174598531E+02   -0.19492E-02   -0.46702E-03  1520   0.258E-01    0.687E-02
RMM:   3    -0.324185883220E+02   -0.11285E-02   -0.17767E-03  1431   0.111E-01
    987 T=   702. E= -.29193565E+02 F= -.32418588E+02 E0= -.32378221E+02  EK= 0.23585E+01 SP= 0.83E+00 SK= 0.40E-01 mag=      0.003
       N       E                     dE             d eps       ncg     rms          rms(c)
DAV:   1    -0.324017639027E+02    0.15696E-01   -0.21162E-02  2320   0.981E-01    0.106E-01
RMM:   2    -0.324037352046E+02   -0.19713E-02   -0.36671E-03  1487   0.254E-01    0.746E-02
RMM:   3    -0.324045231095E+02   -0.78790E-03   -0.12249E-03  1374   0.104E-01
    988 T=   719. E= -.29191434E+02 F= -.32404523E+02 E0= -.32364388E+02  EK= 0.24148E+01 SP= 0.75E+00 SK= 0.48E-01 mag=      0.014
       N       E                     dE             d eps       ncg     rms          rms(c)
DAV:   1    -0.323872587009E+02    0.16477E-01   -0.40764E-02  2544   0.106E+00    0.568E-02
RMM:   2    -0.323879866187E+02   -0.72792E-03   -0.41935E-03  1518   0.280E-01
    989 T=   737. E= -.29188114E+02 F= -.32387987E+02 E0= -.32348036E+02  EK= 0.24777E+01 SP= 0.67E+00 SK= 0.56E-01 mag=      0.023
       N       E                     dE             d eps       ncg     rms          rms(c)
DAV:   1    -0.323676724508E+02    0.19586E-01   -0.25103E-02  2680   0.109E+00    0.371E-02
RMM:   2    -0.323683868846E+02   -0.71443E-03   -0.45297E-03  1526   0.275E-01
    990 T=   757. E= -.29185298E+02 F= -.32368387E+02 E0= -.32328612E+02  EK= 0.25438E+01 SP= 0.58E+00 SK= 0.62E-01 mag=      0.017
       N       E                     dE             d eps       ncg     rms          rms(c)
DAV:   1    -0.323456136705E+02    0.22059E-01   -0.14243E-02  2592   0.105E+00    0.446E-02
RMM:   2    -0.323463959931E+02   -0.78232E-03   -0.41378E-03  1550   0.290E-01
    991 T=   778. E= -.29181644E+02 F= -.32346396E+02 E0= -.32306794E+02  EK= 0.26140E+01 SP= 0.49E+00 SK= 0.66E-01 mag=     -0.009
       N       E                     dE             d eps       ncg     rms          rms(c)
DAV:   1    -0.323219875100E+02    0.23626E-01   -0.17358E-02  2504   0.118E+00    0.470E-02
RMM:   2    -0.323228582034E+02   -0.87069E-03   -0.44471E-03  1552   0.284E-01
    992 T=   800. E= -.29176703E+02 F= -.32322858E+02 E0= -.32283416E+02  EK= 0.26883E+01 SP= 0.39E+00 SK= 0.67E-01 mag=     -0.036
       N       E                     dE             d eps       ncg     rms          rms(c)
DAV:   1    -0.322972460547E+02    0.24741E-01   -0.11258E-02  2288   0.107E+00    0.315E-02
RMM:   2    -0.322980375789E+02   -0.79152E-03   -0.44585E-03  1558   0.303E-01
    993 T=   822. E= -.29171796E+02 F= -.32298038E+02 E0= -.32258708E+02  EK= 0.27639E+01 SP= 0.30E+00 SK= 0.66E-01 mag=     -0.035
       N       E                     dE             d eps       ncg     rms          rms(c)
DAV:   1    -0.322710920438E+02    0.26154E-01   -0.18615E-02  2536   0.117E+00    0.409E-02
RMM:   2    -0.322718727456E+02   -0.78070E-03   -0.42707E-03  1560   0.289E-01
    994 T=   845. E= -.29166684E+02 F= -.32271873E+02 E0= -.32232645E+02  EK= 0.28390E+01 SP= 0.20E+00 SK= 0.62E-01 mag=      0.000
       N       E                     dE             d eps       ncg     rms          rms(c)
DAV:   1    -0.322437990901E+02    0.27293E-01   -0.17219E-02  2544   0.113E+00    0.438E-02
RMM:   2    -0.322448959935E+02   -0.10969E-02   -0.51747E-03  1586   0.307E-01
    995 T=   867. E= -.29161204E+02 F= -.32244896E+02 E0= -.32205805E+02  EK= 0.29122E+01 SP= 0.12E+00 SK= 0.56E-01 mag=      0.036
       N       E                     dE             d eps       ncg     rms          rms(c)
DAV:   1    -0.322178129325E+02    0.25986E-01   -0.19434E-02  2792   0.122E+00    0.391E-02
RMM:   2    -0.322186919755E+02   -0.87904E-03   -0.47091E-03  1552   0.305E-01
    996 T=   887. E= -.29156338E+02 F= -.32218692E+02 E0= -.32179666E+02  EK= 0.29820E+01 SP= 0.33E-01 SK= 0.48E-01 mag=      0.045
       N       E                     dE             d eps       ncg     rms          rms(c)
DAV:   1    -0.321915875599E+02    0.26225E-01   -0.17077E-02  2640   0.115E+00    0.350E-02
RMM:   2    -0.321925487291E+02   -0.96117E-03   -0.51370E-03  1577   0.314E-01
    997 T=   906. E= -.29151395E+02 F= -.32192549E+02 E0= -.32153597E+02  EK= 0.30458E+01 SP= -.43E-01 SK= 0.39E-01 mag=      0.012
       N       E                     dE             d eps       ncg     rms          rms(c)
DAV:   1    -0.321663177489E+02    0.25270E-01   -0.20284E-02  2808   0.123E+00    0.446E-02
RMM:   2    -0.321674323792E+02   -0.11146E-02   -0.52699E-03  1560   0.311E-01
    998 T=   923. E= -.29146339E+02 F= -.32167432E+02 E0= -.32128623E+02  EK= 0.31023E+01 SP= -.11E+00 SK= 0.29E-01 mag=     -0.039
       N       E                     dE             d eps       ncg     rms          rms(c)
DAV:   1    -0.321432129426E+02    0.23105E-01   -0.17632E-02  2832   0.120E+00    0.410E-02
RMM:   2    -0.321442991466E+02   -0.10862E-02   -0.50694E-03  1560   0.317E-01
    999 T=   937. E= -.29141985E+02 F= -.32144299E+02 E0= -.32105608E+02  EK= 0.31496E+01 SP= -.17E+00 SK= 0.20E-01 mag=     -0.065
       N       E                     dE             d eps       ncg     rms          rms(c)
DAV:   1    -0.321223121712E+02    0.20901E-01   -0.19588E-02  2632   0.122E+00    0.347E-02
RMM:   2    -0.321233457318E+02   -0.10336E-02   -0.55456E-03  1602   0.314E-01
   1000 T=   948. E= -.29138285E+02 F= -.32123346E+02 E0= -.32084745E+02  EK= 0.31860E+01 SP= -.21E+00 SK= 0.12E-01 mag=     -0.035
       N       E                     dE             d eps       ncg     rms          rms(c)
DAV:   1    -0.321033735241E+02    0.18939E-01   -0.23356E-02  2888   0.121E+00    0.427E-02
RMM:   2    -0.321045641609E+02   -0.11906E-02   -0.55097E-03  1571   0.320E-01
   1001 T=   955. E= -.29134442E+02 F= -.32104564E+02 E0= -.32066132E+02  EK= 0.32105E+01 SP= -.25E+00 SK= 0.54E-02 mag=      0.031
       N       E                     dE             d eps       ncg     rms          rms(c)
DAV:   1    -0.320873496502E+02    0.16024E-01   -0.23723E-02  2712   0.122E+00    0.483E-02
RMM:   2    -0.320887022747E+02   -0.13526E-02   -0.57378E-03  1590   0.318E-01    0.355E-02
RMM:   3    -0.320891570918E+02   -0.45482E-03   -0.16327E-03  1491   0.122E-01
   1002 T=   959. E= -.29131358E+02 F= -.32089157E+02 E0= -.32050899E+02  EK= 0.32226E+01 SP= -.27E+00 SK= 0.14E-02 mag=      0.024
       N       E                     dE             d eps       ncg     rms          rms(c)
DAV:   1    -0.320752994149E+02    0.13403E-01   -0.28017E-02  2360   0.117E+00    0.504E-02
RMM:   2    -0.320765496920E+02   -0.12503E-02   -0.39217E-03  1472   0.280E-01
   1003 T=   960. E= -.29125053E+02 F= -.32076550E+02 E0= -.32038508E+02  EK= 0.32249E+01 SP= -.27E+00 SK= 0.26E-05 mag=     -0.031
       N       E                     dE             d eps       ncg     rms          rms(c)
DAV:   1    -0.320656943507E+02    0.96051E-02   -0.37189E-02  2976   0.130E+00    0.701E-02
RMM:   2    -0.320673483608E+02   -0.16540E-02   -0.51209E-03  1572   0.268E-01    0.514E-02
RMM:   3    -0.320682470755E+02   -0.89871E-03   -0.17602E-03  1402   0.109E-01
   1004 T=   956. E= -.29120255E+02 F= -.32068247E+02 E0= -.32030429E+02  EK= 0.32142E+01 SP= -.27E+00 SK= 0.12E-02 mag=     -0.021
       N       E                     dE             d eps       ncg     rms          rms(c)
DAV:   1    -0.320614783708E+02    0.58700E-02   -0.29240E-02  2256   0.111E+00    0.700E-02
RMM:   2    -0.320630843607E+02   -0.16060E-02   -0.41241E-03  1529   0.268E-01    0.497E-02
RMM:   3    -0.320635408090E+02   -0.45645E-03   -0.10526E-03  1325   0.103E-01
   1005 T=   949. E= -.29117843E+02 F= -.32063541E+02 E0= -.32025941E+02  EK= 0.31893E+01 SP= -.25E+00 SK= 0.48E-02 mag=      0.008
       N       E                     dE             d eps       ncg     rms          rms(c)
DAV:   1    -0.320618444837E+02    0.12399E-02   -0.41015E-02  2696   0.118E+00    0.476E-02
RMM:   2    -0.320628476828E+02   -0.10032E-02   -0.46616E-03  1581   0.295E-01
   1006 T=   939. E= -.29113183E+02 F= -.32062848E+02 E0= -.32025500E+02  EK= 0.31563E+01 SP= -.22E+00 SK= 0.10E-01 mag=      0.036
       N       E                     dE             d eps       ncg     rms          rms(c)
DAV:   1    -0.320651812981E+02   -0.33368E-02   -0.32665E-02  2856   0.119E+00    0.357E-02
RMM:   2    -0.320661113692E+02   -0.93007E-03   -0.47304E-03  1572   0.275E-01
   1007 T=   926. E= -.29110518E+02 F= -.32066111E+02 E0= -.32029021E+02  EK= 0.31123E+01 SP= -.17E+00 SK= 0.17E-01 mag=      0.037
       N       E                     dE             d eps       ncg     rms          rms(c)
DAV:   1    -0.320726690201E+02   -0.74877E-02   -0.19714E-02  2480   0.111E+00    0.298E-02
RMM:   2    -0.320735977197E+02   -0.92870E-03   -0.48381E-03  1571   0.300E-01
   1008 T=   911. E= -.29107680E+02 F= -.32073598E+02 E0= -.32036772E+02  EK= 0.30614E+01 SP= -.12E+00 SK= 0.25E-01 mag=      0.005
       N       E                     dE             d eps       ncg     rms          rms(c)
DAV:   1    -0.320840820222E+02   -0.11413E-01   -0.26472E-02  2672   0.122E+00    0.372E-02
RMM:   2    -0.320850783945E+02   -0.99637E-03   -0.48644E-03  1574   0.297E-01
   1009 T=   895. E= -.29103250E+02 F= -.32085078E+02 E0= -.32048562E+02  EK= 0.30069E+01 SP= -.58E-01 SK= 0.33E-01 mag=     -0.034
       N       E                     dE             d eps       ncg     rms          rms(c)
DAV:   1    -0.320997852902E+02   -0.15703E-01   -0.15547E-02  2568   0.110E+00    0.322E-02
RMM:   2    -0.321007173892E+02   -0.93210E-03   -0.46111E-03  1596   0.296E-01
   1010 T=   877. E= -.29099491E+02 F= -.32100717E+02 E0= -.32064488E+02  EK= 0.29484E+01 SP= 0.12E-01 SK= 0.41E-01 mag=     -0.050
       N       E                     dE             d eps       ncg     rms          rms(c)
DAV:   1    -0.321196114078E+02   -0.19826E-01   -0.20595E-02  2552   0.116E+00    0.310E-02
RMM:   2    -0.321204073817E+02   -0.79597E-03   -0.41046E-03  1565   0.271E-01
   1011 T=   859. E= -.29095763E+02 F= -.32120407E+02 E0= -.32084422E+02  EK= 0.28885E+01 SP= 0.89E-01 SK= 0.47E-01 mag=     -0.024
       N       E                     dE             d eps       ncg     rms          rms(c)
DAV:   1    -0.321428689189E+02   -0.23258E-01   -0.17447E-02  2480   0.110E+00    0.321E-02
RMM:   2    -0.321437243901E+02   -0.85547E-03   -0.42648E-03  1536   0.282E-01
   1012 T=   842. E= -.29092097E+02 F= -.32143724E+02 E0= -.32108006E+02  EK= 0.28286E+01 SP= 0.17E+00 SK= 0.52E-01 mag=      0.027
       N       E                     dE             d eps       ncg     rms          rms(c)
DAV:   1    -0.321694402889E+02   -0.26571E-01   -0.18685E-02  2776   0.113E+00    0.427E-02
RMM:   2    -0.321704082361E+02   -0.96795E-03   -0.41772E-03  1537   0.267E-01
   1013 T=   824. E= -.29088230E+02 F= -.32170408E+02 E0= -.32134961E+02  EK= 0.27705E+01 SP= 0.26E+00 SK= 0.56E-01 mag=      0.054
       N       E                     dE             d eps       ncg     rms          rms(c)
DAV:   1    -0.322002454013E+02   -0.30805E-01   -0.15807E-02  2344   0.107E+00    0.308E-02
RMM:   2    -0.322009834305E+02   -0.73803E-03   -0.40270E-03  1565   0.284E-01
   1014 T=   808. E= -.29084871E+02 F= -.32200983E+02 E0= -.32165730E+02  EK= 0.27156E+01 SP= 0.34E+00 SK= 0.58E-01 mag=      0.036
       N       E                     dE             d eps       ncg     rms          rms(c)
DAV:   1    -0.322337661747E+02   -0.33521E-01   -0.17707E-02  2768   0.108E+00    0.388E-02
RMM:   2    -0.322345980834E+02   -0.83191E-03   -0.42712E-03  1551   0.274E-01
   1015 T=   793. E= -.29080965E+02 F= -.32234598E+02 E0= -.32199553E+02  EK= 0.26652E+01 SP= 0.43E+00 SK= 0.58E-01 mag=     -0.014
       N       E                     dE             d eps       ncg     rms          rms(c)
DAV:   1    -0.322704214857E+02   -0.36655E-01   -0.13333E-02  2624   0.104E+00    0.428E-02
RMM:   2    -0.322713632717E+02   -0.94179E-03   -0.41694E-03  1550   0.269E-01
   1016 T=   780. E= -.29077154E+02 F= -.32271363E+02 E0= -.32236534E+02  EK= 0.26200E+01 SP= 0.52E+00 SK= 0.56E-01 mag=     -0.055
       N       E                     dE             d eps       ncg     rms          rms(c)
DAV:   1    -0.323106780336E+02   -0.40257E-01   -0.14209E-02  2544   0.106E+00    0.348E-02
RMM:   2    -0.323114074635E+02   -0.72943E-03   -0.37946E-03  1542   0.267E-01
   1017 T=   768. E= -.29073640E+02 F= -.32311407E+02 E0= -.32276731E+02  EK= 0.25808E+01 SP= 0.60E+00 SK= 0.53E-01 mag=     -0.044
       N       E                     dE             d eps       ncg     rms          rms(c)
DAV:   1    -0.323528463797E+02   -0.42168E-01   -0.14054E-02  2472   0.102E+00    0.342E-02
RMM:   2    -0.323536111569E+02   -0.76478E-03   -0.41442E-03  1542   0.271E-01
   1018 T=   758. E= -.29069776E+02 F= -.32353611E+02 E0= -.32319066E+02  EK= 0.25478E+01 SP= 0.69E+00 SK= 0.50E-01 mag=      0.009
       N       E                     dE             d eps       ncg     rms          rms(c)
DAV:   1    -0.323963449515E+02   -0.43499E-01   -0.14812E-02  2704   0.103E+00    0.507E-02
RMM:   2    -0.323973903694E+02   -0.10454E-02   -0.43904E-03  1529   0.264E-01
   1019 T=   750. E= -.29065496E+02 F= -.32397390E+02 E0= -.32363003E+02  EK= 0.25210E+01 SP= 0.77E+00 SK= 0.45E-01 mag=      0.036
       N       E                     dE             d eps       ncg     rms          rms(c)
DAV:   1    -0.324429704359E+02   -0.46625E-01   -0.16880E-02  2472   0.101E+00    0.329E-02
RMM:   2    -0.324436765087E+02   -0.70607E-03   -0.40990E-03  1535   0.277E-01
   1020 T=   744. E= -.29061926E+02 F= -.32443677E+02 E0= -.32409351E+02  EK= 0.25005E+01 SP= 0.84E+00 SK= 0.40E-01 mag=      0.027
       N       E                     dE             d eps       ncg     rms          rms(c)
DAV:   1    -0.324894611909E+02   -0.46491E-01   -0.21394E-02  2560   0.102E+00    0.479E-02
RMM:   2    -0.324904773025E+02   -0.10161E-02   -0.49410E-03  1543   0.289E-01
   1021 T=   740. E= -.29057159E+02 F= -.32490477E+02 E0= -.32456233E+02  EK= 0.24865E+01 SP= 0.91E+00 SK= 0.35E-01 mag=     -0.004
       N       E                     dE             d eps       ncg     rms          rms(c)
DAV:   1    -0.325380690632E+02   -0.48608E-01   -0.12577E-02  2296   0.100E+00    0.414E-02
RMM:   2    -0.325388542748E+02   -0.78521E-03   -0.45828E-03  1578   0.282E-01
   1022 T=   737. E= -.29052903E+02 F= -.32538854E+02 E0= -.32504662E+02  EK= 0.24785E+01 SP= 0.98E+00 SK= 0.30E-01 mag=     -0.036
       N       E                     dE             d eps       ncg     rms          rms(c)
DAV:   1    -0.325866501397E+02   -0.48581E-01   -0.15501E-02  2704   0.102E+00    0.413E-02
RMM:   2    -0.325873904787E+02   -0.74034E-03   -0.40875E-03  1539   0.270E-01
   1023 T=   737. E= -.29048715E+02 F= -.32587390E+02 E0= -.32553237E+02  EK= 0.24755E+01 SP= 0.10E+01 SK= 0.25E-01 mag=     -0.044
       N       E                     dE             d eps       ncg     rms          rms(c)
DAV:   1    -0.326348044843E+02   -0.48154E-01   -0.11747E-02  2304   0.101E+00    0.412E-02
RMM:   2    -0.326356411227E+02   -0.83664E-03   -0.42455E-03  1533   0.270E-01
   1024 T=   737. E= -.29044313E+02 F= -.32635641E+02 E0= -.32601488E+02  EK= 0.24773E+01 SP= 0.11E+01 SK= 0.21E-01 mag=     -0.019
       N       E                     dE             d eps       ncg     rms          rms(c)
DAV:   1    -0.326826703754E+02   -0.47866E-01   -0.11088E-02  2360   0.102E+00    0.436E-02
RMM:   2    -0.326834693294E+02   -0.79895E-03   -0.43014E-03  1551   0.274E-01
   1025 T=   739. E= -.29039607E+02 F= -.32683469E+02 E0= -.32649285E+02  EK= 0.24837E+01 SP= 0.11E+01 SK= 0.17E-01 mag=      0.018
       N       E                     dE             d eps       ncg     rms          rms(c)
DAV:   1    -0.327295297752E+02   -0.46859E-01   -0.14365E-02  2584   0.101E+00    0.385E-02
RMM:   2    -0.327302620901E+02   -0.73231E-03   -0.40916E-03  1535   0.280E-01
   1026 T=   742. E= -.29035040E+02 F= -.32730262E+02 E0= -.32696041E+02  EK= 0.24935E+01 SP= 0.12E+01 SK= 0.14E-01 mag=      0.044
       N       E                     dE             d eps       ncg     rms          rms(c)
DAV:   1    -0.327736766665E+02   -0.44147E-01   -0.14692E-02  2456   0.102E+00    0.524E-02
RMM:   2    -0.327747262178E+02   -0.10496E-02   -0.50153E-03  1568   0.275E-01
   1027 T=   746. E= -.29030214E+02 F= -.32774726E+02 E0= -.32740447E+02  EK= 0.25055E+01 SP= 0.12E+01 SK= 0.11E-01 mag=      0.032
       N       E                     dE             d eps       ncg     rms          rms(c)
DAV:   1    -0.328171283310E+02   -0.43452E-01   -0.14756E-02  2392   0.102E+00    0.355E-02
RMM:   2    -0.328178051267E+02   -0.67680E-03   -0.42275E-03  1545   0.282E-01
   1028 T=   750. E= -.29025963E+02 F= -.32817805E+02 E0= -.32783392E+02  EK= 0.25195E+01 SP= 0.13E+01 SK= 0.85E-02 mag=     -0.012
       N       E                     dE             d eps       ncg     rms          rms(c)
DAV:   1    -0.328571488383E+02   -0.40021E-01   -0.16539E-02  2552   0.102E+00    0.475E-02
RMM:   2    -0.328580332662E+02   -0.88443E-03   -0.45905E-03  1539   0.275E-01
   1029 T=   754. E= -.29021083E+02 F= -.32858033E+02 E0= -.32823523E+02  EK= 0.25351E+01 SP= 0.13E+01 SK= 0.66E-02 mag=     -0.051
       N       E                     dE             d eps       ncg     rms          rms(c)
DAV:   1    -0.328942886357E+02   -0.37140E-01   -0.12861E-02  2392   0.103E+00    0.461E-02
RMM:   2    -0.328951785305E+02   -0.88989E-03   -0.44721E-03  1542   0.285E-01
   1030 T=   759. E= -.29016248E+02 F= -.32895179E+02 E0= -.32860519E+02  EK= 0.25509E+01 SP= 0.13E+01 SK= 0.51E-02 mag=     -0.054
       N       E                     dE             d eps       ncg     rms          rms(c)
DAV:   1    -0.329279621050E+02   -0.33673E-01   -0.11893E-02  2416   0.104E+00    0.425E-02
RMM:   2    -0.329287819842E+02   -0.81988E-03   -0.50909E-03  1612   0.289E-01
   1031 T=   764. E= -.29011149E+02 F= -.32928782E+02 E0= -.32893909E+02  EK= 0.25665E+01 SP= 0.13E+01 SK= 0.39E-02 mag=     -0.012
       N       E                     dE             d eps       ncg     rms          rms(c)
DAV:   1    -0.329572922749E+02   -0.29330E-01   -0.15755E-02  2424   0.104E+00    0.418E-02
RMM:   2    -0.329581239738E+02   -0.83170E-03   -0.46287E-03  1542   0.295E-01
   1032 T=   768. E= -.29005748E+02 F= -.32958124E+02 E0= -.32923064E+02  EK= 0.25810E+01 SP= 0.14E+01 SK= 0.30E-02 mag=      0.050
       N       E                     dE             d eps       ncg     rms          rms(c)
DAV:   1    -0.329819523718E+02   -0.24660E-01   -0.13323E-02  2576   0.106E+00    0.582E-02
RMM:   2    -0.329830372860E+02   -0.10849E-02   -0.46034E-03  1525   0.274E-01
   1033 T=   772. E= -.29000233E+02 F= -.32983037E+02 E0= -.32947804E+02  EK= 0.25935E+01 SP= 0.14E+01 SK= 0.23E-02 mag=      0.072
       N       E                     dE             d eps       ncg     rms          rms(c)
DAV:   1    -0.330032525963E+02   -0.21300E-01   -0.12941E-02  2608   0.107E+00    0.427E-02
RMM:   2    -0.330040029292E+02   -0.75033E-03   -0.44951E-03  1532   0.295E-01
   1034 T=   775. E= -.28995333E+02 F= -.33004003E+02 E0= -.32968453E+02  EK= 0.26037E+01 SP= 0.14E+01 SK= 0.17E-02 mag=      0.033
       N       E                     dE             d eps       ncg     rms          rms(c)
DAV:   1    -0.330182112452E+02   -0.14959E-01   -0.14580E-02  2584   0.103E+00    0.521E-02
RMM:   2    -0.330191172912E+02   -0.90605E-03   -0.48090E-03  1525   0.288E-01
   1035 T=   777. E= -.28989873E+02 F= -.33019117E+02 E0= -.32983308E+02  EK= 0.26106E+01 SP= 0.14E+01 SK= 0.13E-02 mag=     -0.042
       N       E                     dE             d eps       ncg     rms          rms(c)
DAV:   1    -0.330277115462E+02   -0.95003E-02   -0.12577E-02  2416   0.106E+00    0.547E-02
RMM:   2    -0.330288278883E+02   -0.11163E-02   -0.46841E-03  1522   0.279E-01
   1036 T=   778. E= -.28984217E+02 F= -.33028828E+02 E0= -.32992815E+02  EK= 0.26141E+01 SP= 0.14E+01 SK= 0.96E-03 mag=     -0.094
       N       E                     dE             d eps       ncg     rms          rms(c)
DAV:   1    -0.330331476528E+02   -0.54361E-02   -0.11566E-02  2584   0.105E+00    0.483E-02
RMM:   2    -0.330340249478E+02   -0.87730E-03   -0.44325E-03  1529   0.281E-01
   1037 T=   778. E= -.28978628E+02 F= -.33034025E+02 E0= -.32997677E+02  EK= 0.26148E+01 SP= 0.14E+01 SK= 0.67E-03 mag=     -0.064
       N       E                     dE             d eps       ncg     rms          rms(c)
DAV:   1    -0.330329573155E+02    0.19034E-03   -0.14102E-02  2480   0.106E+00    0.439E-02
RMM:   2    -0.330338346828E+02   -0.87737E-03   -0.48939E-03  1534   0.299E-01
   1038 T=   777. E= -.28972635E+02 F= -.33033835E+02 E0= -.32997131E+02  EK= 0.26122E+01 SP= 0.14E+01 SK= 0.44E-03 mag=      0.033
       N       E                     dE             d eps       ncg     rms          rms(c)
DAV:   1    -0.330260047200E+02    0.69526E-02   -0.15901E-02  2576   0.102E+00    0.676E-02
RMM:   2    -0.330274055244E+02   -0.14008E-02   -0.52001E-03  1521   0.286E-01    0.489E-02
RMM:   3    -0.330282329849E+02   -0.82746E-03   -0.21821E-03  1434   0.121E-01
   1039 T=   775. E= -.28967918E+02 F= -.33028233E+02 E0= -.32991272E+02  EK= 0.26049E+01 SP= 0.15E+01 SK= 0.24E-03 mag=      0.048
       N       E                     dE             d eps       ncg     rms          rms(c)
DAV:   1    -0.330165351866E+02    0.10870E-01   -0.14195E-02  2480   0.100E+00    0.586E-02
RMM:   2    -0.330173180701E+02   -0.78288E-03   -0.31009E-03  1426   0.239E-01
   1040 T=   772. E= -.28961943E+02 F= -.33017318E+02 E0= -.32980013E+02  EK= 0.25955E+01 SP= 0.15E+01 SK= 0.90E-04 mag=     -0.009
       N       E                     dE             d eps       ncg     rms          rms(c)
DAV:   1    -0.329998690654E+02    0.16666E-01   -0.23454E-02  2960   0.110E+00    0.596E-02
RMM:   2    -0.330009609215E+02   -0.10919E-02   -0.39633E-03  1522   0.227E-01
   1041 T=   768. E= -.28956318E+02 F= -.33000961E+02 E0= -.32963409E+02  EK= 0.25826E+01 SP= 0.15E+01 SK= 0.74E-05 mag=     -0.091
       N       E                     dE             d eps       ncg     rms          rms(c)
DAV:   1    -0.329795499868E+02    0.20319E-01   -0.11041E-02  2128   0.953E-01    0.627E-02
RMM:   2    -0.329806119518E+02   -0.10620E-02   -0.37098E-03  1523   0.266E-01
   1042 T=   764. E= -.28952038E+02 F= -.32980612E+02 E0= -.32942828E+02  EK= 0.25668E+01 SP= 0.15E+01 SK= 0.25E-04 mag=     -0.109
       N       E                     dE             d eps       ncg     rms          rms(c)
DAV:   1    -0.329558364277E+02    0.23714E-01   -0.16943E-02  2856   0.109E+00    0.517E-02
RMM:   2    -0.329565958170E+02   -0.75939E-03   -0.41896E-03  1524   0.260E-01
   1043 T=   759. E= -.28947634E+02 F= -.32956596E+02 E0= -.32918412E+02  EK= 0.25503E+01 SP= 0.15E+01 SK= 0.19E-03 mag=     -0.043
       N       E                     dE             d eps       ncg     rms          rms(c)
DAV:   1    -0.329259076236E+02    0.29929E-01   -0.12672E-02  2432   0.961E-01    0.691E-02
RMM:   2    -0.329271716521E+02   -0.12640E-02   -0.49334E-03  1532   0.291E-01
   1044 T=   754. E= -.28941399E+02 F= -.32927172E+02 E0= -.32888790E+02  EK= 0.25335E+01 SP= 0.15E+01 SK= 0.56E-03 mag=      0.067
       N       E                     dE             d eps       ncg     rms          rms(c)
DAV:   1    -0.328935080975E+02    0.32400E-01   -0.15524E-02  2736   0.106E+00    0.679E-02
RMM:   2    -0.328949337141E+02   -0.14256E-02   -0.42813E-03  1520   0.254E-01    0.508E-02
RMM:   3    -0.328955883656E+02   -0.65465E-03   -0.14312E-03  1427   0.998E-02
   1045 T=   749. E= -.28936705E+02 F= -.32895588E+02 E0= -.32856989E+02  EK= 0.25165E+01 SP= 0.14E+01 SK= 0.12E-02 mag=      0.038
       N       E                     dE             d eps       ncg     rms          rms(c)
DAV:   1    -0.328579758533E+02    0.36958E-01   -0.29768E-02  2384   0.963E-01    0.903E-02
RMM:   2    -0.328601256109E+02   -0.21498E-02   -0.44820E-03  1474   0.248E-01    0.662E-02
RMM:   3    -0.328609726776E+02   -0.84707E-03   -0.13117E-03  1358   0.944E-02
   1046 T=   744. E= -.28933183E+02 F= -.32860973E+02 E0= -.32822121E+02  EK= 0.24993E+01 SP= 0.14E+01 SK= 0.22E-02 mag=     -0.023
       N       E                     dE             d eps       ncg     rms          rms(c)
DAV:   1    -0.328241588764E+02    0.35967E-01   -0.51263E-02  2520   0.100E+00    0.429E-02
RMM:   2    -0.328249883954E+02   -0.82952E-03   -0.47098E-03  1543   0.269E-01
   1047 T=   740. E= -.28928758E+02 F= -.32824988E+02 E0= -.32785870E+02  EK= 0.24858E+01 SP= 0.14E+01 SK= 0.36E-02 mag=     -0.080
       N       E                     dE             d eps       ncg     rms          rms(c)
DAV:   1    -0.327858996821E+02    0.38259E-01   -0.34695E-02  2552   0.101E+00    0.462E-02
RMM:   2    -0.327868166513E+02   -0.91697E-03   -0.44925E-03  1530   0.275E-01
   1048 T=   736. E= -.28924223E+02 F= -.32786817E+02 E0= -.32747547E+02  EK= 0.24747E+01 SP= 0.14E+01 SK= 0.55E-02 mag=     -0.078
       N       E                     dE             d eps       ncg     rms          rms(c)
DAV:   1    -0.327472853534E+02    0.38614E-01   -0.12309E-02  2520   0.991E-01    0.409E-02
RMM:   2    -0.327480322438E+02   -0.74689E-03   -0.38403E-03  1529   0.285E-01
   1049 T=   734. E= -.28919552E+02 F= -.32748032E+02 E0= -.32708580E+02  EK= 0.24680E+01 SP= 0.14E+01 SK= 0.80E-02 mag=     -0.012
       N       E                     dE             d eps       ncg     rms          rms(c)
DAV:   1    -0.327076604667E+02    0.39625E-01   -0.14862E-02  2488   0.106E+00    0.394E-02
RMM:   2    -0.327084908862E+02   -0.83042E-03   -0.39756E-03  1516   0.264E-01
   1050 T=   734. E= -.28913413E+02 F= -.32708491E+02 E0= -.32668948E+02  EK= 0.24669E+01 SP= 0.13E+01 SK= 0.11E-01 mag=      0.076
       N       E                     dE             d eps       ncg     rms          rms(c)
DAV:   1    -0.326685558799E+02    0.39105E-01   -0.93606E-03  2520   0.988E-01    0.471E-02
RMM:   2    -0.326694450905E+02   -0.88921E-03   -0.39163E-03  1532   0.279E-01
   1051 T=   735. E= -.28907087E+02 F= -.32669445E+02 E0= -.32629838E+02  EK= 0.24715E+01 SP= 0.13E+01 SK= 0.14E-01 mag=      0.120
       N       E                     dE             d eps       ncg     rms          rms(c)
DAV:   1    -0.326312072113E+02    0.37349E-01   -0.11665E-02  2496   0.102E+00    0.411E-02
RMM:   2    -0.326320166821E+02   -0.80947E-03   -0.38441E-03  1530   0.265E-01
   1052 T=   739. E= -.28901373E+02 F= -.32632017E+02 E0= -.32592288E+02  EK= 0.24822E+01 SP= 0.12E+01 SK= 0.18E-01 mag=      0.073
       N       E                     dE             d eps       ncg     rms          rms(c)
DAV:   1    -0.325953885268E+02    0.35819E-01   -0.11052E-02  2352   0.992E-01    0.375E-02
RMM:   2    -0.325962362351E+02   -0.84771E-03   -0.43184E-03  1516   0.285E-01
   1053 T=   744. E= -.28895722E+02 F= -.32596236E+02 E0= -.32556448E+02  EK= 0.24995E+01 SP= 0.12E+01 SK= 0.22E-01 mag=     -0.049
       N       E                     dE             d eps       ncg     rms          rms(c)
DAV:   1    -0.325607359448E+02    0.34653E-01   -0.14495E-02  2760   0.103E+00    0.593E-02
RMM:   2    -0.325620069098E+02   -0.12710E-02   -0.46924E-03  1538   0.279E-01
   1054 T=   751. E= -.28889400E+02 F= -.32562007E+02 E0= -.32522317E+02  EK= 0.25237E+01 SP= 0.11E+01 SK= 0.25E-01 mag=     -0.143
       N       E                     dE             d eps       ncg     rms          rms(c)
DAV:   1    -0.325305166501E+02    0.30219E-01   -0.13453E-02  2496   0.102E+00    0.531E-02
RMM:   2    -0.325315031287E+02   -0.98648E-03   -0.45116E-03  1533   0.298E-01
   1055 T=   760. E= -.28884339E+02 F= -.32531503E+02 E0= -.32491735E+02  EK= 0.25549E+01 SP= 0.11E+01 SK= 0.29E-01 mag=     -0.141
       N       E                     dE             d eps       ncg     rms          rms(c)
DAV:   1    -0.325027257948E+02    0.27791E-01   -0.17842E-02  2696   0.106E+00    0.505E-02
RMM:   2    -0.325038251267E+02   -0.10993E-02   -0.49822E-03  1536   0.292E-01
   1056 T=   772. E= -.28878690E+02 F= -.32503825E+02 E0= -.32464005E+02  EK= 0.25933E+01 SP= 0.10E+01 SK= 0.31E-01 mag=     -0.024
       N       E                     dE             d eps       ncg     rms          rms(c)
DAV:   1    -0.324779214274E+02    0.24804E-01   -0.13247E-02  2320   0.105E+00    0.601E-02
RMM:   2    -0.324793278938E+02   -0.14065E-02   -0.52034E-03  1569   0.308E-01    0.457E-02
RMM:   3    -0.324798338922E+02   -0.50600E-03   -0.14829E-03  1457   0.117E-01
   1057 T=   785. E= -.28874481E+02 F= -.32479834E+02 E0= -.32440060E+02  EK= 0.26373E+01 SP= 0.94E+00 SK= 0.33E-01 mag=      0.063
       N       E                     dE             d eps       ncg     rms          rms(c)
DAV:   1    -0.324585092354E+02    0.20819E-01   -0.22186E-02  2472   0.102E+00    0.604E-02
RMM:   2    -0.324596788175E+02   -0.11696E-02   -0.35861E-03  1436   0.259E-01
   1058 T=   800. E= -.28868243E+02 F= -.32459679E+02 E0= -.32419942E+02  EK= 0.26895E+01 SP= 0.87E+00 SK= 0.34E-01 mag=      0.078
       N       E                     dE             d eps       ncg     rms          rms(c)
DAV:   1    -0.324407379407E+02    0.17771E-01   -0.29464E-02  2968   0.115E+00    0.766E-02
RMM:   2    -0.324426063957E+02   -0.18685E-02   -0.48548E-03  1549   0.250E-01    0.558E-02
RMM:   3    -0.324438124775E+02   -0.12061E-02   -0.21767E-03  1402   0.108E-01
   1059 T=   817. E= -.28863754E+02 F= -.32443812E+02 E0= -.32404051E+02  EK= 0.27456E+01 SP= 0.80E+00 SK= 0.33E-01 mag=      0.003
       N       E                     dE             d eps       ncg     rms          rms(c)
DAV:   1    -0.324291056759E+02    0.13501E-01   -0.25963E-02  2432   0.102E+00    0.836E-02
RMM:   2    -0.324310799942E+02   -0.19743E-02   -0.39982E-03  1463   0.256E-01    0.597E-02
RMM:   3    -0.324317815183E+02   -0.70152E-03   -0.11291E-03  1338   0.983E-02
   1060 T=   834. E= -.28861664E+02 F= -.32431782E+02 E0= -.32392059E+02  EK= 0.28031E+01 SP= 0.74E+00 SK= 0.31E-01 mag=     -0.046
       N       E                     dE             d eps       ncg     rms          rms(c)
DAV:   1    -0.324234376944E+02    0.76423E-02   -0.44125E-02  2632   0.109E+00    0.488E-02
RMM:   2    -0.324244639767E+02   -0.10263E-02   -0.46200E-03  1564   0.284E-01
   1061 T=   853. E= -.28857840E+02 F= -.32424464E+02 E0= -.32384723E+02  EK= 0.28656E+01 SP= 0.67E+00 SK= 0.27E-01 mag=     -0.043
       N       E                     dE             d eps       ncg     rms          rms(c)
DAV:   1    -0.324199434951E+02    0.34942E-02   -0.31206E-02  2776   0.114E+00    0.353E-02
RMM:   2    -0.324209388262E+02   -0.99533E-03   -0.47994E-03  1566   0.281E-01
   1062 T=   871. E= -.28855214E+02 F= -.32420939E+02 E0= -.32381142E+02  EK= 0.29273E+01 SP= 0.62E+00 SK= 0.23E-01 mag=      0.006
       N       E                     dE             d eps       ncg     rms          rms(c)
DAV:   1    -0.324199838532E+02   -0.40358E-04   -0.16058E-02  2520   0.107E+00    0.360E-02
RMM:   2    -0.324210468878E+02   -0.10630E-02   -0.48725E-03  1580   0.310E-01
   1063 T=   889. E= -.28851821E+02 F= -.32421047E+02 E0= -.32381229E+02  EK= 0.29883E+01 SP= 0.56E+00 SK= 0.18E-01 mag=      0.063
       N       E                     dE             d eps       ncg     rms          rms(c)
DAV:   1    -0.324231747425E+02   -0.31909E-02   -0.22995E-02  2504   0.122E+00    0.440E-02
RMM:   2    -0.324244236052E+02   -0.12489E-02   -0.49506E-03  1577   0.295E-01
   1064 T=   907. E= -.28846789E+02 F= -.32424424E+02 E0= -.32384646E+02  EK= 0.30471E+01 SP= 0.52E+00 SK= 0.12E-01 mag=      0.085
       N       E                     dE             d eps       ncg     rms          rms(c)
DAV:   1    -0.324303127820E+02   -0.71380E-02   -0.13275E-02  2496   0.111E+00    0.357E-02
RMM:   2    -0.324315221582E+02   -0.12094E-02   -0.47589E-03  1588   0.304E-01
   1065 T=   922. E= -.28842647E+02 F= -.32431522E+02 E0= -.32391651E+02  EK= 0.30995E+01 SP= 0.48E+00 SK= 0.73E-02 mag=      0.047
       N       E                     dE             d eps       ncg     rms          rms(c)
DAV:   1    -0.324398744775E+02   -0.95617E-02   -0.19048E-02  2344   0.121E+00    0.321E-02
RMM:   2    -0.324409991970E+02   -0.11247E-02   -0.50759E-03  1613   0.301E-01
   1066 T=   935. E= -.28838018E+02 F= -.32440999E+02 E0= -.32400958E+02  EK= 0.31436E+01 SP= 0.46E+00 SK= 0.31E-02 mag=     -0.031
       N       E                     dE             d eps       ncg     rms          rms(c)
DAV:   1    -0.324504426336E+02   -0.10568E-01   -0.21276E-02  2480   0.115E+00    0.421E-02
RMM:   2    -0.324518416381E+02   -0.13990E-02   -0.53715E-03  1578   0.317E-01    0.319E-02
RMM:   3    -0.324522014597E+02   -0.35982E-03   -0.14578E-03  1438   0.118E-01
   1067 T=   945. E= -.28834270E+02 F= -.32452201E+02 E0= -.32412118E+02  EK= 0.31758E+01 SP= 0.44E+00 SK= 0.57E-03 mag=     -0.054
       N       E                     dE             d eps       ncg     rms          rms(c)
DAV:   1    -0.324642672231E+02   -0.12426E-01   -0.18902E-02  2568   0.115E+00    0.353E-02
RMM:   2    -0.324653500118E+02   -0.10828E-02   -0.36895E-03  1546   0.272E-01
   1068 T=   952. E= -.28828125E+02 F= -.32465350E+02 E0= -.32425048E+02  EK= 0.31983E+01 SP= 0.44E+00 SK= 0.98E-04 mag=     -0.015
       N       E                     dE             d eps       ncg     rms          rms(c)
DAV:   1    -0.324782805276E+02   -0.14013E-01   -0.26347E-02  2960   0.126E+00    0.400E-02
RMM:   2    -0.324794643126E+02   -0.11838E-02   -0.45608E-03  1584   0.264E-01
   1069 T=   954. E= -.28823120E+02 F= -.32479464E+02 E0= -.32439017E+02  EK= 0.32056E+01 SP= 0.45E+00 SK= 0.20E-02 mag=      0.053
       N       E                     dE             d eps       ncg     rms          rms(c)
DAV:   1    -0.324929587577E+02   -0.14678E-01   -0.11631E-02  2048   0.111E+00    0.398E-02
RMM:   2    -0.324942963707E+02   -0.13376E-02   -0.51206E-03  1589   0.309E-01
   1070 T=   951. E= -.28820151E+02 F= -.32494296E+02 E0= -.32453724E+02  EK= 0.31965E+01 SP= 0.47E+00 SK= 0.63E-02 mag=      0.097
       N       E                     dE             d eps       ncg     rms          rms(c)
DAV:   1    -0.325081621291E+02   -0.15203E-01   -0.26906E-02  2968   0.128E+00    0.349E-02
RMM:   2    -0.325095000024E+02   -0.13379E-02   -0.52395E-03  1595   0.306E-01
   1071 T=   944. E= -.28816338E+02 F= -.32509500E+02 E0= -.32468716E+02  EK= 0.31739E+01 SP= 0.51E+00 SK= 0.13E-01 mag=      0.080
       N       E                     dE             d eps       ncg     rms          rms(c)
DAV:   1    -0.325232310170E+02   -0.15069E-01   -0.15847E-02  2328   0.112E+00    0.344E-02
RMM:   2    -0.325245452132E+02   -0.13142E-02   -0.50350E-03  1576   0.311E-01
   1072 T=   934. E= -.28811886E+02 F= -.32524545E+02 E0= -.32483477E+02  EK= 0.31381E+01 SP= 0.55E+00 SK= 0.21E-01 mag=      0.002
       N       E                     dE             d eps       ncg     rms          rms(c)
DAV:   1    -0.325378597764E+02   -0.14629E-01   -0.19884E-02  2776   0.122E+00    0.368E-02
RMM:   2    -0.325391793311E+02   -0.13196E-02   -0.50670E-03  1567   0.292E-01
   1073 T=   920. E= -.28806480E+02 F= -.32539179E+02 E0= -.32497957E+02  EK= 0.30908E+01 SP= 0.61E+00 SK= 0.30E-01 mag=     -0.084
       N       E                     dE             d eps       ncg     rms          rms(c)
DAV:   1    -0.325518967257E+02   -0.14037E-01   -0.17745E-02  2624   0.114E+00    0.406E-02
RMM:   2    -0.325532764122E+02   -0.13797E-02   -0.50288E-03  1570   0.304E-01    0.303E-02
RMM:   3    -0.325536120345E+02   -0.33562E-03   -0.13446E-03  1464   0.115E-01
   1074 T=   902. E= -.28803089E+02 F= -.32553612E+02 E0= -.32512187E+02  EK= 0.30311E+01 SP= 0.68E+00 SK= 0.40E-01 mag=     -0.062
       N       E                     dE             d eps       ncg     rms          rms(c)
DAV:   1    -0.325659996868E+02   -0.12723E-01   -0.19436E-02  2496   0.111E+00    0.335E-02
RMM:   2    -0.325671409004E+02   -0.11412E-02   -0.37706E-03  1521   0.271E-01
   1075 T=   883. E= -.28796368E+02 F= -.32567141E+02 E0= -.32525453E+02  EK= 0.29660E+01 SP= 0.76E+00 SK= 0.48E-01 mag=      0.046
       N       E                     dE             d eps       ncg     rms          rms(c)
DAV:   1    -0.325779820906E+02   -0.11982E-01   -0.27018E-02  2896   0.122E+00    0.549E-02
RMM:   2    -0.325793649432E+02   -0.13829E-02   -0.44074E-03  1573   0.248E-01    0.399E-02
RMM:   3    -0.325799611884E+02   -0.59625E-03   -0.13276E-03  1398   0.103E-01
   1076 T=   861. E= -.28790672E+02 F= -.32579961E+02 E0= -.32538134E+02  EK= 0.28936E+01 SP= 0.84E+00 SK= 0.56E-01 mag=      0.061
       N       E                     dE             d eps       ncg     rms          rms(c)
DAV:   1    -0.325905993055E+02   -0.11234E-01   -0.15347E-02  2072   0.104E+00    0.476E-02
RMM:   2    -0.325917800662E+02   -0.11808E-02   -0.34016E-03  1518   0.249E-01
   1077 T=   838. E= -.28785668E+02 F= -.32591780E+02 E0= -.32549697E+02  EK= 0.28166E+01 SP= 0.93E+00 SK= 0.61E-01 mag=     -0.009
       N       E                     dE             d eps       ncg     rms          rms(c)
DAV:   1    -0.326011976151E+02   -0.10598E-01   -0.28230E-02  2880   0.119E+00    0.566E-02
RMM:   2    -0.326025761505E+02   -0.13785E-02   -0.44189E-03  1551   0.249E-01    0.415E-02
RMM:   3    -0.326031332966E+02   -0.55715E-03   -0.13713E-03  1418   0.102E-01
   1078 T=   815. E= -.28780835E+02 F= -.32603133E+02 E0= -.32560925E+02  EK= 0.27381E+01 SP= 0.10E+01 SK= 0.64E-01 mag=     -0.045
       N       E                     dE             d eps       ncg     rms          rms(c)
DAV:   1    -0.326124564252E+02   -0.98803E-02   -0.15282E-02  2128   0.995E-01    0.537E-02
RMM:   2    -0.326137063760E+02   -0.12500E-02   -0.39580E-03  1547   0.265E-01
   1079 T=   792. E= -.28775280E+02 F= -.32613706E+02 E0= -.32571314E+02  EK= 0.26611E+01 SP= 0.11E+01 SK= 0.64E-01 mag=     -0.034
       N       E                     dE             d eps       ncg     rms          rms(c)
DAV:   1    -0.326221532896E+02   -0.96969E-02   -0.30172E-02  2800   0.116E+00    0.675E-02
RMM:   2    -0.326236342280E+02   -0.14809E-02   -0.42049E-03  1544   0.239E-01    0.467E-02
RMM:   3    -0.326244337057E+02   -0.79948E-03   -0.16711E-03  1402   0.103E-01
   1080 T=   770. E= -.28770238E+02 F= -.32624434E+02 E0= -.32581910E+02  EK= 0.25869E+01 SP= 0.12E+01 SK= 0.62E-01 mag=      0.001
       N       E                     dE             d eps       ncg     rms          rms(c)
DAV:   1    -0.326326420230E+02   -0.90078E-02   -0.19834E-02  2192   0.975E-01    0.697E-02
RMM:   2    -0.326339550382E+02   -0.13130E-02   -0.35634E-03  1513   0.255E-01
   1081 T=   749. E= -.28765427E+02 F= -.32633955E+02 E0= -.32591343E+02  EK= 0.25161E+01 SP= 0.13E+01 SK= 0.58E-01 mag=      0.043
       N       E                     dE             d eps       ncg     rms          rms(c)
DAV:   1    -0.326412760289E+02   -0.86340E-02   -0.31773E-02  2824   0.112E+00    0.780E-02
RMM:   2    -0.326430310753E+02   -0.17550E-02   -0.44284E-03  1535   0.242E-01    0.554E-02
RMM:   3    -0.326439484644E+02   -0.91739E-03   -0.16764E-03  1400   0.104E-01
   1082 T=   729. E= -.28761413E+02 F= -.32643948E+02 E0= -.32601281E+02  EK= 0.24512E+01 SP= 0.14E+01 SK= 0.51E-01 mag=      0.034
       N       E                     dE             d eps       ncg     rms          rms(c)
DAV:   1    -0.326519707241E+02   -0.89396E-02   -0.21543E-02  2392   0.966E-01    0.854E-02
RMM:   2    -0.326535438305E+02   -0.15731E-02   -0.41278E-03  1476   0.253E-01    0.572E-02
RMM:   3    -0.326540142833E+02   -0.47045E-03   -0.10996E-03  1338   0.998E-02
   1083 T=   712. E= -.28758790E+02 F= -.32654014E+02 E0= -.32611243E+02  EK= 0.23922E+01 SP= 0.15E+01 SK= 0.43E-01 mag=     -0.016
       N       E                     dE             d eps       ncg     rms          rms(c)
DAV:   1    -0.326630843554E+02   -0.95405E-02   -0.37466E-02  2536   0.100E+00    0.531E-02
RMM:   2    -0.326639321595E+02   -0.84780E-03   -0.38389E-03  1547   0.261E-01
   1084 T=   697. E= -.28754113E+02 F= -.32663932E+02 E0= -.32621151E+02  EK= 0.23432E+01 SP= 0.15E+01 SK= 0.35E-01 mag=     -0.069
       N       E                     dE             d eps       ncg     rms          rms(c)
DAV:   1    -0.326732514179E+02   -0.10167E-01   -0.25565E-02  2600   0.102E+00    0.466E-02
RMM:   2    -0.326740593145E+02   -0.80790E-03   -0.39859E-03  1543   0.260E-01
   1085 T=   685. E= -.28750792E+02 F= -.32674059E+02 E0= -.32631269E+02  EK= 0.23016E+01 SP= 0.16E+01 SK= 0.26E-01 mag=     -0.085
       N       E                     dE             d eps       ncg     rms          rms(c)
DAV:   1    -0.326838773213E+02   -0.10626E-01   -0.11721E-02  2488   0.970E-01    0.338E-02
RMM:   2    -0.326846354124E+02   -0.75809E-03   -0.39627E-03  1565   0.275E-01
   1086 T=   675. E= -.28747132E+02 F= -.32684635E+02 E0= -.32641782E+02  EK= 0.22698E+01 SP= 0.16E+01 SK= 0.18E-01 mag=     -0.044
       N       E                     dE             d eps       ncg     rms          rms(c)
DAV:   1    -0.326945660683E+02   -0.10689E-01   -0.13903E-02  2232   0.103E+00    0.435E-02
RMM:   2    -0.326953879006E+02   -0.82183E-03   -0.43861E-03  1578   0.269E-01
   1087 T=   669. E= -.28742269E+02 F= -.32695388E+02 E0= -.32652553E+02  EK= 0.22485E+01 SP= 0.17E+01 SK= 0.11E-01 mag=      0.036
       N       E                     dE             d eps       ncg     rms          rms(c)
DAV:   1    -0.327058081679E+02   -0.11242E-01   -0.10338E-02  2344   0.952E-01    0.391E-02
RMM:   2    -0.327066199902E+02   -0.81182E-03   -0.36409E-03  1546   0.270E-01
   1088 T=   666. E= -.28737458E+02 F= -.32706620E+02 E0= -.32663898E+02  EK= 0.22371E+01 SP= 0.17E+01 SK= 0.56E-02 mag=      0.106
       N       E                     dE             d eps       ncg     rms          rms(c)
DAV:   1    -0.327178886667E+02   -0.12080E-01   -0.13527E-02  2480   0.102E+00    0.463E-02
RMM:   2    -0.327186666103E+02   -0.77794E-03   -0.38190E-03  1556   0.262E-01
   1089 T=   665. E= -.28732783E+02 F= -.32718667E+02 E0= -.32675942E+02  EK= 0.22357E+01 SP= 0.17E+01 SK= 0.20E-02 mag=      0.105
       N       E                     dE             d eps       ncg     rms          rms(c)
DAV:   1    -0.327307721478E+02   -0.12883E-01   -0.10996E-02  2136   0.957E-01    0.351E-02
RMM:   2    -0.327315276789E+02   -0.75553E-03   -0.43383E-03  1550   0.289E-01
   1090 T=   668. E= -.28728705E+02 F= -.32731528E+02 E0= -.32688728E+02  EK= 0.22438E+01 SP= 0.18E+01 SK= 0.20E-03 mag=      0.022
       N       E                     dE             d eps       ncg     rms          rms(c)
DAV:   1    -0.327434800865E+02   -0.12708E-01   -0.13931E-02  2688   0.998E-01    0.547E-02
RMM:   2    -0.327444363677E+02   -0.95628E-03   -0.40836E-03  1540   0.256E-01
   1091 T=   673. E= -.28724599E+02 F= -.32744436E+02 E0= -.32701790E+02  EK= 0.22611E+01 SP= 0.18E+01 SK= 0.24E-03 mag=     -0.097
       N       E                     dE             d eps       ncg     rms          rms(c)
DAV:   1    -0.327571331757E+02   -0.13653E-01   -0.12203E-02  2544   0.973E-01    0.539E-02
RMM:   2    -0.327581599952E+02   -0.10268E-02   -0.44662E-03  1567   0.286E-01
   1092 T=   681. E= -.28720875E+02 F= -.32758160E+02 E0= -.32715638E+02  EK= 0.22878E+01 SP= 0.17E+01 SK= 0.19E-02 mag=     -0.179
       N       E                     dE             d eps       ncg     rms          rms(c)
DAV:   1    -0.327718554842E+02   -0.14722E-01   -0.14857E-02  2504   0.101E+00    0.513E-02
RMM:   2    -0.327727876129E+02   -0.93213E-03   -0.42161E-03  1550   0.275E-01
   1093 T=   692. E= -.28717246E+02 F= -.32772788E+02 E0= -.32730167E+02  EK= 0.23240E+01 SP= 0.17E+01 SK= 0.48E-02 mag=     -0.142
       N       E                     dE             d eps       ncg     rms          rms(c)
DAV:   1    -0.327865491947E+02   -0.14694E-01   -0.11293E-02  2552   0.994E-01    0.468E-02
RMM:   2    -0.327874767778E+02   -0.92758E-03   -0.46898E-03  1577   0.289E-01
   1094 T=   705. E= -.28713598E+02 F= -.32787477E+02 E0= -.32744760E+02  EK= 0.23684E+01 SP= 0.17E+01 SK= 0.86E-02 mag=      0.013
       N       E                     dE             d eps       ncg     rms          rms(c)
DAV:   1    -0.328001238968E+02   -0.13575E-01   -0.15115E-02  2592   0.102E+00    0.671E-02
RMM:   2    -0.328014406742E+02   -0.13168E-02   -0.45660E-03  1548   0.275E-01
   1095 T=   720. E= -.28709481E+02 F= -.32801441E+02 E0= -.32759035E+02  EK= 0.24201E+01 SP= 0.17E+01 SK= 0.13E-01 mag=      0.184
       N       E                     dE             d eps       ncg     rms          rms(c)
DAV:   1    -0.328150761629E+02   -0.14952E-01   -0.13215E-02  2608   0.102E+00    0.687E-02
RMM:   2    -0.328163556435E+02   -0.12795E-02   -0.44615E-03  1542   0.285E-01
   1096 T=   737. E= -.28706481E+02 F= -.32816356E+02 E0= -.32774001E+02  EK= 0.24784E+01 SP= 0.16E+01 SK= 0.17E-01 mag=      0.259
       N       E                     dE             d eps       ncg     rms          rms(c)
DAV:   1    -0.328303193569E+02   -0.15243E-01   -0.15096E-02  2664   0.103E+00    0.572E-02
RMM:   2    -0.328315154896E+02   -0.11961E-02   -0.47891E-03  1549   0.288E-01
   1097 T=   757. E= -.28703615E+02 F= -.32831515E+02 E0= -.32788861E+02  EK= 0.25428E+01 SP= 0.16E+01 SK= 0.20E-01 mag=      0.155
       N       E                     dE             d eps       ncg     rms          rms(c)
DAV:   1    -0.328441358846E+02   -0.13817E-01   -0.14616E-02  2624   0.105E+00    0.621E-02
RMM:   2    -0.328455049947E+02   -0.13691E-02   -0.58541E-03  1588   0.292E-01    0.447E-02
RMM:   3    -0.328458979374E+02   -0.39294E-03   -0.14395E-03  1471   0.114E-01
   1098 T=   777. E= -.28701559E+02 F= -.32845898E+02 E0= -.32803127E+02  EK= 0.26101E+01 SP= 0.15E+01 SK= 0.22E-01 mag=     -0.053
       N       E                     dE             d eps       ncg     rms          rms(c)
DAV:   1    -0.328572909242E+02   -0.11786E-01   -0.18860E-02  2584   0.104E+00    0.755E-02
RMM:   2    -0.328586307929E+02   -0.13399E-02   -0.36418E-03  1440   0.253E-01
   1099 T=   798. E= -.28696932E+02 F= -.32858631E+02 E0= -.32816086E+02  EK= 0.26817E+01 SP= 0.15E+01 SK= 0.23E-01 mag=     -0.245
       N       E                     dE             d eps       ncg     rms          rms(c)
DAV:   1    -0.328683529646E+02   -0.11062E-01   -0.24196E-02  2928   0.117E+00    0.878E-02
RMM:   2    -0.328702446486E+02   -0.18917E-02   -0.43981E-03  1545   0.252E-01    0.648E-02
RMM:   3    -0.328712295612E+02   -0.98491E-03   -0.14927E-03  1400   0.107E-01
   1100 T=   819. E= -.28693741E+02 F= -.32871230E+02 E0= -.32828541E+02  EK= 0.27533E+01 SP= 0.14E+01 SK= 0.22E-01 mag=     -0.111
       N       E                     dE             d eps       ncg     rms          rms(c)
DAV:   1    -0.328797011640E+02   -0.94565E-02   -0.20260E-02  2504   0.102E+00    0.943E-02
RMM:   2    -0.328816352920E+02   -0.19341E-02   -0.37578E-03  1503   0.260E-01    0.675E-02
RMM:   3    -0.328822512524E+02   -0.61596E-03   -0.10799E-03  1324   0.972E-02
   1101 T=   840. E= -.28692079E+02 F= -.32882251E+02 E0= -.32839434E+02  EK= 0.28216E+01 SP= 0.13E+01 SK= 0.20E-01 mag=      0.122
       N       E                     dE             d eps       ncg     rms          rms(c)
DAV:   1    -0.328891884463E+02   -0.75532E-02   -0.42551E-02  2744   0.111E+00    0.781E-02
RMM:   2    -0.328906100950E+02   -0.14216E-02   -0.48111E-03  1540   0.288E-01    0.571E-02
RMM:   3    -0.328911928494E+02   -0.58275E-03   -0.12379E-03  1490   0.110E-01
   1102 T=   859. E= -.28689646E+02 F= -.32891193E+02 E0= -.32848406E+02  EK= 0.28864E+01 SP= 0.13E+01 SK= 0.17E-01 mag=      0.149
       N       E                     dE             d eps       ncg     rms          rms(c)
DAV:   1    -0.328972710981E+02   -0.66610E-02   -0.19152E-02  2688   0.109E+00    0.477E-02
RMM:   2    -0.328981340271E+02   -0.86293E-03   -0.38319E-03  1533   0.271E-01
   1103 T=   876. E= -.28687550E+02 F= -.32898134E+02 E0= -.32854939E+02  EK= 0.29447E+01 SP= 0.13E+01 SK= 0.14E-01 mag=     -0.020
       N       E                     dE             d eps       ncg     rms          rms(c)
DAV:   1    -0.328997169815E+02   -0.24459E-02   -0.19444E-02  2864   0.114E+00    0.654E-02
RMM:   2    -0.329011019041E+02   -0.13849E-02   -0.48295E-03  1547   0.270E-01    0.471E-02
RMM:   3    -0.329018061086E+02   -0.70420E-03   -0.15970E-03  1466   0.112E-01
   1104 T=   891. E= -.28685521E+02 F= -.32901806E+02 E0= -.32858777E+02  EK= 0.29937E+01 SP= 0.12E+01 SK= 0.95E-02 mag=     -0.120
       N       E                     dE             d eps       ncg     rms          rms(c)
DAV:   1    -0.329021968617E+02   -0.10950E-02   -0.14595E-02  2448   0.111E+00    0.667E-02
RMM:   2    -0.329031037440E+02   -0.90688E-03   -0.30333E-03  1528   0.256E-01
   1105 T=   903. E= -.28681619E+02 F= -.32903104E+02 E0= -.32859994E+02  EK= 0.30343E+01 SP= 0.12E+01 SK= 0.57E-02 mag=     -0.100
       N       E                     dE             d eps       ncg     rms          rms(c)
DAV:   1    -0.329004418688E+02    0.17550E-02   -0.22730E-02  3048   0.126E+00    0.485E-02
RMM:   2    -0.329014509731E+02   -0.10091E-02   -0.39077E-03  1549   0.247E-01
   1106 T=   911. E= -.28677160E+02 F= -.32901451E+02 E0= -.32858207E+02  EK= 0.30633E+01 SP= 0.12E+01 SK= 0.26E-02 mag=      0.025
       N       E                     dE             d eps       ncg     rms          rms(c)
DAV:   1    -0.328952659148E+02    0.51760E-02   -0.10504E-02  2064   0.107E+00    0.585E-02
RMM:   2    -0.328965737408E+02   -0.13078E-02   -0.51448E-03  1554   0.316E-01
   1107 T=   916. E= -.28673372E+02 F= -.32896574E+02 E0= -.32853519E+02  EK= 0.30781E+01 SP= 0.11E+01 SK= 0.62E-03 mag=      0.174
       N       E                     dE             d eps       ncg     rms          rms(c)
DAV:   1    -0.328874752673E+02    0.77906E-02   -0.25348E-02  2808   0.125E+00    0.601E-02
RMM:   2    -0.328888917518E+02   -0.14165E-02   -0.50048E-03  1553   0.299E-01    0.440E-02
RMM:   3    -0.328892969810E+02   -0.40523E-03   -0.13454E-03  1478   0.116E-01
   1108 T=   916. E= -.28669926E+02 F= -.32889297E+02 E0= -.32846413E+02  EK= 0.30792E+01 SP= 0.11E+01 SK= 0.22E-05 mag=      0.123
       N       E                     dE             d eps       ncg     rms          rms(c)
DAV:   1    -0.328780368481E+02    0.10855E-01   -0.16690E-02  2328   0.109E+00    0.668E-02
RMM:   2    -0.328790894350E+02   -0.10526E-02   -0.35066E-03  1515   0.285E-01
   1109 T=   913. E= -.28664057E+02 F= -.32879089E+02 E0= -.32836110E+02  EK= 0.30687E+01 SP= 0.11E+01 SK= 0.76E-03 mag=     -0.087
       N       E                     dE             d eps       ncg     rms          rms(c)
DAV:   1    -0.328633200019E+02    0.14717E-01   -0.27937E-02  3008   0.128E+00    0.762E-02
RMM:   2    -0.328649564266E+02   -0.16364E-02   -0.48229E-03  1554   0.259E-01    0.550E-02
RMM:   3    -0.328656490808E+02   -0.69265E-03   -0.13856E-03  1420   0.104E-01
   1110 T=   906. E= -.28657704E+02 F= -.32865649E+02 E0= -.32823116E+02  EK= 0.30449E+01 SP= 0.12E+01 SK= 0.28E-02 mag=     -0.156
       N       E                     dE             d eps       ncg     rms          rms(c)
DAV:   1    -0.328498649288E+02    0.15091E-01   -0.13735E-02  2360   0.107E+00    0.745E-02
RMM:   2    -0.328508952222E+02   -0.10303E-02   -0.34111E-03  1522   0.275E-01
   1111 T=   895. E= -.28653240E+02 F= -.32850895E+02 E0= -.32808360E+02  EK= 0.30082E+01 SP= 0.12E+01 SK= 0.57E-02 mag=     -0.059
       N       E                     dE             d eps       ncg     rms          rms(c)
DAV:   1    -0.328318197627E+02    0.18045E-01   -0.29167E-02  2960   0.125E+00    0.661E-02
RMM:   2    -0.328332834307E+02   -0.14637E-02   -0.49376E-03  1551   0.268E-01    0.450E-02
RMM:   3    -0.328338427838E+02   -0.55935E-03   -0.14596E-03  1476   0.110E-01
   1112 T=   881. E= -.28648451E+02 F= -.32833843E+02 E0= -.32791519E+02  EK= 0.29611E+01 SP= 0.12E+01 SK= 0.91E-02 mag=      0.063
       N       E                     dE             d eps       ncg     rms          rms(c)
DAV:   1    -0.328145223103E+02    0.18761E-01   -0.14242E-02  2264   0.104E+00    0.823E-02
RMM:   2    -0.328155804038E+02   -0.10581E-02   -0.33927E-03  1520   0.278E-01
   1113 T=   865. E= -.28643048E+02 F= -.32815580E+02 E0= -.32773743E+02  EK= 0.29066E+01 SP= 0.13E+01 SK= 0.13E-01 mag=      0.140
       N       E                     dE             d eps       ncg     rms          rms(c)
DAV:   1    -0.327948253717E+02    0.19697E-01   -0.28475E-02  3112   0.123E+00    0.706E-02
RMM:   2    -0.327962328300E+02   -0.14075E-02   -0.46368E-03  1558   0.251E-01    0.478E-02
RMM:   3    -0.327967411929E+02   -0.50836E-03   -0.13360E-03  1412   0.103E-01
   1114 T=   847. E= -.28637543E+02 F= -.32796741E+02 E0= -.32755244E+02  EK= 0.28468E+01 SP= 0.13E+01 SK= 0.16E-01 mag=      0.079
       N       E                     dE             d eps       ncg     rms          rms(c)
DAV:   1    -0.327770292740E+02    0.19204E-01   -0.14196E-02  2248   0.103E+00    0.822E-02
RMM:   2    -0.327779445200E+02   -0.91525E-03   -0.33287E-03  1554   0.273E-01
   1115 T=   828. E= -.28633386E+02 F= -.32777945E+02 E0= -.32736706E+02  EK= 0.27826E+01 SP= 0.13E+01 SK= 0.18E-01 mag=     -0.083
       N       E                     dE             d eps       ncg     rms          rms(c)
DAV:   1    -0.327566694154E+02    0.20360E-01   -0.28972E-02  3032   0.118E+00    0.780E-02
RMM:   2    -0.327581526663E+02   -0.14833E-02   -0.45226E-03  1547   0.245E-01    0.548E-02
RMM:   3    -0.327589195553E+02   -0.76689E-03   -0.16258E-03  1407   0.106E-01
   1116 T=   808. E= -.28628993E+02 F= -.32758920E+02 E0= -.32718315E+02  EK= 0.27171E+01 SP= 0.14E+01 SK= 0.19E-01 mag=     -0.112
       N       E                     dE             d eps       ncg     rms          rms(c)
DAV:   1    -0.327412891349E+02    0.16864E-01   -0.13609E-02  2288   0.101E+00    0.921E-02
RMM:   2    -0.327421014843E+02   -0.81235E-03   -0.33623E-03  1506   0.271E-01
   1117 T=   790. E= -.28624937E+02 F= -.32742101E+02 E0= -.32701773E+02  EK= 0.26540E+01 SP= 0.14E+01 SK= 0.19E-01 mag=     -0.012
       N       E                     dE             d eps       ncg     rms          rms(c)
DAV:   1    -0.327248528645E+02    0.16436E-01   -0.25795E-02  3032   0.116E+00    0.714E-02
RMM:   2    -0.327259054335E+02   -0.10526E-02   -0.38965E-03  1539   0.238E-01
   1118 T=   772. E= -.28619608E+02 F= -.32725905E+02 E0= -.32686103E+02  EK= 0.25947E+01 SP= 0.15E+01 SK= 0.18E-01 mag=      0.133
       N       E                     dE             d eps       ncg     rms          rms(c)
DAV:   1    -0.327099569019E+02    0.14896E-01   -0.98253E-03  2048   0.990E-01    0.678E-02
RMM:   2    -0.327113217977E+02   -0.13649E-02   -0.54830E-03  1578   0.310E-01    0.474E-02
RMM:   3    -0.327119793399E+02   -0.65754E-03   -0.20641E-03  1420   0.132E-01
   1119 T=   755. E= -.28617539E+02 F= -.32711979E+02 E0= -.32672654E+02  EK= 0.25378E+01 SP= 0.15E+01 SK= 0.16E-01 mag=      0.112
       N       E                     dE             d eps       ncg     rms          rms(c)
DAV:   1    -0.326993201694E+02    0.12002E-01   -0.17416E-02  2336   0.103E+00    0.554E-02
RMM:   2    -0.327001880149E+02   -0.86785E-03   -0.29608E-03  1498   0.247E-01
   1120 T=   741. E= -.28613220E+02 F= -.32700188E+02 E0= -.32661114E+02  EK= 0.24896E+01 SP= 0.16E+01 SK= 0.13E-01 mag=     -0.038
       N       E                     dE             d eps       ncg     rms          rms(c)
DAV:   1    -0.326883796587E+02    0.10941E-01   -0.18218E-02  2728   0.111E+00    0.674E-02
RMM:   2    -0.326897681099E+02   -0.13885E-02   -0.48743E-03  1544   0.249E-01    0.494E-02
RMM:   3    -0.326903311339E+02   -0.56302E-03   -0.11931E-03  1372   0.103E-01
   1121 T=   728. E= -.28609271E+02 F= -.32690331E+02 E0= -.32651777E+02  EK= 0.24482E+01 SP= 0.16E+01 SK= 0.96E-02 mag=     -0.087
       N       E                     dE             d eps       ncg     rms          rms(c)
DAV:   1    -0.326822407533E+02    0.75274E-02   -0.14415E-02  2352   0.934E-01    0.686E-02
RMM:   2    -0.326832713555E+02   -0.10306E-02   -0.34695E-03  1509   0.248E-01
   1122 T=   719. E= -.28605214E+02 F= -.32683271E+02 E0= -.32644962E+02  EK= 0.24156E+01 SP= 0.17E+01 SK= 0.65E-02 mag=     -0.035
       N       E                     dE             d eps       ncg     rms          rms(c)
DAV:   1    -0.326764569510E+02    0.57838E-02   -0.22953E-02  2744   0.107E+00    0.711E-02
RMM:   2    -0.326777300027E+02   -0.12731E-02   -0.41764E-03  1551   0.248E-01
   1123 T=   712. E= -.28600332E+02 F= -.32677730E+02 E0= -.32639665E+02  EK= 0.23918E+01 SP= 0.17E+01 SK= 0.37E-02 mag=      0.056
       N       E                     dE             d eps       ncg     rms          rms(c)
DAV:   1    -0.326737510518E+02    0.27059E-02   -0.10310E-02  1976   0.951E-01    0.500E-02
RMM:   2    -0.326746812813E+02   -0.93023E-03   -0.44645E-03  1549   0.290E-01
   1124 T=   707. E= -.28596954E+02 F= -.32674681E+02 E0= -.32636918E+02  EK= 0.23756E+01 SP= 0.17E+01 SK= 0.16E-02 mag=      0.120
       N       E                     dE             d eps       ncg     rms          rms(c)
DAV:   1    -0.326713920773E+02    0.23590E-02   -0.20231E-02  2696   0.106E+00    0.612E-02
RMM:   2    -0.326725459940E+02   -0.11539E-02   -0.46170E-03  1536   0.268E-01
   1125 T=   705. E= -.28592485E+02 F= -.32672546E+02 E0= -.32635028E+02  EK= 0.23683E+01 SP= 0.17E+01 SK= 0.36E-03 mag=      0.104
       N       E                     dE             d eps       ncg     rms          rms(c)
DAV:   1    -0.326709966041E+02    0.39547E-03   -0.12994E-02  2400   0.982E-01    0.576E-02
RMM:   2    -0.326720626916E+02   -0.10661E-02   -0.49723E-03  1569   0.296E-01
   1126 T=   705. E= -.28588537E+02 F= -.32672063E+02 E0= -.32634545E+02  EK= 0.23691E+01 SP= 0.17E+01 SK= 0.70E-05 mag=      0.006
       N       E                     dE             d eps       ncg     rms          rms(c)
DAV:   1    -0.326710587689E+02   -0.62165E-04   -0.15379E-02  2400   0.103E+00    0.562E-02
RMM:   2    -0.326720647204E+02   -0.10060E-02   -0.47402E-03  1549   0.282E-01
   1127 T=   708. E= -.28584074E+02 F= -.32672065E+02 E0= -.32634705E+02  EK= 0.23779E+01 SP= 0.17E+01 SK= 0.58E-03 mag=     -0.119
       N       E                     dE             d eps       ncg     rms          rms(c)
DAV:   1    -0.326706770028E+02    0.38177E-03   -0.11610E-02  2424   0.101E+00    0.627E-02
RMM:   2    -0.326718718394E+02   -0.11948E-02   -0.50109E-03  1548   0.300E-01
   1128 T=   712. E= -.28579348E+02 F= -.32671872E+02 E0= -.32634758E+02  EK= 0.23937E+01 SP= 0.17E+01 SK= 0.20E-02 mag=     -0.186
       N       E                     dE             d eps       ncg     rms          rms(c)
DAV:   1    -0.326700805334E+02    0.59647E-03   -0.14345E-02  2520   0.107E+00    0.731E-02
RMM:   2    -0.326714559615E+02   -0.13754E-02   -0.50256E-03  1553   0.299E-01    0.521E-02
RMM:   3    -0.326721143341E+02   -0.65837E-03   -0.17294E-03  1449   0.119E-01
   1129 T=   719. E= -.28576127E+02 F= -.32672114E+02 E0= -.32634810E+02  EK= 0.24149E+01 SP= 0.17E+01 SK= 0.41E-02 mag=     -0.058
       N       E                     dE             d eps       ncg     rms          rms(c)
DAV:   1    -0.326691097435E+02    0.23462E-02   -0.15691E-02  2376   0.101E+00    0.768E-02
RMM:   2    -0.326703507346E+02   -0.12410E-02   -0.32329E-03  1467   0.261E-01
   1130 T=   727. E= -.28571089E+02 F= -.32670351E+02 E0= -.32633143E+02  EK= 0.24422E+01 SP= 0.17E+01 SK= 0.66E-02 mag=      0.141
       N       E                     dE             d eps       ncg     rms          rms(c)
DAV:   1    -0.326647642012E+02    0.43455E-02   -0.26887E-02  2768   0.120E+00    0.814E-02
RMM:   2    -0.326666953698E+02   -0.19312E-02   -0.57842E-03  1604   0.287E-01    0.639E-02
RMM:   3    -0.326676877589E+02   -0.99239E-03   -0.16374E-03  1408   0.116E-01
   1131 T=   736. E= -.28566958E+02 F= -.32667688E+02 E0= -.32630536E+02  EK= 0.24736E+01 SP= 0.16E+01 SK= 0.94E-02 mag=      0.090
       N       E                     dE             d eps       ncg     rms          rms(c)
DAV:   1    -0.326622411784E+02    0.44542E-02   -0.19216E-02  2456   0.102E+00    0.736E-02
RMM:   2    -0.326637000998E+02   -0.14589E-02   -0.42279E-03  1451   0.253E-01    0.554E-02
RMM:   3    -0.326640899995E+02   -0.38990E-03   -0.10104E-03  1287   0.974E-02
   1132 T=   746. E= -.28565260E+02 F= -.32664090E+02 E0= -.32626549E+02  EK= 0.25069E+01 SP= 0.16E+01 SK= 0.12E-01 mag=     -0.074
       N       E                     dE             d eps       ncg     rms          rms(c)
DAV:   1    -0.326559311378E+02    0.77690E-02   -0.35093E-02  2624   0.118E+00    0.715E-02
RMM:   2    -0.326571304204E+02   -0.11993E-02   -0.51172E-03  1587   0.305E-01
   1133 T=   757. E= -.28560269E+02 F= -.32657130E+02 E0= -.32619772E+02  EK= 0.25449E+01 SP= 0.15E+01 SK= 0.15E-01 mag=     -0.231
       N       E                     dE             d eps       ncg     rms          rms(c)
DAV:   1    -0.326467635277E+02    0.91676E-02   -0.20764E-02  2752   0.112E+00    0.674E-02
RMM:   2    -0.326481147126E+02   -0.13512E-02   -0.45662E-03  1577   0.278E-01    0.506E-02
RMM:   3    -0.326488117243E+02   -0.69701E-03   -0.14657E-03  1431   0.114E-01
   1134 T=   769. E= -.28557787E+02 F= -.32648812E+02 E0= -.32611061E+02  EK= 0.25829E+01 SP= 0.15E+01 SK= 0.17E-01 mag=     -0.101
       N       E                     dE             d eps       ncg     rms          rms(c)
DAV:   1    -0.326360320603E+02    0.12083E-01   -0.18538E-02  2408   0.110E+00    0.790E-02
RMM:   2    -0.326371266587E+02   -0.10946E-02   -0.31623E-03  1495   0.249E-01
   1135 T=   780. E= -.28553875E+02 F= -.32637127E+02 E0= -.32599249E+02  EK= 0.26223E+01 SP= 0.14E+01 SK= 0.18E-01 mag=      0.203
       N       E                     dE             d eps       ncg     rms          rms(c)
DAV:   1    -0.326172476581E+02    0.18784E-01   -0.29457E-02  2856   0.121E+00    0.113E-01
RMM:   2    -0.326202008232E+02   -0.29532E-02   -0.60686E-03  1524   0.269E-01    0.881E-02
RMM:   3    -0.326223786011E+02   -0.21778E-02   -0.28134E-03  1402   0.121E-01    0.643E-02
RMM:   4    -0.326240988564E+02   -0.17203E-02   -0.31640E-03  1421   0.983E-02    0.234E-02
RMM:   5    -0.326243309675E+02   -0.23211E-03   -0.78081E-04  1339   0.607E-02
   1136 T=   792. E= -.28551328E+02 F= -.32624331E+02 E0= -.32585814E+02  EK= 0.26614E+01 SP= 0.14E+01 SK= 0.19E-01 mag=      0.021
       N       E                     dE             d eps       ncg     rms          rms(c)
DAV:   1    -0.326010912286E+02    0.23008E-01   -0.20087E-02  2352   0.106E+00    0.127E-01
RMM:   2    -0.326040385580E+02   -0.29473E-02   -0.67397E-03  1428   0.271E-01    0.950E-02
RMM:   3    -0.326059973298E+02   -0.19588E-02   -0.24836E-03  1402   0.117E-01    0.708E-02
RMM:   4    -0.326078129356E+02   -0.18156E-02   -0.27778E-03  1423   0.953E-02    0.309E-02
RMM:   5    -0.326081480454E+02   -0.33511E-03   -0.67849E-04  1304   0.604E-02
   1137 T=   802. E= -.28550520E+02 F= -.32608148E+02 E0= -.32569382E+02  EK= 0.26968E+01 SP= 0.13E+01 SK= 0.19E-01 mag=     -0.049
       N       E                     dE             d eps       ncg     rms          rms(c)
DAV:   1    -0.325890087876E+02    0.18804E-01   -0.11450E-02  2560   0.107E+00    0.482E-02
RMM:   2    -0.325896873152E+02   -0.67853E-03   -0.30556E-03  1533   0.244E-01
   1138 T=   813. E= -.28546968E+02 F= -.32589687E+02 E0= -.32550598E+02  EK= 0.27332E+01 SP= 0.13E+01 SK= 0.19E-01 mag=     -0.004
       N       E                     dE             d eps       ncg     rms          rms(c)
DAV:   1    -0.325677780910E+02    0.21231E-01   -0.14961E-02  2768   0.116E+00    0.490E-02
RMM:   2    -0.325687407955E+02   -0.96270E-03   -0.37765E-03  1553   0.258E-01
   1139 T=   823. E= -.28543540E+02 F= -.32568741E+02 E0= -.32529458E+02  EK= 0.27664E+01 SP= 0.12E+01 SK= 0.18E-01 mag=      0.104
       N       E                     dE             d eps       ncg     rms          rms(c)
DAV:   1    -0.325452508988E+02    0.22527E-01   -0.91965E-03  2152   0.108E+00    0.494E-02
RMM:   2    -0.325463082592E+02   -0.10574E-02   -0.40143E-03  1545   0.281E-01
   1140 T=   832. E= -.28540054E+02 F= -.32546308E+02 E0= -.32506860E+02  EK= 0.27968E+01 SP= 0.12E+01 SK= 0.16E-01 mag=      0.173
       N       E                     dE             d eps       ncg     rms          rms(c)
DAV:   1    -0.325224739427E+02    0.22777E-01   -0.19713E-02  2800   0.119E+00    0.394E-02
RMM:   2    -0.325234209306E+02   -0.94699E-03   -0.43213E-03  1563   0.284E-01
   1141 T=   841. E= -.28535532E+02 F= -.32523421E+02 E0= -.32483466E+02  EK= 0.28256E+01 SP= 0.11E+01 SK= 0.14E-01 mag=      0.141
       N       E                     dE             d eps       ncg     rms          rms(c)
DAV:   1    -0.324980920195E+02    0.24382E-01   -0.14295E-02  2552   0.106E+00    0.373E-02
RMM:   2    -0.324991700427E+02   -0.10780E-02   -0.47431E-03  1561   0.297E-01
   1142 T=   848. E= -.28531360E+02 F= -.32499170E+02 E0= -.32458756E+02  EK= 0.28495E+01 SP= 0.11E+01 SK= 0.12E-01 mag=      0.006
       N       E                     dE             d eps       ncg     rms          rms(c)
DAV:   1    -0.324731911797E+02    0.24901E-01   -0.16008E-02  2880   0.114E+00    0.474E-02
RMM:   2    -0.324743408976E+02   -0.11497E-02   -0.44893E-03  1549   0.273E-01
   1143 T=   854. E= -.28527377E+02 F= -.32474341E+02 E0= -.32433783E+02  EK= 0.28687E+01 SP= 0.11E+01 SK= 0.95E-02 mag=     -0.152
       N       E                     dE             d eps       ncg     rms          rms(c)
DAV:   1    -0.324487199984E+02    0.24471E-01   -0.15067E-02  2544   0.108E+00    0.489E-02
RMM:   2    -0.324499634224E+02   -0.12434E-02   -0.47368E-03  1545   0.300E-01
   1144 T=   858. E= -.28523370E+02 F= -.32449963E+02 E0= -.32409254E+02  EK= 0.28840E+01 SP= 0.10E+01 SK= 0.72E-02 mag=     -0.231
       N       E                     dE             d eps       ncg     rms          rms(c)
DAV:   1    -0.324253583399E+02    0.23362E-01   -0.17590E-02  2952   0.115E+00    0.488E-02
RMM:   2    -0.324267242139E+02   -0.13659E-02   -0.53096E-03  1579   0.284E-01    0.376E-02
RMM:   3    -0.324272140167E+02   -0.48980E-03   -0.14691E-03  1465   0.112E-01
   1145 T=   861. E= -.28520769E+02 F= -.32427214E+02 E0= -.32385886E+02  EK= 0.28944E+01 SP= 0.10E+01 SK= 0.51E-02 mag=     -0.070
       N       E                     dE             d eps       ncg     rms          rms(c)
DAV:   1    -0.324029242977E+02    0.23800E-01   -0.18870E-02  2576   0.106E+00    0.555E-02
RMM:   2    -0.324041855529E+02   -0.12613E-02   -0.31515E-03  1469   0.251E-01
   1146 T=   864. E= -.28514976E+02 F= -.32404186E+02 E0= -.32362803E+02  EK= 0.29023E+01 SP= 0.98E+00 SK= 0.32E-02 mag=      0.217
       N       E                     dE             d eps       ncg     rms          rms(c)
DAV:   1    -0.323789032424E+02    0.24021E-01   -0.29212E-02  3048   0.121E+00    0.900E-02
RMM:   2    -0.323811597561E+02   -0.22565E-02   -0.50256E-03  1535   0.253E-01    0.721E-02
RMM:   3    -0.323826324237E+02   -0.14727E-02   -0.19657E-03  1402   0.107E-01    0.539E-02
RMM:   4    -0.323839939418E+02   -0.13615E-02   -0.28333E-03  1421   0.905E-02    0.187E-02
RMM:   5    -0.323841347961E+02   -0.14085E-03   -0.55673E-04  1252   0.529E-02
   1147 T=   864. E= -.28511461E+02 F= -.32384135E+02 E0= -.32342086E+02  EK= 0.29054E+01 SP= 0.97E+00 SK= 0.18E-02 mag=      0.022
       N       E                     dE             d eps       ncg     rms          rms(c)
DAV:   1    -0.323585134967E+02    0.25480E-01   -0.19044E-02  2536   0.103E+00    0.101E-01
RMM:   2    -0.323611940193E+02   -0.26805E-02   -0.61590E-03  1429   0.249E-01    0.804E-02
RMM:   3    -0.323628888176E+02   -0.16948E-02   -0.22293E-03  1400   0.102E-01    0.606E-02
RMM:   4    -0.323642786374E+02   -0.13898E-02   -0.18729E-03  1402   0.788E-02    0.333E-02
RMM:   5    -0.323647654412E+02   -0.48680E-03   -0.10964E-03  1337   0.601E-02
   1148 T=   863. E= -.28510520E+02 F= -.32364765E+02 E0= -.32322498E+02  EK= 0.29007E+01 SP= 0.95E+00 SK= 0.78E-03 mag=     -0.041
       N       E                     dE             d eps       ncg     rms          rms(c)
DAV:   1    -0.323463912176E+02    0.17887E-01   -0.13249E-02  2584   0.108E+00    0.410E-02
RMM:   2    -0.323472365645E+02   -0.84535E-03   -0.30156E-03  1520   0.233E-01
   1149 T=   861. E= -.28507447E+02 F= -.32347237E+02 E0= -.32304756E+02  EK= 0.28944E+01 SP= 0.95E+00 SK= 0.19E-03 mag=      0.023
       N       E                     dE             d eps       ncg     rms          rms(c)
DAV:   1    -0.323309730685E+02    0.15418E-01   -0.14729E-02  3024   0.114E+00    0.459E-02
RMM:   2    -0.323320061345E+02   -0.10331E-02   -0.36524E-03  1498   0.233E-01
   1150 T=   858. E= -.28505736E+02 F= -.32332006E+02 E0= -.32289503E+02  EK= 0.28835E+01 SP= 0.94E+00 SK= 0.17E-07 mag=      0.144
       N       E                     dE             d eps       ncg     rms          rms(c)
DAV:   1    -0.323180861157E+02    0.12887E-01   -0.93080E-03  2232   0.106E+00    0.466E-02
RMM:   2    -0.323191674002E+02   -0.10813E-02   -0.41440E-03  1534   0.277E-01
   1151 T=   854. E= -.28502857E+02 F= -.32319167E+02 E0= -.32276685E+02  EK= 0.28710E+01 SP= 0.95E+00 SK= 0.16E-03 mag=      0.204
       N       E                     dE             d eps       ncg     rms          rms(c)
DAV:   1    -0.323082651258E+02    0.98210E-02   -0.21355E-02  2936   0.118E+00    0.397E-02
RMM:   2    -0.323092181578E+02   -0.95303E-03   -0.40307E-03  1526   0.270E-01
   1152 T=   850. E= -.28498836E+02 F= -.32309218E+02 E0= -.32266397E+02  EK= 0.28578E+01 SP= 0.95E+00 SK= 0.60E-03 mag=      0.133
       N       E                     dE             d eps       ncg     rms          rms(c)
DAV:   1    -0.322998863300E+02    0.83788E-02   -0.14518E-02  2536   0.107E+00    0.339E-02
RMM:   2    -0.323008912355E+02   -0.10049E-02   -0.46244E-03  1535   0.300E-01
   1153 T=   846. E= -.28494954E+02 F= -.32300891E+02 E0= -.32257874E+02  EK= 0.28417E+01 SP= 0.96E+00 SK= 0.13E-02 mag=     -0.047
       N       E                     dE             d eps       ncg     rms          rms(c)
DAV:   1    -0.322928082510E+02    0.70781E-02   -0.15571E-02  2792   0.116E+00    0.504E-02
RMM:   2    -0.322940384713E+02   -0.12302E-02   -0.50054E-03  1564   0.283E-01
   1154 T=   840. E= -.28490019E+02 F= -.32294038E+02 E0= -.32251253E+02  EK= 0.28242E+01 SP= 0.98E+00 SK= 0.20E-02 mag=     -0.200
       N       E                     dE             d eps       ncg     rms          rms(c)
DAV:   1    -0.322886270793E+02    0.41812E-02   -0.13139E-02  2552   0.110E+00    0.554E-02
RMM:   2    -0.322897829739E+02   -0.11559E-02   -0.48369E-03  1551   0.315E-01
   1155 T=   835. E= -.28485455E+02 F= -.32289783E+02 E0= -.32246949E+02  EK= 0.28055E+01 SP= 0.10E+01 SK= 0.29E-02 mag=     -0.221
       N       E                     dE             d eps       ncg     rms          rms(c)
DAV:   1    -0.322865171522E+02    0.21099E-02   -0.16387E-02  2840   0.115E+00    0.385E-02
RMM:   2    -0.322875680602E+02   -0.10509E-02   -0.46740E-03  1526   0.292E-01
   1156 T=   829. E= -.28480747E+02 F= -.32287568E+02 E0= -.32244437E+02  EK= 0.27861E+01 SP= 0.10E+01 SK= 0.37E-02 mag=     -0.070
       N       E                     dE             d eps       ncg     rms          rms(c)
DAV:   1    -0.322850354814E+02    0.14817E-02   -0.11769E-02  2328   0.109E+00    0.480E-02
RMM:   2    -0.322861082396E+02   -0.10728E-02   -0.49362E-03  1546   0.305E-01
   1157 T=   823. E= -.28475075E+02 F= -.32286108E+02 E0= -.32243058E+02  EK= 0.27661E+01 SP= 0.10E+01 SK= 0.45E-02 mag=      0.170
       N       E                     dE             d eps       ncg     rms          rms(c)
DAV:   1    -0.322833684064E+02    0.16671E-02   -0.14971E-02  2704   0.113E+00    0.718E-02
RMM:   2    -0.322850310920E+02   -0.16627E-02   -0.52919E-03  1532   0.299E-01    0.580E-02
RMM:   3    -0.322862145569E+02   -0.11835E-02   -0.23934E-03  1419   0.124E-01
   1158 T=   817. E= -.28470363E+02 F= -.32286215E+02 E0= -.32243244E+02  EK= 0.27450E+01 SP= 0.11E+01 SK= 0.51E-02 mag=      0.081
       N       E                     dE             d eps       ncg     rms          rms(c)
DAV:   1    -0.322855169793E+02   -0.48589E-03   -0.19089E-02  2528   0.107E+00    0.711E-02
RMM:   2    -0.322869763033E+02   -0.14593E-02   -0.37672E-03  1448   0.275E-01    0.525E-02
RMM:   3    -0.322874875488E+02   -0.51125E-03   -0.94109E-04  1289   0.973E-02
   1159 T=   810. E= -.28466152E+02 F= -.32287488E+02 E0= -.32244396E+02  EK= 0.27233E+01 SP= 0.11E+01 SK= 0.56E-02 mag=     -0.105
       N       E                     dE             d eps       ncg     rms          rms(c)
DAV:   1    -0.322881329943E+02   -0.11567E-02   -0.35837E-02  2600   0.108E+00    0.619E-02
RMM:   2    -0.322892224591E+02   -0.10895E-02   -0.44708E-03  1529   0.269E-01
   1160 T=   804. E= -.28460091E+02 F= -.32289222E+02 E0= -.32246156E+02  EK= 0.27032E+01 SP= 0.11E+01 SK= 0.58E-02 mag=     -0.245
       N       E                     dE             d eps       ncg     rms          rms(c)
DAV:   1    -0.322910390502E+02   -0.29061E-02   -0.21156E-02  2536   0.111E+00    0.573E-02
RMM:   2    -0.322921145902E+02   -0.10755E-02   -0.44942E-03  1553   0.277E-01
   1161 T=   798. E= -.28455314E+02 F= -.32292115E+02 E0= -.32248916E+02  EK= 0.26829E+01 SP= 0.11E+01 SK= 0.59E-02 mag=     -0.221
       N       E                     dE             d eps       ncg     rms          rms(c)
DAV:   1    -0.322952134844E+02   -0.41744E-02   -0.14661E-02  2600   0.108E+00    0.300E-02
RMM:   2    -0.322959451344E+02   -0.73165E-03   -0.41214E-03  1556   0.292E-01
   1162 T=   793. E= -.28450517E+02 F= -.32295945E+02 E0= -.32252373E+02  EK= 0.26639E+01 SP= 0.12E+01 SK= 0.57E-02 mag=     -0.029
       N       E                     dE             d eps       ncg     rms          rms(c)
DAV:   1    -0.322981903281E+02   -0.29768E-02   -0.14155E-02  2304   0.112E+00    0.510E-02
RMM:   2    -0.322992181032E+02   -0.10278E-02   -0.46254E-03  1546   0.288E-01
   1163 T=   788. E= -.28443996E+02 F= -.32299218E+02 E0= -.32255631E+02  EK= 0.26468E+01 SP= 0.12E+01 SK= 0.54E-02 mag=      0.218
       N       E                     dE             d eps       ncg     rms          rms(c)
DAV:   1    -0.323010581448E+02   -0.28678E-02   -0.10862E-02  2416   0.103E+00    0.734E-02
RMM:   2    -0.323025289735E+02   -0.14708E-02   -0.44353E-03  1527   0.280E-01    0.582E-02
RMM:   3    -0.323036510798E+02   -0.11221E-02   -0.20492E-03  1400   0.118E-01
   1164 T=   783. E= -.28439328E+02 F= -.32303651E+02 E0= -.32259876E+02  EK= 0.26302E+01 SP= 0.12E+01 SK= 0.49E-02 mag=      0.102
       N       E                     dE             d eps       ncg     rms          rms(c)
DAV:   1    -0.323065659201E+02   -0.40369E-02   -0.15874E-02  2536   0.104E+00    0.649E-02
RMM:   2    -0.323078203038E+02   -0.12544E-02   -0.35657E-03  1492   0.259E-01
   1165 T=   779. E= -.28432377E+02 F= -.32307820E+02 E0= -.32263734E+02  EK= 0.26172E+01 SP= 0.13E+01 SK= 0.43E-02 mag=     -0.261
       N       E                     dE             d eps       ncg     rms          rms(c)
DAV:   1    -0.323054871644E+02    0.10788E-02   -0.28132E-02  2808   0.110E+00    0.123E-01
RMM:   2    -0.323085322406E+02   -0.30451E-02   -0.57363E-03  1517   0.258E-01    0.965E-02
RMM:   3    -0.323120902741E+02   -0.35580E-02   -0.45127E-03  1400   0.135E-01    0.540E-02
RMM:   4    -0.323132361802E+02   -0.11459E-02   -0.22855E-03  1398   0.102E-01
   1166 T=   775. E= -.28428420E+02 F= -.32313236E+02 E0= -.32268516E+02  EK= 0.26043E+01 SP= 0.13E+01 SK= 0.36E-02 mag=     -0.029
       N       E                     dE             d eps       ncg     rms          rms(c)
DAV:   1    -0.323103061737E+02    0.17841E-02   -0.16265E-02  2408   0.998E-01    0.126E-01
RMM:   2    -0.323134112620E+02   -0.31051E-02   -0.55448E-03  1440   0.240E-01    0.970E-02
RMM:   3    -0.323164439927E+02   -0.30327E-02   -0.37600E-03  1400   0.107E-01    0.593E-02
RMM:   4    -0.323175938219E+02   -0.11498E-02   -0.14491E-03  1386   0.772E-02
   1167 T=   771. E= -.28426670E+02 F= -.32317594E+02 E0= -.32272502E+02  EK= 0.25902E+01 SP= 0.13E+01 SK= 0.29E-02 mag=      0.088
       N       E                     dE             d eps       ncg     rms          rms(c)
DAV:   1    -0.323213415909E+02   -0.48976E-02   -0.25579E-02  2688   0.109E+00    0.581E-02
RMM:   2    -0.323222116364E+02   -0.87005E-03   -0.36581E-03  1496   0.242E-01
   1168 T=   768. E= -.28423021E+02 F= -.32322212E+02 E0= -.32276404E+02  EK= 0.25807E+01 SP= 0.13E+01 SK= 0.22E-02 mag=      0.064
       N       E                     dE             d eps       ncg     rms          rms(c)
DAV:   1    -0.323257994609E+02   -0.44579E-02   -0.19987E-02  2640   0.103E+00    0.478E-02
RMM:   2    -0.323266976039E+02   -0.89814E-03   -0.43631E-03  1538   0.269E-01
   1169 T=   766. E= -.28419499E+02 F= -.32326698E+02 E0= -.32280223E+02  EK= 0.25736E+01 SP= 0.13E+01 SK= 0.16E-02 mag=     -0.067
       N       E                     dE             d eps       ncg     rms          rms(c)
DAV:   1    -0.323299625352E+02   -0.41631E-02   -0.11780E-02  2440   0.106E+00    0.499E-02
RMM:   2    -0.323308370635E+02   -0.87453E-03   -0.39862E-03  1530   0.271E-01
   1170 T=   764. E= -.28415596E+02 F= -.32330837E+02 E0= -.32283854E+02  EK= 0.25693E+01 SP= 0.13E+01 SK= 0.99E-03 mag=     -0.197
       N       E                     dE             d eps       ncg     rms          rms(c)
DAV:   1    -0.323337078445E+02   -0.37453E-02   -0.14812E-02  2496   0.107E+00    0.553E-02
RMM:   2    -0.323346900647E+02   -0.98222E-03   -0.45450E-03  1525   0.276E-01
   1171 T=   764. E= -.28409910E+02 F= -.32334690E+02 E0= -.32287126E+02  EK= 0.25692E+01 SP= 0.14E+01 SK= 0.55E-03 mag=     -0.248
       N       E                     dE             d eps       ncg     rms          rms(c)
DAV:   1    -0.323370666259E+02   -0.33588E-02   -0.11632E-02  2552   0.102E+00    0.523E-02
RMM:   2    -0.323381063900E+02   -0.10398E-02   -0.45775E-03  1542   0.284E-01
   1172 T=   765. E= -.28404369E+02 F= -.32338106E+02 E0= -.32289642E+02  EK= 0.25714E+01 SP= 0.14E+01 SK= 0.24E-03 mag=     -0.156
       N       E                     dE             d eps       ncg     rms          rms(c)
DAV:   1    -0.323404517416E+02   -0.33851E-02   -0.11735E-02  2456   0.104E+00    0.474E-02
RMM:   2    -0.323412346481E+02   -0.78291E-03   -0.43502E-03  1566   0.271E-01
   1173 T=   766. E= -.28399332E+02 F= -.32341235E+02 E0= -.32291733E+02  EK= 0.25756E+01 SP= 0.14E+01 SK= 0.58E-04 mag=      0.061
       N       E                     dE             d eps       ncg     rms          rms(c)
DAV:   1    -0.323411891133E+02   -0.73737E-03   -0.13828E-02  2464   0.103E+00    0.580E-02
RMM:   2    -0.323422833380E+02   -0.10942E-02   -0.48424E-03  1545   0.280E-01
   1174 T=   768. E= -.28392940E+02 F= -.32342283E+02 E0= -.32292548E+02  EK= 0.25817E+01 SP= 0.14E+01 SK= 0.27E-07 mag=      0.294
       N       E                     dE             d eps       ncg     rms          rms(c)
DAV:   1    -0.323405292180E+02    0.65990E-03   -0.14598E-02  2544   0.105E+00    0.736E-02
RMM:   2    -0.323420413903E+02   -0.15122E-02   -0.55253E-03  1561   0.288E-01    0.577E-02
RMM:   3    -0.323427016631E+02   -0.66027E-03   -0.15230E-03  1456   0.115E-01
   1175 T=   770. E= -.28388083E+02 F= -.32342702E+02 E0= -.32292528E+02  EK= 0.25882E+01 SP= 0.14E+01 SK= 0.47E-04 mag=      0.203
       N       E                     dE             d eps       ncg     rms          rms(c)
DAV:   1    -0.323417204474E+02    0.32094E-03   -0.20497E-02  2504   0.102E+00    0.640E-02
RMM:   2    -0.323428251049E+02   -0.11047E-02   -0.36875E-03  1477   0.247E-01
   1176 T=   773. E= -.28382943E+02 F= -.32342825E+02 E0= -.32291265E+02  EK= 0.25971E+01 SP= 0.14E+01 SK= 0.18E-03 mag=     -0.176
       N       E                     dE             d eps       ncg     rms          rms(c)
DAV:   1    -0.323350585199E+02    0.66619E-02   -0.34925E-02  2728   0.111E+00    0.111E-01
RMM:   2    -0.323374440494E+02   -0.23855E-02   -0.56013E-03  1542   0.262E-01    0.837E-02
RMM:   3    -0.323396862260E+02   -0.22422E-02   -0.27870E-03  1408   0.120E-01    0.609E-02
RMM:   4    -0.323410817739E+02   -0.13955E-02   -0.19297E-03  1398   0.886E-02    0.334E-02
RMM:   5    -0.323414997724E+02   -0.41800E-03   -0.69877E-04  1251   0.568E-02
   1177 T=   775. E= -.28379043E+02 F= -.32341500E+02 E0= -.32289242E+02  EK= 0.26055E+01 SP= 0.14E+01 SK= 0.37E-03 mag=     -0.091
       N       E                     dE             d eps       ncg     rms          rms(c)
DAV:   1    -0.323331619714E+02    0.79198E-02   -0.20890E-02  2352   0.996E-01    0.103E-01
RMM:   2    -0.323353973400E+02   -0.22354E-02   -0.59409E-03  1417   0.233E-01    0.776E-02
RMM:   3    -0.323371990762E+02   -0.18017E-02   -0.29516E-03  1400   0.101E-01    0.505E-02
RMM:   4    -0.323379896933E+02   -0.79062E-03   -0.14109E-03  1391   0.700E-02
   1178 T=   777. E= -.28377738E+02 F= -.32337990E+02 E0= -.32285268E+02  EK= 0.26111E+01 SP= 0.13E+01 SK= 0.61E-03 mag=      0.180
       N       E                     dE             d eps       ncg     rms          rms(c)
DAV:   1    -0.323304564524E+02    0.67426E-02   -0.13996E-02  2664   0.105E+00    0.808E-02
RMM:   2    -0.323316305150E+02   -0.11741E-02   -0.36210E-03  1458   0.229E-01
   1179 T=   779. E= -.28372807E+02 F= -.32331631E+02 E0= -.32279462E+02  EK= 0.26193E+01 SP= 0.13E+01 SK= 0.88E-03 mag=      0.373
       N       E                     dE             d eps       ncg     rms          rms(c)
DAV:   1    -0.323242823894E+02    0.61741E-02   -0.16796E-02  2736   0.107E+00    0.630E-02
RMM:   2    -0.323252325178E+02   -0.95013E-03   -0.37825E-03  1537   0.251E-01
   1180 T=   782. E= -.28370026E+02 F= -.32325233E+02 E0= -.32272346E+02  EK= 0.26271E+01 SP= 0.13E+01 SK= 0.12E-02 mag=      0.352
       N       E                     dE             d eps       ncg     rms          rms(c)
DAV:   1    -0.323166365775E+02    0.76458E-02   -0.11596E-02  2456   0.104E+00    0.324E-02
RMM:   2    -0.323173430929E+02   -0.70652E-03   -0.35293E-03  1534   0.260E-01
   1181 T=   784. E= -.28368189E+02 F= -.32317343E+02 E0= -.32263375E+02  EK= 0.26340E+01 SP= 0.13E+01 SK= 0.14E-02 mag=      0.096
       N       E                     dE             d eps       ncg     rms          rms(c)
DAV:   1    -0.323053175333E+02    0.11319E-01   -0.13284E-02  2240   0.110E+00    0.488E-02
RMM:   2    -0.323061910986E+02   -0.87357E-03   -0.41528E-03  1533   0.276E-01
   1182 T=   786. E= -.28362884E+02 F= -.32306191E+02 E0= -.32252521E+02  EK= 0.26424E+01 SP= 0.13E+01 SK= 0.17E-02 mag=     -0.287
       N       E                     dE             d eps       ncg     rms          rms(c)
DAV:   1    -0.322897489469E+02    0.15569E-01   -0.12634E-02  2504   0.106E+00    0.809E-02
RMM:   2    -0.322914387394E+02   -0.16898E-02   -0.49721E-03  1513   0.296E-01    0.667E-02
RMM:   3    -0.322924998432E+02   -0.10611E-02   -0.17964E-03  1437   0.118E-01
   1183 T=   788. E= -.28357236E+02 F= -.32292500E+02 E0= -.32239885E+02  EK= 0.26498E+01 SP= 0.13E+01 SK= 0.20E-02 mag=     -0.292
       N       E                     dE             d eps       ncg     rms          rms(c)
DAV:   1    -0.322788410309E+02    0.12598E-01   -0.19630E-02  2488   0.104E+00    0.554E-02
RMM:   2    -0.322797232603E+02   -0.88223E-03   -0.36106E-03  1506   0.263E-01
   1184 T=   791. E= -.28352436E+02 F= -.32279723E+02 E0= -.32225651E+02  EK= 0.26582E+01 SP= 0.13E+01 SK= 0.22E-02 mag=      0.059
       N       E                     dE             d eps       ncg     rms          rms(c)
DAV:   1    -0.322598685889E+02    0.18972E-01   -0.31876E-02  2792   0.114E+00    0.923E-02
RMM:   2    -0.322616120614E+02   -0.17435E-02   -0.52313E-03  1539   0.267E-01    0.684E-02
RMM:   3    -0.322630141516E+02   -0.14021E-02   -0.18972E-03  1466   0.117E-01    0.510E-02
RMM:   4    -0.322637700784E+02   -0.75593E-03   -0.88235E-04  1352   0.746E-02
   1185 T=   793. E= -.28347409E+02 F= -.32263770E+02 E0= -.32210351E+02  EK= 0.26645E+01 SP= 0.12E+01 SK= 0.24E-02 mag=      0.170
       N       E                     dE             d eps       ncg     rms          rms(c)
DAV:   1    -0.322445884311E+02    0.18426E-01   -0.13914E-02  2368   0.101E+00    0.838E-02
RMM:   2    -0.322459335383E+02   -0.13451E-02   -0.39556E-03  1426   0.242E-01
   1186 T=   794. E= -.28343243E+02 F= -.32245934E+02 E0= -.32192441E+02  EK= 0.26687E+01 SP= 0.12E+01 SK= 0.25E-02 mag=      0.044
       N       E                     dE             d eps       ncg     rms          rms(c)
DAV:   1    -0.322261619614E+02    0.18426E-01   -0.29269E-02  2976   0.117E+00    0.638E-02
RMM:   2    -0.322273051313E+02   -0.11432E-02   -0.42536E-03  1540   0.262E-01
   1187 T=   795. E= -.28339386E+02 F= -.32227305E+02 E0= -.32174379E+02  EK= 0.26722E+01 SP= 0.12E+01 SK= 0.26E-02 mag=     -0.222
       N       E                     dE             d eps       ncg     rms          rms(c)
DAV:   1    -0.322053790006E+02    0.20783E-01   -0.16439E-02  2200   0.102E+00    0.715E-02
RMM:   2    -0.322068123469E+02   -0.14333E-02   -0.49425E-03  1538   0.306E-01    0.580E-02
RMM:   3    -0.322075199801E+02   -0.70763E-03   -0.15536E-03  1453   0.132E-01
   1188 T=   796. E= -.28336657E+02 F= -.32207520E+02 E0= -.32155617E+02  EK= 0.26740E+01 SP= 0.12E+01 SK= 0.27E-02 mag=     -0.216
       N       E                     dE             d eps       ncg     rms          rms(c)
DAV:   1    -0.321870108406E+02    0.19802E-01   -0.20311E-02  2568   0.107E+00    0.707E-02
RMM:   2    -0.321880302186E+02   -0.10194E-02   -0.33643E-03  1518   0.261E-01
   1189 T=   797. E= -.28331513E+02 F= -.32188030E+02 E0= -.32135925E+02  EK= 0.26788E+01 SP= 0.12E+01 SK= 0.28E-02 mag=      0.032
       N       E                     dE             d eps       ncg     rms          rms(c)
DAV:   1    -0.321649220085E+02    0.22089E-01   -0.21139E-02  2904   0.113E+00    0.838E-02
RMM:   2    -0.321667657207E+02   -0.18437E-02   -0.52965E-03  1549   0.253E-01    0.639E-02
RMM:   3    -0.321677184006E+02   -0.95268E-03   -0.15635E-03  1450   0.108E-01
   1190 T=   798. E= -.28326786E+02 F= -.32167718E+02 E0= -.32116552E+02  EK= 0.26826E+01 SP= 0.12E+01 SK= 0.29E-02 mag=      0.197
       N       E                     dE             d eps       ncg     rms          rms(c)
DAV:   1    -0.321462516155E+02    0.20514E-01   -0.16319E-02  2192   0.103E+00    0.899E-02
RMM:   2    -0.321477535645E+02   -0.15019E-02   -0.38533E-03  1465   0.263E-01    0.619E-02
RMM:   3    -0.321483496269E+02   -0.59606E-03   -0.12148E-03  1370   0.108E-01
   1191 T=   799. E= -.28324534E+02 F= -.32148350E+02 E0= -.32097747E+02  EK= 0.26851E+01 SP= 0.11E+01 SK= 0.29E-02 mag=      0.136
       N       E                     dE             d eps       ncg     rms          rms(c)
DAV:   1    -0.321294985124E+02    0.18255E-01   -0.25027E-02  2728   0.106E+00    0.496E-02
RMM:   2    -0.321302640222E+02   -0.76551E-03   -0.39540E-03  1523   0.268E-01
   1192 T=   801. E= -.28320629E+02 F= -.32130264E+02 E0= -.32080031E+02  EK= 0.26906E+01 SP= 0.11E+01 SK= 0.29E-02 mag=     -0.106
       N       E                     dE             d eps       ncg     rms          rms(c)
DAV:   1    -0.321107652656E+02    0.18733E-01   -0.21870E-02  2864   0.113E+00    0.755E-02
RMM:   2    -0.321120920315E+02   -0.13268E-02   -0.44501E-03  1525   0.264E-01
   1193 T=   802. E= -.28316781E+02 F= -.32112092E+02 E0= -.32063201E+02  EK= 0.26960E+01 SP= 0.11E+01 SK= 0.29E-02 mag=     -0.335
       N       E                     dE             d eps       ncg     rms          rms(c)
DAV:   1    -0.320950610274E+02    0.15704E-01   -0.11960E-02  2328   0.106E+00    0.799E-02
RMM:   2    -0.320965061698E+02   -0.14451E-02   -0.44242E-03  1539   0.302E-01    0.591E-02
RMM:   3    -0.320974237931E+02   -0.91762E-03   -0.15542E-03  1446   0.122E-01
   1194 T=   804. E= -.28315024E+02 F= -.32097424E+02 E0= -.32049057E+02  EK= 0.27027E+01 SP= 0.11E+01 SK= 0.28E-02 mag=     -0.154
       N       E                     dE             d eps       ncg     rms          rms(c)
DAV:   1    -0.320829149680E+02    0.13591E-01   -0.17352E-02  2808   0.112E+00    0.828E-02
RMM:   2    -0.320841039533E+02   -0.11890E-02   -0.34430E-03  1454   0.263E-01
   1195 T=   808. E= -.28309251E+02 F= -.32084104E+02 E0= -.32036286E+02  EK= 0.27144E+01 SP= 0.11E+01 SK= 0.27E-02 mag=      0.291
       N       E                     dE             d eps       ncg     rms          rms(c)
DAV:   1    -0.320663120454E+02    0.16603E-01   -0.22073E-02  2936   0.116E+00    0.140E-01
RMM:   2    -0.320698824086E+02   -0.35704E-02   -0.56479E-03  1467   0.257E-01    0.108E-01
RMM:   3    -0.320732703711E+02   -0.33880E-02   -0.33460E-03  1400   0.127E-01    0.677E-02
RMM:   4    -0.320747490632E+02   -0.14787E-02   -0.19052E-03  1398   0.933E-02    0.317E-02
RMM:   5    -0.320751228239E+02   -0.37376E-03   -0.85878E-04  1356   0.664E-02
   1196 T=   811. E= -.28306887E+02 F= -.32075123E+02 E0= -.32027793E+02  EK= 0.27265E+01 SP= 0.10E+01 SK= 0.25E-02 mag=      0.025
       N       E                     dE             d eps       ncg     rms          rms(c)
DAV:   1    -0.320591311980E+02    0.15618E-01   -0.16025E-02  2472   0.104E+00    0.156E-01
RMM:   2    -0.320630026806E+02   -0.38715E-02   -0.62141E-03  1433   0.257E-01    0.116E-01
RMM:   3    -0.320659341270E+02   -0.29314E-02   -0.27767E-03  1400   0.109E-01    0.840E-02
RMM:   4    -0.320678785466E+02   -0.19444E-02   -0.19999E-03  1398   0.868E-02    0.387E-02
RMM:   5    -0.320684113011E+02   -0.53275E-03   -0.93654E-04  1336   0.661E-02
   1197 T=   815. E= -.28306174E+02 F= -.32068411E+02 E0= -.32021800E+02  EK= 0.27384E+01 SP= 0.10E+01 SK= 0.22E-02 mag=     -0.047
       N       E                     dE             d eps       ncg     rms          rms(c)
DAV:   1    -0.320640218487E+02    0.38567E-02   -0.12595E-02  2632   0.106E+00    0.572E-02
RMM:   2    -0.320649343304E+02   -0.91248E-03   -0.36339E-03  1471   0.249E-01
   1198 T=   820. E= -.28302605E+02 F= -.32064934E+02 E0= -.32019029E+02  EK= 0.27552E+01 SP= 0.10E+01 SK= 0.18E-02 mag=      0.037
       N       E                     dE             d eps       ncg     rms          rms(c)
DAV:   1    -0.320643537230E+02   -0.33187E-03   -0.15638E-02  3032   0.117E+00    0.701E-02
RMM:   2    -0.320655459095E+02   -0.11922E-02   -0.38333E-03  1493   0.249E-01
   1199 T=   825. E= -.28300177E+02 F= -.32065546E+02 E0= -.32020345E+02  EK= 0.27733E+01 SP= 0.99E+00 SK= 0.14E-02 mag=      0.163
       N       E                     dE             d eps       ncg     rms          rms(c)
DAV:   1    -0.320698575309E+02   -0.55038E-02   -0.10115E-02  2216   0.106E+00    0.532E-02
RMM:   2    -0.320709402651E+02   -0.10827E-02   -0.37964E-03  1530   0.275E-01
   1200 T=   831. E= -.28297730E+02 F= -.32070940E+02 E0= -.32026399E+02  EK= 0.27942E+01 SP= 0.98E+00 SK= 0.96E-03 mag=      0.179
       N       E                     dE             d eps       ncg     rms          rms(c)
DAV:   1    -0.320801184354E+02   -0.10261E-01   -0.19003E-02  2808   0.120E+00    0.497E-02
RMM:   2    -0.320810714471E+02   -0.95301E-03   -0.44206E-03  1526   0.280E-01
   1201 T=   839. E= -.28293539E+02 F= -.32081071E+02 E0= -.32036977E+02  EK= 0.28190E+01 SP= 0.97E+00 SK= 0.53E-03 mag=      0.057
       N       E                     dE             d eps       ncg     rms          rms(c)
DAV:   1    -0.320933318724E+02   -0.13213E-01   -0.12573E-02  2496   0.107E+00    0.670E-02
RMM:   2    -0.320947996485E+02   -0.14678E-02   -0.49328E-03  1522   0.304E-01    0.479E-02
RMM:   3    -0.320955477592E+02   -0.74811E-03   -0.18758E-03  1415   0.124E-01
   1202 T=   846. E= -.28290503E+02 F= -.32095548E+02 E0= -.32051934E+02  EK= 0.28436E+01 SP= 0.96E+00 SK= 0.18E-03 mag=     -0.026
       N       E                     dE             d eps       ncg     rms          rms(c)
DAV:   1    -0.321126638848E+02   -0.17864E-01   -0.19784E-02  2392   0.109E+00    0.606E-02
RMM:   2    -0.321138764135E+02   -0.12125E-02   -0.35759E-03  1445   0.281E-01
   1203 T=   855. E= -.28283660E+02 F= -.32113876E+02 E0= -.32070808E+02  EK= 0.28719E+01 SP= 0.96E+00 SK= 0.38E-05 mag=     -0.060
       N       E                     dE             d eps       ncg     rms          rms(c)
DAV:   1    -0.321340969480E+02   -0.21433E-01   -0.27279E-02  3000   0.120E+00    0.807E-02
RMM:   2    -0.321359079678E+02   -0.18110E-02   -0.49133E-03  1513   0.253E-01    0.586E-02
RMM:   3    -0.321369467436E+02   -0.10388E-02   -0.17137E-03  1396   0.108E-01
   1204 T=   862. E= -.28278733E+02 F= -.32136947E+02 E0= -.32094233E+02  EK= 0.28983E+01 SP= 0.96E+00 SK= 0.13E-03 mag=     -0.027
       N       E                     dE             d eps       ncg     rms          rms(c)
DAV:   1    -0.321611477846E+02   -0.25240E-01   -0.23315E-02  2480   0.105E+00    0.841E-02
RMM:   2    -0.321628983934E+02   -0.17506E-02   -0.35615E-03  1403   0.245E-01    0.590E-02
RMM:   3    -0.321634832592E+02   -0.58487E-03   -0.95627E-04  1328   0.937E-02
   1205 T=   869. E= -.28276584E+02 F= -.32163483E+02 E0= -.32121102E+02  EK= 0.29197E+01 SP= 0.97E+00 SK= 0.69E-03 mag=      0.040
       N       E                     dE             d eps       ncg     rms          rms(c)
DAV:   1    -0.321924219620E+02   -0.29524E-01   -0.37341E-02  2760   0.112E+00    0.555E-02
RMM:   2    -0.321934795391E+02   -0.10576E-02   -0.44949E-03  1552   0.287E-01
   1206 T=   875. E= -.28272465E+02 F= -.32193480E+02 E0= -.32151383E+02  EK= 0.29402E+01 SP= 0.98E+00 SK= 0.18E-02 mag=      0.076
       N       E                     dE             d eps       ncg     rms          rms(c)
DAV:   1    -0.322254372596E+02   -0.33015E-01   -0.28587E-02  2720   0.115E+00    0.411E-02
RMM:   2    -0.322264160367E+02   -0.97878E-03   -0.46737E-03  1540   0.284E-01
   1207 T=   880. E= -.28269367E+02 F= -.32226416E+02 E0= -.32184508E+02  EK= 0.29558E+01 SP= 0.10E+01 SK= 0.36E-02 mag=      0.045
       N       E                     dE             d eps       ncg     rms          rms(c)
DAV:   1    -0.322605245834E+02   -0.35087E-01   -0.13486E-02  2552   0.107E+00    0.305E-02
RMM:   2    -0.322614131728E+02   -0.88859E-03   -0.45341E-03  1529   0.311E-01
   1208 T=   883. E= -.28264744E+02 F= -.32261413E+02 E0= -.32219672E+02  EK= 0.29677E+01 SP= 0.10E+01 SK= 0.62E-02 mag=     -0.030
       N       E                     dE             d eps       ncg     rms          rms(c)
DAV:   1    -0.322961268137E+02   -0.35602E-01   -0.17918E-02  2640   0.120E+00    0.452E-02
RMM:   2    -0.322972019037E+02   -0.10751E-02   -0.45739E-03  1545   0.284E-01
   1209 T=   885. E= -.28259028E+02 F= -.32297202E+02 E0= -.32255656E+02  EK= 0.29737E+01 SP= 0.11E+01 SK= 0.96E-02 mag=     -0.078
       N       E                     dE             d eps       ncg     rms          rms(c)
DAV:   1    -0.323330141258E+02   -0.36887E-01   -0.96692E-03  2496   0.108E+00    0.383E-02
RMM:   2    -0.323340637053E+02   -0.10496E-02   -0.45682E-03  1566   0.303E-01
   1210 T=   884. E= -.28254103E+02 F= -.32334064E+02 E0= -.32292590E+02  EK= 0.29722E+01 SP= 0.11E+01 SK= 0.14E-01 mag=     -0.060
       N       E                     dE             d eps       ncg     rms          rms(c)
DAV:   1    -0.323700003483E+02   -0.36986E-01   -0.16253E-02  2616   0.116E+00    0.300E-02
RMM:   2    -0.323708497816E+02   -0.84943E-03   -0.40372E-03  1526   0.277E-01
   1211 T=   882. E= -.28249447E+02 F= -.32370850E+02 E0= -.32329373E+02  EK= 0.29627E+01 SP= 0.11E+01 SK= 0.18E-01 mag=      0.012
       N       E                     dE             d eps       ncg     rms          rms(c)
DAV:   1    -0.324043966240E+02   -0.34396E-01   -0.10777E-02  2320   0.110E+00    0.382E-02
RMM:   2    -0.324054547762E+02   -0.10582E-02   -0.48727E-03  1539   0.307E-01
   1212 T=   876. E= -.28243778E+02 F= -.32405455E+02 E0= -.32364013E+02  EK= 0.29449E+01 SP= 0.12E+01 SK= 0.24E-01 mag=      0.078
       N       E                     dE             d eps       ncg     rms          rms(c)
DAV:   1    -0.324370542961E+02   -0.32658E-01   -0.17796E-02  3000   0.117E+00    0.479E-02
RMM:   2    -0.324382547568E+02   -0.12005E-02   -0.44698E-03  1536   0.281E-01
   1213 T=   868. E= -.28238111E+02 F= -.32438255E+02 E0= -.32396801E+02  EK= 0.29188E+01 SP= 0.13E+01 SK= 0.29E-01 mag=      0.072
       N       E                     dE             d eps       ncg     rms          rms(c)
DAV:   1    -0.324684056637E+02   -0.31351E-01   -0.11581E-02  2224   0.111E+00    0.308E-02
RMM:   2    -0.324693318938E+02   -0.92623E-03   -0.47979E-03  1566   0.322E-01
   1214 T=   858. E= -.28233245E+02 F= -.32469332E+02 E0= -.32427733E+02  EK= 0.28847E+01 SP= 0.13E+01 SK= 0.34E-01 mag=     -0.002
       N       E                     dE             d eps       ncg     rms          rms(c)
DAV:   1    -0.324952396017E+02   -0.26834E-01   -0.18406E-02  3000   0.113E+00    0.412E-02
RMM:   2    -0.324962904835E+02   -0.10509E-02   -0.46789E-03  1555   0.282E-01
   1215 T=   846. E= -.28227631E+02 F= -.32496290E+02 E0= -.32454619E+02  EK= 0.28431E+01 SP= 0.14E+01 SK= 0.39E-01 mag=     -0.074
       N       E                     dE             d eps       ncg     rms          rms(c)
DAV:   1    -0.325184780785E+02   -0.23238E-01   -0.11309E-02  2480   0.111E+00    0.493E-02
RMM:   2    -0.325196623457E+02   -0.11843E-02   -0.47494E-03  1559   0.306E-01
   1216 T=   832. E= -.28222195E+02 F= -.32519662E+02 E0= -.32477894E+02  EK= 0.27948E+01 SP= 0.15E+01 SK= 0.42E-01 mag=     -0.088
       N       E                     dE             d eps       ncg     rms          rms(c)
DAV:   1    -0.325385541635E+02   -0.20076E-01   -0.14866E-02  2648   0.113E+00    0.382E-02
RMM:   2    -0.325395329975E+02   -0.97883E-03   -0.41807E-03  1534   0.283E-01
   1217 T=   816. E= -.28216891E+02 F= -.32539533E+02 E0= -.32497592E+02  EK= 0.27416E+01 SP= 0.15E+01 SK= 0.44E-01 mag=     -0.026
       N       E                     dE             d eps       ncg     rms          rms(c)
DAV:   1    -0.325536344469E+02   -0.15080E-01   -0.11695E-02  2392   0.110E+00    0.364E-02
RMM:   2    -0.325546083387E+02   -0.97389E-03   -0.50986E-03  1590   0.321E-01
   1218 T=   799. E= -.28211244E+02 F= -.32554608E+02 E0= -.32512515E+02  EK= 0.26841E+01 SP= 0.16E+01 SK= 0.45E-01 mag=      0.069
       N       E                     dE             d eps       ncg     rms          rms(c)
DAV:   1    -0.325635125625E+02   -0.98781E-02   -0.19166E-02  2976   0.111E+00    0.560E-02
RMM:   2    -0.325648165426E+02   -0.13040E-02   -0.46377E-03  1536   0.278E-01
   1219 T=   781. E= -.28205214E+02 F= -.32564817E+02 E0= -.32522649E+02  EK= 0.26240E+01 SP= 0.17E+01 SK= 0.44E-01 mag=      0.086
       N       E                     dE             d eps       ncg     rms          rms(c)
DAV:   1    -0.325709335293E+02   -0.74210E-02   -0.15660E-02  2488   0.113E+00    0.423E-02
RMM:   2    -0.325718576675E+02   -0.92414E-03   -0.48672E-03  1545   0.321E-01
   1220 T=   763. E= -.28200269E+02 F= -.32571858E+02 E0= -.32529469E+02  EK= 0.25629E+01 SP= 0.18E+01 SK= 0.41E-01 mag=      0.019
       N       E                     dE             d eps       ncg     rms          rms(c)
DAV:   1    -0.325727449791E+02   -0.18114E-02   -0.20922E-02  2752   0.107E+00    0.447E-02
RMM:   2    -0.325737821276E+02   -0.10371E-02   -0.48487E-03  1539   0.290E-01
   1221 T=   745. E= -.28194483E+02 F= -.32573782E+02 E0= -.32531284E+02  EK= 0.25022E+01 SP= 0.18E+01 SK= 0.37E-01 mag=     -0.072
       N       E                     dE             d eps       ncg     rms          rms(c)
DAV:   1    -0.325704532703E+02    0.22917E-02   -0.11638E-02  2208   0.105E+00    0.517E-02
RMM:   2    -0.325715888407E+02   -0.11356E-02   -0.47105E-03  1556   0.297E-01
   1222 T=   727. E= -.28189331E+02 F= -.32571589E+02 E0= -.32529006E+02  EK= 0.24425E+01 SP= 0.19E+01 SK= 0.32E-01 mag=     -0.117
       N       E                     dE             d eps       ncg     rms          rms(c)
DAV:   1    -0.325649901898E+02    0.54631E-02   -0.15531E-02  2744   0.108E+00    0.479E-02
RMM:   2    -0.325660019837E+02   -0.10118E-02   -0.43235E-03  1542   0.284E-01
   1223 T=   710. E= -.28184226E+02 F= -.32566002E+02 E0= -.32523306E+02  EK= 0.23864E+01 SP= 0.20E+01 SK= 0.26E-01 mag=     -0.063
       N       E                     dE             d eps       ncg     rms          rms(c)
DAV:   1    -0.325564392441E+02    0.85509E-02   -0.13086E-02  2504   0.105E+00    0.449E-02
RMM:   2    -0.325573514057E+02   -0.91216E-03   -0.47485E-03  1561   0.305E-01
   1224 T=   695. E= -.28179596E+02 F= -.32557351E+02 E0= -.32514543E+02  EK= 0.23344E+01 SP= 0.20E+01 SK= 0.19E-01 mag=      0.055
       N       E                     dE             d eps       ncg     rms          rms(c)
DAV:   1    -0.325440097602E+02    0.12429E-01   -0.15694E-02  2712   0.101E+00    0.632E-02
RMM:   2    -0.325452709226E+02   -0.12612E-02   -0.44528E-03  1538   0.275E-01
   1225 T=   681. E= -.28174526E+02 F= -.32545271E+02 E0= -.32502488E+02  EK= 0.22880E+01 SP= 0.21E+01 SK= 0.13E-01 mag=      0.123
       N       E                     dE             d eps       ncg     rms          rms(c)
DAV:   1    -0.325309362398E+02    0.13074E-01   -0.13795E-02  2480   0.102E+00    0.581E-02
RMM:   2    -0.325318885009E+02   -0.95226E-03   -0.43756E-03  1525   0.280E-01
   1226 T=   669. E= -.28170697E+02 F= -.32531889E+02 E0= -.32489003E+02  EK= 0.22482E+01 SP= 0.21E+01 SK= 0.70E-02 mag=      0.096
       N       E                     dE             d eps       ncg     rms          rms(c)
DAV:   1    -0.325157475104E+02    0.15189E-01   -0.15694E-02  2776   0.997E-01    0.621E-02
RMM:   2    -0.325168685781E+02   -0.11211E-02   -0.49563E-03  1543   0.280E-01
   1227 T=   660. E= -.28166573E+02 F= -.32516869E+02 E0= -.32473944E+02  EK= 0.22165E+01 SP= 0.21E+01 SK= 0.28E-02 mag=     -0.012
       N       E                     dE             d eps       ncg     rms          rms(c)
DAV:   1    -0.324998929930E+02    0.15855E-01   -0.12749E-02  2488   0.978E-01    0.594E-02
RMM:   2    -0.325011168793E+02   -0.12239E-02   -0.46580E-03  1542   0.289E-01
   1228 T=   653. E= -.28162788E+02 F= -.32501117E+02 E0= -.32458244E+02  EK= 0.21935E+01 SP= 0.21E+01 SK= 0.39E-03 mag=     -0.120
       N       E                     dE             d eps       ncg     rms          rms(c)
DAV:   1    -0.324841179916E+02    0.15775E-01   -0.14529E-02  2552   0.101E+00    0.568E-02
RMM:   2    -0.324851889412E+02   -0.10709E-02   -0.45926E-03  1528   0.279E-01
   1229 T=   649. E= -.28159003E+02 F= -.32485189E+02 E0= -.32442372E+02  EK= 0.21804E+01 SP= 0.21E+01 SK= 0.20E-03 mag=     -0.114
       N       E                     dE             d eps       ncg     rms          rms(c)
DAV:   1    -0.324686122428E+02    0.15506E-01   -0.19037E-02  2696   0.990E-01    0.546E-02
RMM:   2    -0.324697199365E+02   -0.11077E-02   -0.51026E-03  1524   0.298E-01
   1230 T=   648. E= -.28155209E+02 F= -.32469720E+02 E0= -.32426817E+02  EK= 0.21780E+01 SP= 0.21E+01 SK= 0.24E-02 mag=     -0.000
       N       E                     dE             d eps       ncg     rms          rms(c)
DAV:   1    -0.324534346915E+02    0.15178E-01   -0.20029E-02  2656   0.984E-01    0.726E-02
RMM:   2    -0.324549315596E+02   -0.14969E-02   -0.50877E-03  1547   0.283E-01    0.519E-02
RMM:   3    -0.324557314203E+02   -0.79986E-03   -0.18408E-03  1471   0.113E-01
   1231 T=   650. E= -.28152677E+02 F= -.32455731E+02 E0= -.32412871E+02  EK= 0.21861E+01 SP= 0.21E+01 SK= 0.69E-02 mag=      0.054
       N       E                     dE             d eps       ncg     rms          rms(c)
DAV:   1    -0.324412353377E+02    0.13696E-01   -0.19917E-02  2440   0.958E-01    0.729E-02
RMM:   2    -0.324425508301E+02   -0.13155E-02   -0.37997E-03  1419   0.244E-01
   1232 T=   657. E= -.28147896E+02 F= -.32442551E+02 E0= -.32399782E+02  EK= 0.22074E+01 SP= 0.21E+01 SK= 0.13E-01 mag=      0.039
       N       E                     dE             d eps       ncg     rms          rms(c)
DAV:   1    -0.324298207504E+02    0.11415E-01   -0.27823E-02  2912   0.107E+00    0.903E-02
RMM:   2    -0.324317370705E+02   -0.19163E-02   -0.45013E-03  1525   0.237E-01    0.652E-02
RMM:   3    -0.324327831216E+02   -0.10461E-02   -0.16115E-03  1399   0.960E-02
   1233 T=   667. E= -.28144721E+02 F= -.32432783E+02 E0= -.32390049E+02  EK= 0.22409E+01 SP= 0.20E+01 SK= 0.22E-01 mag=      0.006
       N       E                     dE             d eps       ncg     rms          rms(c)
DAV:   1    -0.324227510620E+02    0.89860E-02   -0.29601E-02  2408   0.932E-01    0.103E-01
RMM:   2    -0.324249592027E+02   -0.22081E-02   -0.44060E-03  1445   0.244E-01    0.718E-02
RMM:   3    -0.324257920319E+02   -0.83283E-03   -0.13382E-03  1395   0.961E-02
   1234 T=   680. E= -.28143134E+02 F= -.32425792E+02 E0= -.32383129E+02  EK= 0.22855E+01 SP= 0.20E+01 SK= 0.31E-01 mag=     -0.041
       N       E                     dE             d eps       ncg     rms          rms(c)
DAV:   1    -0.324219455208E+02    0.30137E-02   -0.53139E-02  2616   0.103E+00    0.599E-02
RMM:   2    -0.324227776135E+02   -0.83209E-03   -0.44804E-03  1533   0.287E-01
   1235 T=   698. E= -.28140287E+02 F= -.32422778E+02 E0= -.32380154E+02  EK= 0.23450E+01 SP= 0.19E+01 SK= 0.41E-01 mag=     -0.055
       N       E                     dE             d eps       ncg     rms          rms(c)
DAV:   1    -0.324226707587E+02   -0.72524E-03   -0.36262E-02  2584   0.105E+00    0.442E-02
RMM:   2    -0.324233960054E+02   -0.72525E-03   -0.44758E-03  1527   0.279E-01
   1236 T=   719. E= -.28137626E+02 F= -.32423396E+02 E0= -.32380797E+02  EK= 0.24173E+01 SP= 0.18E+01 SK= 0.50E-01 mag=     -0.019
       N       E                     dE             d eps       ncg     rms          rms(c)
DAV:   1    -0.324270068373E+02   -0.43361E-02   -0.14396E-02  2496   0.100E+00    0.399E-02
RMM:   2    -0.324277186613E+02   -0.71182E-03   -0.40192E-03  1525   0.293E-01
   1237 T=   745. E= -.28133856E+02 F= -.32427719E+02 E0= -.32385207E+02  EK= 0.25027E+01 SP= 0.17E+01 SK= 0.57E-01 mag=      0.045
       N       E                     dE             d eps       ncg     rms          rms(c)
DAV:   1    -0.324348612201E+02   -0.78544E-02   -0.15631E-02  2528   0.115E+00    0.561E-02
RMM:   2    -0.324357963439E+02   -0.93512E-03   -0.44582E-03  1554   0.282E-01
   1238 T=   774. E= -.28128966E+02 F= -.32435796E+02 E0= -.32393406E+02  EK= 0.26002E+01 SP= 0.16E+01 SK= 0.61E-01 mag=      0.084
       N       E                     dE             d eps       ncg     rms          rms(c)
DAV:   1    -0.324477358536E+02   -0.12875E-01   -0.10286E-02  2448   0.104E+00    0.376E-02
RMM:   2    -0.324485234346E+02   -0.78758E-03   -0.40013E-03  1531   0.305E-01
   1239 T=   806. E= -.28124567E+02 F= -.32448523E+02 E0= -.32406154E+02  EK= 0.27074E+01 SP= 0.16E+01 SK= 0.62E-01 mag=      0.062
       N       E                     dE             d eps       ncg     rms          rms(c)
DAV:   1    -0.324646562144E+02   -0.16920E-01   -0.14657E-02  2368   0.118E+00    0.410E-02
RMM:   2    -0.324653556441E+02   -0.69943E-03   -0.42542E-03  1541   0.293E-01
   1240 T=   840. E= -.28119713E+02 F= -.32465356E+02 E0= -.32422980E+02  EK= 0.28224E+01 SP= 0.15E+01 SK= 0.60E-01 mag=     -0.012
       N       E                     dE             d eps       ncg     rms          rms(c)
DAV:   1    -0.324841382423E+02   -0.19482E-01   -0.15072E-02  2528   0.112E+00    0.514E-02
RMM:   2    -0.324852368442E+02   -0.10986E-02   -0.50892E-03  1564   0.323E-01
   1241 T=   875. E= -.28113996E+02 F= -.32485237E+02 E0= -.32442967E+02  EK= 0.29417E+01 SP= 0.14E+01 SK= 0.54E-01 mag=     -0.090
       N       E                     dE             d eps       ncg     rms          rms(c)
DAV:   1    -0.325077423511E+02   -0.23604E-01   -0.18814E-02  2848   0.121E+00    0.558E-02
RMM:   2    -0.325088642721E+02   -0.11219E-02   -0.46856E-03  1545   0.302E-01
   1242 T=   911. E= -.28109315E+02 F= -.32508864E+02 E0= -.32466650E+02  EK= 0.30606E+01 SP= 0.13E+01 SK= 0.44E-01 mag=     -0.103
       N       E                     dE             d eps       ncg     rms          rms(c)
DAV:   1    -0.325344287260E+02   -0.26686E-01   -0.14830E-02  2424   0.118E+00    0.409E-02
RMM:   2    -0.325353606402E+02   -0.93191E-03   -0.54081E-03  1599   0.339E-01
   1243 T=   945. E= -.28105277E+02 F= -.32535361E+02 E0= -.32493006E+02  EK= 0.31746E+01 SP= 0.12E+01 SK= 0.33E-01 mag=     -0.039
       N       E                     dE             d eps       ncg     rms          rms(c)
DAV:   1    -0.325609692832E+02   -0.26541E-01   -0.23356E-02  2816   0.123E+00    0.645E-02
RMM:   2    -0.325623720658E+02   -0.14028E-02   -0.57001E-03  1561   0.314E-01    0.457E-02
RMM:   3    -0.325629598955E+02   -0.58783E-03   -0.17911E-03  1464   0.120E-01
   1244 T=   975. E= -.28101565E+02 F= -.32562960E+02 E0= -.32520567E+02  EK= 0.32779E+01 SP= 0.12E+01 SK= 0.21E-01 mag=      0.033
       N       E                     dE             d eps       ncg     rms          rms(c)
DAV:   1    -0.325906747653E+02   -0.28303E-01   -0.17836E-02  2584   0.121E+00    0.536E-02
RMM:   2    -0.325916009170E+02   -0.92615E-03   -0.33194E-03  1467   0.285E-01
   1245 T=  1002. E= -.28095797E+02 F= -.32591601E+02 E0= -.32549204E+02  EK= 0.33685E+01 SP= 0.11E+01 SK= 0.10E-01 mag=      0.079
       N       E                     dE             d eps       ncg     rms          rms(c)
DAV:   1    -0.326189880824E+02   -0.28313E-01   -0.29004E-02  3136   0.137E+00    0.544E-02
RMM:   2    -0.326201695877E+02   -0.11815E-02   -0.47428E-03  1585   0.275E-01
   1246 T=  1023. E= -.28090435E+02 F= -.32620170E+02 E0= -.32577668E+02  EK= 0.34388E+01 SP= 0.11E+01 SK= 0.29E-02 mag=      0.063
       N       E                     dE             d eps       ncg     rms          rms(c)
DAV:   1    -0.326473916311E+02   -0.28404E-01   -0.11131E-02  2072   0.115E+00    0.405E-02
RMM:   2    -0.326484146393E+02   -0.10230E-02   -0.51422E-03  1588   0.326E-01
   1247 T=  1036. E= -.28087627E+02 F= -.32648415E+02 E0= -.32605763E+02  EK= 0.34831E+01 SP= 0.11E+01 SK= 0.20E-05 mag=     -0.013
       N       E                     dE             d eps       ncg     rms          rms(c)
DAV:   1    -0.326735425093E+02   -0.26151E-01   -0.27950E-02  2984   0.137E+00    0.428E-02
RMM:   2    -0.326746724286E+02   -0.11299E-02   -0.54321E-03  1589   0.316E-01
   1248 T=  1042. E= -.28083122E+02 F= -.32674672E+02 E0= -.32632028E+02  EK= 0.35017E+01 SP= 0.11E+01 SK= 0.28E-02 mag=     -0.101
       N       E                     dE             d eps       ncg     rms          rms(c)
DAV:   1    -0.326972097880E+02   -0.23667E-01   -0.16822E-02  2472   0.123E+00    0.520E-02
RMM:   2    -0.326986402045E+02   -0.14304E-02   -0.65295E-03  1617   0.357E-01    0.377E-02
RMM:   3    -0.326990337605E+02   -0.39356E-03   -0.16172E-03  1482   0.132E-01
   1249 T=  1039. E= -.28079450E+02 F= -.32699034E+02 E0= -.32656327E+02  EK= 0.34916E+01 SP= 0.11E+01 SK= 0.12E-01 mag=     -0.072
       N       E                     dE             d eps       ncg     rms          rms(c)
DAV:   1    -0.327198309518E+02   -0.21191E-01   -0.23072E-02  2600   0.129E+00    0.418E-02
RMM:   2    -0.327209020721E+02   -0.10711E-02   -0.35491E-03  1516   0.288E-01
   1250 T=  1029. E= -.28071521E+02 F= -.32720902E+02 E0= -.32678036E+02  EK= 0.34580E+01 SP= 0.12E+01 SK= 0.26E-01 mag=      0.052
       N       E                     dE             d eps       ncg     rms          rms(c)
DAV:   1    -0.327374319519E+02   -0.17601E-01   -0.28522E-02  3168   0.134E+00    0.647E-02
RMM:   2    -0.327387814061E+02   -0.13495E-02   -0.47190E-03  1584   0.264E-01
   1251 T=  1010. E= -.28064900E+02 F= -.32738781E+02 E0= -.32696206E+02  EK= 0.33958E+01 SP= 0.12E+01 SK= 0.45E-01 mag=      0.165
       N       E                     dE             d eps       ncg     rms          rms(c)
DAV:   1    -0.327533823656E+02   -0.15950E-01   -0.10672E-02  2240   0.114E+00    0.494E-02
RMM:   2    -0.327545489770E+02   -0.11666E-02   -0.58304E-03  1597   0.329E-01
   1252 T=   985. E= -.28061145E+02 F= -.32754549E+02 E0= -.32711942E+02  EK= 0.33087E+01 SP= 0.13E+01 SK= 0.66E-01 mag=      0.189
       N       E                     dE             d eps       ncg     rms          rms(c)
DAV:   1    -0.327664689528E+02   -0.13087E-01   -0.27879E-02  3104   0.131E+00    0.483E-02
RMM:   2    -0.327675959964E+02   -0.11270E-02   -0.51040E-03  1567   0.291E-01
   1253 T=   953. E= -.28056615E+02 F= -.32767596E+02 E0= -.32724808E+02  EK= 0.32043E+01 SP= 0.14E+01 SK= 0.87E-01 mag=      0.091
       N       E                     dE             d eps       ncg     rms          rms(c)
DAV:   1    -0.327760672742E+02   -0.95983E-02   -0.15818E-02  2624   0.111E+00    0.477E-02
RMM:   2    -0.327773414982E+02   -0.12742E-02   -0.60755E-03  1563   0.327E-01
   1254 T=   918. E= -.28051615E+02 F= -.32777341E+02 E0= -.32734688E+02  EK= 0.30864E+01 SP= 0.15E+01 SK= 0.11E+00 mag=     -0.090
       N       E                     dE             d eps       ncg     rms          rms(c)
DAV:   1    -0.327827693060E+02   -0.67020E-02   -0.20496E-02  2896   0.119E+00    0.555E-02
RMM:   2    -0.327841001577E+02   -0.13309E-02   -0.50999E-03  1543   0.289E-01
   1255 T=   881. E= -.28045477E+02 F= -.32784100E+02 E0= -.32742058E+02  EK= 0.29607E+01 SP= 0.17E+01 SK= 0.12E+00 mag=     -0.216
       N       E                     dE             d eps       ncg     rms          rms(c)
DAV:   1    -0.327884389190E+02   -0.56696E-02   -0.15853E-02  2744   0.112E+00    0.598E-02
RMM:   2    -0.327896569297E+02   -0.12180E-02   -0.53475E-03  1548   0.309E-01
   1256 T=   842. E= -.28040935E+02 F= -.32789657E+02 E0= -.32747635E+02  EK= 0.28308E+01 SP= 0.18E+01 SK= 0.13E+00 mag=     -0.208
       N       E                     dE             d eps       ncg     rms          rms(c)
DAV:   1    -0.327921890731E+02   -0.37502E-02   -0.19783E-02  2888   0.111E+00    0.506E-02
RMM:   2    -0.327933703775E+02   -0.11813E-02   -0.51828E-03  1553   0.282E-01
   1257 T=   804. E= -.28036377E+02 F= -.32793370E+02 E0= -.32751307E+02  EK= 0.27018E+01 SP= 0.19E+01 SK= 0.13E+00 mag=     -0.045
       N       E                     dE             d eps       ncg     rms          rms(c)
DAV:   1    -0.327942926157E+02   -0.21035E-02   -0.15915E-02  2536   0.106E+00    0.597E-02
RMM:   2    -0.327953631865E+02   -0.10706E-02   -0.48479E-03  1531   0.295E-01
   1258 T=   767. E= -.28031571E+02 F= -.32795363E+02 E0= -.32753843E+02  EK= 0.25772E+01 SP= 0.21E+01 SK= 0.13E+00 mag=      0.194
       N       E                     dE             d eps       ncg     rms          rms(c)
DAV:   1    -0.327933947653E+02    0.89785E-03   -0.17127E-02  2880   0.106E+00    0.836E-02
RMM:   2    -0.327953246826E+02   -0.19299E-02   -0.57415E-03  1567   0.277E-01    0.649E-02
RMM:   3    -0.327963757446E+02   -0.10511E-02   -0.19800E-03  1446   0.112E-01
   1259 T=   732. E= -.28027166E+02 F= -.32796376E+02 E0= -.32755479E+02  EK= 0.24598E+01 SP= 0.22E+01 SK= 0.12E+00 mag=      0.134
       N       E                     dE             d eps       ncg     rms          rms(c)
DAV:   1    -0.327960709019E+02   -0.74622E-03   -0.26308E-02  2472   0.102E+00    0.696E-02
RMM:   2    -0.327974786484E+02   -0.14077E-02   -0.36132E-03  1457   0.262E-01    0.520E-02
RMM:   3    -0.327980411221E+02   -0.56247E-03   -0.10827E-03  1345   0.953E-02
   1260 T=   700. E= -.28023868E+02 F= -.32798041E+02 E0= -.32757016E+02  EK= 0.23524E+01 SP= 0.23E+01 SK= 0.11E+00 mag=     -0.071
       N       E                     dE             d eps       ncg     rms          rms(c)
DAV:   1    -0.327967560808E+02    0.72257E-03   -0.38288E-02  2624   0.999E-01    0.657E-02
RMM:   2    -0.327978020925E+02   -0.10460E-02   -0.42351E-03  1534   0.257E-01
   1261 T=   672. E= -.28017878E+02 F= -.32797802E+02 E0= -.32757582E+02  EK= 0.22576E+01 SP= 0.24E+01 SK= 0.94E-01 mag=     -0.262
       N       E                     dE             d eps       ncg     rms          rms(c)
DAV:   1    -0.327972249515E+02   -0.46887E-03   -0.17974E-02  2568   0.993E-01    0.666E-02
RMM:   2    -0.327983246565E+02   -0.10997E-02   -0.38874E-03  1530   0.255E-01
   1262 T=   647. E= -.28013695E+02 F= -.32798325E+02 E0= -.32758584E+02  EK= 0.21744E+01 SP= 0.25E+01 SK= 0.76E-01 mag=     -0.283
       N       E                     dE             d eps       ncg     rms          rms(c)
DAV:   1    -0.327995681889E+02   -0.23432E-02   -0.13438E-02  2600   0.984E-01    0.364E-02
RMM:   2    -0.328002353755E+02   -0.66719E-03   -0.34473E-03  1517   0.255E-01
   1263 T=   626. E= -.28010426E+02 F= -.32800235E+02 E0= -.32760277E+02  EK= 0.21048E+01 SP= 0.26E+01 SK= 0.56E-01 mag=     -0.092
       N       E                     dE             d eps       ncg     rms          rms(c)
DAV:   1    -0.328003240610E+02   -0.75587E-03   -0.11406E-02  2512   0.101E+00    0.535E-02
RMM:   2    -0.328012094514E+02   -0.88539E-03   -0.40358E-03  1541   0.250E-01
   1264 T=   610. E= -.28005402E+02 F= -.32801209E+02 E0= -.32761770E+02  EK= 0.20494E+01 SP= 0.27E+01 SK= 0.38E-01 mag=      0.203
       N       E                     dE             d eps       ncg     rms          rms(c)
DAV:   1    -0.327997296817E+02    0.59438E-03   -0.10390E-02  2560   0.904E-01    0.854E-02
RMM:   2    -0.328014598815E+02   -0.17302E-02   -0.41407E-03  1511   0.256E-01    0.671E-02
RMM:   3    -0.328027758249E+02   -0.13159E-02   -0.20648E-03  1400   0.107E-01
   1265 T=   597. E= -.28001488E+02 F= -.32802776E+02 E0= -.32763970E+02  EK= 0.20067E+01 SP= 0.28E+01 SK= 0.23E-01 mag=      0.125
       N       E                     dE             d eps       ncg     rms          rms(c)
DAV:   1    -0.328040373796E+02   -0.25775E-02   -0.16180E-02  2328   0.905E-01    0.689E-02
RMM:   2    -0.328051780564E+02   -0.11407E-02   -0.31925E-03  1457   0.232E-01
   1266 T=   589. E= -.27996946E+02 F= -.32805178E+02 E0= -.32766403E+02  EK= 0.19789E+01 SP= 0.28E+01 SK= 0.11E-01 mag=     -0.213
       N       E                     dE             d eps       ncg     rms          rms(c)
DAV:   1    -0.328008969232E+02    0.31405E-02   -0.30344E-02  2800   0.977E-01    0.126E-01
RMM:   2    -0.328041634032E+02   -0.32665E-02   -0.53930E-03  1509   0.236E-01    0.963E-02
RMM:   3    -0.328077535063E+02   -0.35901E-02   -0.49723E-03  1400   0.124E-01    0.512E-02
RMM:   4    -0.328087433890E+02   -0.98988E-03   -0.20691E-03  1400   0.890E-02
   1267 T=   584. E= -.27994421E+02 F= -.32808743E+02 E0= -.32770020E+02  EK= 0.19635E+01 SP= 0.28E+01 SK= 0.31E-02 mag=     -0.033
       N       E                     dE             d eps       ncg     rms          rms(c)
DAV:   1    -0.328048388722E+02    0.29146E-02   -0.16235E-02  2344   0.888E-01    0.127E-01
RMM:   2    -0.328079760111E+02   -0.31371E-02   -0.56503E-03  1404   0.232E-01    0.956E-02
RMM:   3    -0.328108663876E+02   -0.28904E-02   -0.38503E-03  1400   0.104E-01    0.558E-02
RMM:   4    -0.328118771861E+02   -0.10108E-02   -0.14353E-03  1389   0.740E-02
   1268 T=   583. E= -.27993353E+02 F= -.32811877E+02 E0= -.32773403E+02  EK= 0.19594E+01 SP= 0.29E+01 SK= 0.43E-04 mag=      0.065
       N       E                     dE             d eps       ncg     rms          rms(c)
DAV:   1    -0.328146701156E+02   -0.38037E-02   -0.22163E-02  2560   0.943E-01    0.564E-02
RMM:   2    -0.328153384730E+02   -0.66836E-03   -0.30161E-03  1499   0.218E-01
   1269 T=   586. E= -.27990623E+02 F= -.32815338E+02 E0= -.32776986E+02  EK= 0.19704E+01 SP= 0.29E+01 SK= 0.18E-02 mag=      0.063
       N       E                     dE             d eps       ncg     rms          rms(c)
DAV:   1    -0.328180530018E+02   -0.33829E-02   -0.16738E-02  2568   0.935E-01    0.495E-02
RMM:   2    -0.328188701960E+02   -0.81719E-03   -0.38397E-03  1545   0.253E-01
   1270 T=   594. E= -.27987518E+02 F= -.32818870E+02 E0= -.32780641E+02  EK= 0.19951E+01 SP= 0.28E+01 SK= 0.81E-02 mag=     -0.019
       N       E                     dE             d eps       ncg     rms          rms(c)
DAV:   1    -0.328218610863E+02   -0.38081E-02   -0.91892E-03  2448   0.963E-01    0.477E-02
RMM:   2    -0.328225854749E+02   -0.72439E-03   -0.33219E-03  1529   0.246E-01
   1271 T=   605. E= -.27985002E+02 F= -.32822585E+02 E0= -.32784506E+02  EK= 0.20324E+01 SP= 0.28E+01 SK= 0.18E-01 mag=     -0.107
       N       E                     dE             d eps       ncg     rms          rms(c)
DAV:   1    -0.328257821746E+02   -0.39211E-02   -0.11948E-02  2512   0.974E-01    0.496E-02
RMM:   2    -0.328264698054E+02   -0.68763E-03   -0.37531E-03  1524   0.258E-01
   1272 T=   620. E= -.27982106E+02 F= -.32826470E+02 E0= -.32788514E+02  EK= 0.20835E+01 SP= 0.27E+01 SK= 0.32E-01 mag=     -0.144
       N       E                     dE             d eps       ncg     rms          rms(c)
DAV:   1    -0.328288289277E+02   -0.30468E-02   -0.10401E-02  2304   0.956E-01    0.556E-02
RMM:   2    -0.328298293305E+02   -0.10004E-02   -0.44134E-03  1541   0.272E-01
   1273 T=   639. E= -.27978360E+02 F= -.32829829E+02 E0= -.32791873E+02  EK= 0.21478E+01 SP= 0.27E+01 SK= 0.47E-01 mag=     -0.086
       N       E                     dE             d eps       ncg     rms          rms(c)
DAV:   1    -0.328324596194E+02   -0.36307E-02   -0.11712E-02  2608   0.999E-01    0.550E-02
RMM:   2    -0.328332561720E+02   -0.79655E-03   -0.38052E-03  1541   0.270E-01
   1274 T=   662. E= -.27974695E+02 F= -.32833256E+02 E0= -.32795132E+02  EK= 0.22250E+01 SP= 0.26E+01 SK= 0.63E-01 mag=      0.048
       N       E                     dE             d eps       ncg     rms          rms(c)
DAV:   1    -0.328345977359E+02   -0.21381E-02   -0.13495E-02  2392   0.103E+00    0.533E-02
RMM:   2    -0.328355161524E+02   -0.91842E-03   -0.44465E-03  1543   0.285E-01
   1275 T=   688. E= -.27970390E+02 F= -.32835516E+02 E0= -.32797457E+02  EK= 0.23138E+01 SP= 0.25E+01 SK= 0.78E-01 mag=      0.174
       N       E                     dE             d eps       ncg     rms          rms(c)
DAV:   1    -0.328354395089E+02   -0.84177E-03   -0.16102E-02  2504   0.104E+00    0.674E-02
RMM:   2    -0.328367222320E+02   -0.12827E-02   -0.51393E-03  1558   0.295E-01
   1276 T=   718. E= -.27965738E+02 F= -.32836722E+02 E0= -.32798703E+02  EK= 0.24135E+01 SP= 0.24E+01 SK= 0.91E-01 mag=      0.191
       N       E                     dE             d eps       ncg     rms          rms(c)
DAV:   1    -0.328365767682E+02   -0.11373E-02   -0.15127E-02  2640   0.111E+00    0.604E-02
RMM:   2    -0.328378466907E+02   -0.12699E-02   -0.50886E-03  1560   0.304E-01
   1277 T=   751. E= -.27961714E+02 F= -.32837847E+02 E0= -.32799418E+02  EK= 0.25229E+01 SP= 0.23E+01 SK= 0.10E+00 mag=      0.050
       N       E                     dE             d eps       ncg     rms          rms(c)
DAV:   1    -0.328372640038E+02   -0.68724E-03   -0.17761E-02  2696   0.110E+00    0.523E-02
RMM:   2    -0.328382910159E+02   -0.10270E-02   -0.56126E-03  1563   0.326E-01
   1278 T=   786. E= -.27957603E+02 F= -.32838291E+02 E0= -.32799661E+02  EK= 0.26403E+01 SP= 0.21E+01 SK= 0.11E+00 mag=     -0.162
       N       E                     dE             d eps       ncg     rms          rms(c)
DAV:   1    -0.328335942335E+02    0.36698E-02   -0.23972E-02  2696   0.112E+00    0.871E-02
RMM:   2    -0.328356661767E+02   -0.20719E-02   -0.64708E-03  1561   0.329E-01    0.676E-02
RMM:   3    -0.328370120904E+02   -0.13459E-02   -0.25931E-03  1445   0.131E-01
   1279 T=   822. E= -.27953868E+02 F= -.32837012E+02 E0= -.32798271E+02  EK= 0.27620E+01 SP= 0.20E+01 SK= 0.10E+00 mag=     -0.090
       N       E                     dE             d eps       ncg     rms          rms(c)
DAV:   1    -0.328338386543E+02    0.18275E-02   -0.20958E-02  2552   0.113E+00    0.666E-02
RMM:   2    -0.328350704371E+02   -0.12318E-02   -0.43782E-03  1499   0.278E-01
   1280 T=   859. E= -.27949022E+02 F= -.32835070E+02 E0= -.32795930E+02  EK= 0.28877E+01 SP= 0.19E+01 SK= 0.99E-01 mag=      0.179
       N       E                     dE             d eps       ncg     rms          rms(c)
DAV:   1    -0.328265115140E+02    0.73271E-02   -0.39326E-02  2792   0.123E+00    0.113E-01
RMM:   2    -0.328293130758E+02   -0.28016E-02   -0.59825E-03  1566   0.284E-01    0.864E-02
RMM:   3    -0.328319409899E+02   -0.26279E-02   -0.36804E-03  1402   0.133E-01    0.491E-02
RMM:   4    -0.328327741153E+02   -0.83313E-03   -0.17130E-03  1395   0.931E-02
   1281 T=   896. E= -.27945877E+02 F= -.32832774E+02 E0= -.32793177E+02  EK= 0.30113E+01 SP= 0.18E+01 SK= 0.88E-01 mag=      0.035
       N       E                     dE             d eps       ncg     rms          rms(c)
DAV:   1    -0.328230510103E+02    0.88900E-02   -0.19266E-02  2456   0.112E+00    0.113E-01
RMM:   2    -0.328257341119E+02   -0.26831E-02   -0.65488E-03  1462   0.278E-01    0.843E-02
RMM:   3    -0.328278692564E+02   -0.21351E-02   -0.35076E-03  1400   0.123E-01    0.505E-02
RMM:   4    -0.328286573681E+02   -0.78811E-03   -0.13274E-03  1385   0.827E-02
   1282 T=   931. E= -.27944555E+02 F= -.32828657E+02 E0= -.32788764E+02  EK= 0.31272E+01 SP= 0.17E+01 SK= 0.74E-01 mag=     -0.069
       N       E                     dE             d eps       ncg     rms          rms(c)
DAV:   1    -0.328227106723E+02    0.51586E-02   -0.25094E-02  2784   0.123E+00    0.592E-02
RMM:   2    -0.328236570343E+02   -0.94636E-03   -0.43524E-03  1512   0.273E-01
   1283 T=   963. E= -.27940581E+02 F= -.32823657E+02 E0= -.32783410E+02  EK= 0.32365E+01 SP= 0.16E+01 SK= 0.57E-01 mag=     -0.077
       N       E                     dE             d eps       ncg     rms          rms(c)
DAV:   1    -0.328169687339E+02    0.57419E-02   -0.23048E-02  2936   0.121E+00    0.424E-02
RMM:   2    -0.328179216853E+02   -0.95295E-03   -0.49144E-03  1572   0.284E-01
   1284 T=   991. E= -.27938910E+02 F= -.32817922E+02 E0= -.32777347E+02  EK= 0.33297E+01 SP= 0.15E+01 SK= 0.39E-01 mag=      0.009
       N       E                     dE             d eps       ncg     rms          rms(c)
DAV:   1    -0.328104436089E+02    0.65251E-02   -0.17111E-02  2208   0.122E+00    0.403E-02
RMM:   2    -0.328114412164E+02   -0.99761E-03   -0.47102E-03  1554   0.306E-01
   1285 T=  1013. E= -.27936765E+02 F= -.32811441E+02 E0= -.32770677E+02  EK= 0.34053E+01 SP= 0.14E+01 SK= 0.23E-01 mag=      0.122
       N       E                     dE             d eps       ncg     rms          rms(c)
DAV:   1    -0.328033920547E+02    0.70516E-02   -0.31026E-02  3080   0.131E+00    0.530E-02
RMM:   2    -0.328046082083E+02   -0.12162E-02   -0.53030E-03  1546   0.306E-01
   1286 T=  1030. E= -.27932217E+02 F= -.32804608E+02 E0= -.32763705E+02  EK= 0.34621E+01 SP= 0.14E+01 SK= 0.10E-01 mag=      0.169
       N       E                     dE             d eps       ncg     rms          rms(c)
DAV:   1    -0.327969010226E+02    0.64910E-02   -0.20420E-02  2544   0.123E+00    0.418E-02
RMM:   2    -0.327980733357E+02   -0.11723E-02   -0.54118E-03  1577   0.328E-01
   1287 T=  1040. E= -.27928529E+02 F= -.32798073E+02 E0= -.32756832E+02  EK= 0.34944E+01 SP= 0.14E+01 SK= 0.23E-02 mag=      0.090
       N       E                     dE             d eps       ncg     rms          rms(c)
DAV:   1    -0.327899544465E+02    0.69466E-02   -0.24209E-02  3000   0.127E+00    0.349E-02
RMM:   2    -0.327909882212E+02   -0.10338E-02   -0.50677E-03  1559   0.308E-01
   1288 T=  1042. E= -.27924576E+02 F= -.32790988E+02 E0= -.32749547E+02  EK= 0.35008E+01 SP= 0.14E+01 SK= 0.54E-04 mag=     -0.081
       N       E                     dE             d eps       ncg     rms          rms(c)
DAV:   1    -0.327815028153E+02    0.84516E-02   -0.21535E-02  2816   0.122E+00    0.587E-02
RMM:   2    -0.327829537348E+02   -0.14509E-02   -0.54728E-03  1565   0.322E-01    0.442E-02
RMM:   3    -0.327835341954E+02   -0.58046E-03   -0.17498E-03  1461   0.123E-01
   1289 T=  1035. E= -.27921707E+02 F= -.32783534E+02 E0= -.32742076E+02  EK= 0.34798E+01 SP= 0.14E+01 SK= 0.38E-02 mag=     -0.095
       N       E                     dE             d eps       ncg     rms          rms(c)
DAV:   1    -0.327754469081E+02    0.75068E-02   -0.22411E-02  2528   0.124E+00    0.380E-02
RMM:   2    -0.327763657506E+02   -0.91884E-03   -0.33039E-03  1541   0.286E-01
   1290 T=  1023. E= -.27915212E+02 F= -.32776366E+02 E0= -.32734748E+02  EK= 0.34378E+01 SP= 0.14E+01 SK= 0.13E-01 mag=      0.031
       N       E                     dE             d eps       ncg     rms          rms(c)
DAV:   1    -0.327670296291E+02    0.84173E-02   -0.30303E-02  3072   0.133E+00    0.541E-02
RMM:   2    -0.327682744842E+02   -0.12449E-02   -0.50080E-03  1568   0.262E-01
   1291 T=  1003. E= -.27909184E+02 F= -.32768274E+02 E0= -.32726778E+02  EK= 0.33716E+01 SP= 0.15E+01 SK= 0.26E-01 mag=      0.160
       N       E                     dE             d eps       ncg     rms          rms(c)
DAV:   1    -0.327600603638E+02    0.69693E-02   -0.15011E-02  2272   0.115E+00    0.533E-02
RMM:   2    -0.327612497878E+02   -0.11894E-02   -0.51054E-03  1592   0.313E-01
   1292 T=   977. E= -.27905495E+02 F= -.32761250E+02 E0= -.32719790E+02  EK= 0.32849E+01 SP= 0.15E+01 SK= 0.42E-01 mag=      0.178
       N       E                     dE             d eps       ncg     rms          rms(c)
DAV:   1    -0.327535672841E+02    0.64931E-02   -0.32309E-02  2888   0.132E+00    0.339E-02
RMM:   2    -0.327546752972E+02   -0.11080E-02   -0.53480E-03  1613   0.322E-01
   1293 T=   948. E= -.27900545E+02 F= -.32754675E+02 E0= -.32713110E+02  EK= 0.31845E+01 SP= 0.16E+01 SK= 0.59E-01 mag=      0.063
       N       E                     dE             d eps       ncg     rms          rms(c)
DAV:   1    -0.327463638547E+02    0.72034E-02   -0.16463E-02  2280   0.111E+00    0.399E-02
RMM:   2    -0.327475150037E+02   -0.11511E-02   -0.55443E-03  1568   0.336E-01
   1294 T=   914. E= -.27894753E+02 F= -.32747515E+02 E0= -.32706090E+02  EK= 0.30733E+01 SP= 0.17E+01 SK= 0.74E-01 mag=     -0.116
       N       E                     dE             d eps       ncg     rms          rms(c)
DAV:   1    -0.327388942129E+02    0.74696E-02   -0.21711E-02  2824   0.125E+00    0.583E-02
RMM:   2    -0.327402900663E+02   -0.13959E-02   -0.51680E-03  1596   0.295E-01    0.447E-02
RMM:   3    -0.327409316253E+02   -0.64156E-03   -0.15955E-03  1461   0.119E-01
   1295 T=   879. E= -.27889418E+02 F= -.32740932E+02 E0= -.32699737E+02  EK= 0.29557E+01 SP= 0.18E+01 SK= 0.87E-01 mag=     -0.073
       N       E                     dE             d eps       ncg     rms          rms(c)
DAV:   1    -0.327332625827E+02    0.70275E-02   -0.18683E-02  2376   0.110E+00    0.532E-02
RMM:   2    -0.327342681348E+02   -0.10056E-02   -0.30974E-03  1485   0.260E-01
   1296 T=   844. E= -.27883248E+02 F= -.32734268E+02 E0= -.32693200E+02  EK= 0.28363E+01 SP= 0.19E+01 SK= 0.95E-01 mag=      0.106
       N       E                     dE             d eps       ncg     rms          rms(c)
DAV:   1    -0.327255756559E+02    0.76869E-02   -0.26707E-02  3032   0.123E+00    0.738E-02
RMM:   2    -0.327270733440E+02   -0.14977E-02   -0.43444E-03  1546   0.248E-01    0.561E-02
RMM:   3    -0.327278633522E+02   -0.79001E-03   -0.12642E-03  1422   0.103E-01
   1297 T=   808. E= -.27878095E+02 F= -.32727863E+02 E0= -.32687129E+02  EK= 0.27172E+01 SP= 0.20E+01 SK= 0.99E-01 mag=      0.094
       N       E                     dE             d eps       ncg     rms          rms(c)
DAV:   1    -0.327211381220E+02    0.59352E-02   -0.14204E-02  2384   0.101E+00    0.617E-02
RMM:   2    -0.327222249422E+02   -0.10868E-02   -0.33589E-03  1466   0.254E-01
   1298 T=   774. E= -.27873568E+02 F= -.32722225E+02 E0= -.32681550E+02  EK= 0.26025E+01 SP= 0.21E+01 SK= 0.98E-01 mag=     -0.056
       N       E                     dE             d eps       ncg     rms          rms(c)
DAV:   1    -0.327145786125E+02    0.65595E-02   -0.26586E-02  3096   0.118E+00    0.801E-02
RMM:   2    -0.327160711823E+02   -0.14926E-02   -0.41094E-03  1554   0.235E-01    0.571E-02
RMM:   3    -0.327170427289E+02   -0.97155E-03   -0.16237E-03  1422   0.102E-01
   1299 T=   742. E= -.27869162E+02 F= -.32717043E+02 E0= -.32676691E+02  EK= 0.24949E+01 SP= 0.23E+01 SK= 0.92E-01 mag=     -0.069
       N       E                     dE             d eps       ncg     rms          rms(c)
DAV:   1    -0.327106963873E+02    0.53748E-02   -0.12791E-02  2000   0.966E-01    0.806E-02
RMM:   2    -0.327120752469E+02   -0.13789E-02   -0.36526E-03  1509   0.253E-01    0.544E-02
RMM:   3    -0.327125609660E+02   -0.48572E-03   -0.11353E-03  1387   0.103E-01
   1300 T=   713. E= -.27866735E+02 F= -.32712561E+02 E0= -.32672392E+02  EK= 0.23947E+01 SP= 0.24E+01 SK= 0.82E-01 mag=     -0.014
       N       E                     dE             d eps       ncg     rms          rms(c)
DAV:   1    -0.327078273392E+02    0.42479E-02   -0.23297E-02  2600   0.100E+00    0.472E-02
RMM:   2    -0.327086028398E+02   -0.77550E-03   -0.34130E-03  1528   0.248E-01
   1301 T=   687. E= -.27861940E+02 F= -.32708603E+02 E0= -.32668729E+02  EK= 0.23074E+01 SP= 0.25E+01 SK= 0.69E-01 mag=      0.081
       N       E                     dE             d eps       ncg     rms          rms(c)
DAV:   1    -0.327047869484E+02    0.30404E-02   -0.19775E-02  2728   0.103E+00    0.472E-02
RMM:   2    -0.327056661987E+02   -0.87925E-03   -0.37625E-03  1537   0.245E-01
   1302 T=   664. E= -.27858363E+02 F= -.32705666E+02 E0= -.32666198E+02  EK= 0.22309E+01 SP= 0.26E+01 SK= 0.55E-01 mag=      0.136
       N       E                     dE             d eps       ncg     rms          rms(c)
DAV:   1    -0.327034524607E+02    0.13345E-02   -0.10922E-02  2216   0.956E-01    0.385E-02
RMM:   2    -0.327041680007E+02   -0.71554E-03   -0.34944E-03  1553   0.261E-01
   1303 T=   645. E= -.27854996E+02 F= -.32704168E+02 E0= -.32664922E+02  EK= 0.21673E+01 SP= 0.26E+01 SK= 0.41E-01 mag=      0.089
       N       E                     dE             d eps       ncg     rms          rms(c)
DAV:   1    -0.327028148449E+02    0.63762E-03   -0.12576E-02  2464   0.101E+00    0.302E-02
RMM:   2    -0.327035169308E+02   -0.70209E-03   -0.40484E-03  1545   0.257E-01
   1304 T=   630. E= -.27850345E+02 F= -.32703517E+02 E0= -.32664526E+02  EK= 0.21178E+01 SP= 0.27E+01 SK= 0.27E-01 mag=     -0.040
       N       E                     dE             d eps       ncg     rms          rms(c)
DAV:   1    -0.327029702512E+02   -0.15541E-03   -0.10279E-02  2424   0.909E-01    0.473E-02
RMM:   2    -0.327038462022E+02   -0.87595E-03   -0.35571E-03  1537   0.256E-01
   1305 T=   619. E= -.27845515E+02 F= -.32703846E+02 E0= -.32665289E+02  EK= 0.20815E+01 SP= 0.28E+01 SK= 0.16E-01 mag=     -0.151
       N       E                     dE             d eps       ncg     rms          rms(c)
DAV:   1    -0.327051188144E+02   -0.21486E-02   -0.12870E-02  2472   0.967E-01    0.461E-02
RMM:   2    -0.327059324361E+02   -0.81362E-03   -0.34330E-03  1524   0.244E-01
   1306 T=   612. E= -.27841326E+02 F= -.32705932E+02 E0= -.32667678E+02  EK= 0.20584E+01 SP= 0.28E+01 SK= 0.69E-02 mag=     -0.138
       N       E                     dE             d eps       ncg     rms          rms(c)
DAV:   1    -0.327087003860E+02   -0.35816E-02   -0.74540E-03  2152   0.898E-01    0.267E-02
RMM:   2    -0.327093897104E+02   -0.68932E-03   -0.43865E-03  1554   0.265E-01
   1307 T=   610. E= -.27837565E+02 F= -.32709390E+02 E0= -.32671288E+02  EK= 0.20485E+01 SP= 0.28E+01 SK= 0.16E-02 mag=     -0.001
       N       E                     dE             d eps       ncg     rms          rms(c)
DAV:   1    -0.327122475023E+02   -0.35471E-02   -0.13975E-02  2616   0.945E-01    0.545E-02
RMM:   2    -0.327132872247E+02   -0.10397E-02   -0.40889E-03  1533   0.243E-01
   1308 T=   610. E= -.27833470E+02 F= -.32713287E+02 E0= -.32675586E+02  EK= 0.20514E+01 SP= 0.28E+01 SK= 0.11E-04 mag=      0.149
       N       E                     dE             d eps       ncg     rms          rms(c)
DAV:   1    -0.327180733122E+02   -0.58258E-02   -0.11482E-02  2264   0.900E-01    0.570E-02
RMM:   2    -0.327191290802E+02   -0.10558E-02   -0.41634E-03  1545   0.266E-01
   1309 T=   615. E= -.27830383E+02 F= -.32719129E+02 E0= -.32681748E+02  EK= 0.20673E+01 SP= 0.28E+01 SK= 0.21E-02 mag=      0.202
       N       E                     dE             d eps       ncg     rms          rms(c)
DAV:   1    -0.327258739561E+02   -0.78006E-02   -0.12231E-02  2360   0.936E-01    0.419E-02
RMM:   2    -0.327266698037E+02   -0.79585E-03   -0.40330E-03  1537   0.261E-01
   1310 T=   624. E= -.27827206E+02 F= -.32726670E+02 E0= -.32689386E+02  EK= 0.20970E+01 SP= 0.28E+01 SK= 0.76E-02 mag=      0.096
       N       E                     dE             d eps       ncg     rms          rms(c)
DAV:   1    -0.327336568981E+02   -0.77829E-02   -0.96596E-03  2288   0.921E-01    0.478E-02
RMM:   2    -0.327345918888E+02   -0.93499E-03   -0.43143E-03  1558   0.267E-01
   1311 T=   637. E= -.27823014E+02 F= -.32734592E+02 E0= -.32697478E+02  EK= 0.21399E+01 SP= 0.28E+01 SK= 0.16E-01 mag=     -0.110
       N       E                     dE             d eps       ncg     rms          rms(c)
DAV:   1    -0.327412035832E+02   -0.75467E-02   -0.12203E-02  2472   0.966E-01    0.749E-02
RMM:   2    -0.327427764290E+02   -0.15728E-02   -0.45542E-03  1528   0.264E-01    0.574E-02
RMM:   3    -0.327438725803E+02   -0.10962E-02   -0.21829E-03  1405   0.112E-01
   1312 T=   653. E= -.27819955E+02 F= -.32743873E+02 E0= -.32707006E+02  EK= 0.21947E+01 SP= 0.27E+01 SK= 0.26E-01 mag=     -0.090
       N       E                     dE             d eps       ncg     rms          rms(c)
DAV:   1    -0.327527060207E+02   -0.99296E-02   -0.15754E-02  2424   0.937E-01    0.568E-02
RMM:   2    -0.327537850976E+02   -0.10791E-02   -0.34381E-03  1468   0.223E-01
   1313 T=   673. E= -.27816451E+02 F= -.32753785E+02 E0= -.32716988E+02  EK= 0.22619E+01 SP= 0.26E+01 SK= 0.37E-01 mag=      0.074
       N       E                     dE             d eps       ncg     rms          rms(c)
DAV:   1    -0.327613324241E+02   -0.86264E-02   -0.27955E-02  2640   0.104E+00    0.749E-02
RMM:   2    -0.327630915405E+02   -0.17591E-02   -0.44495E-03  1534   0.243E-01    0.599E-02
RMM:   3    -0.327639320906E+02   -0.84055E-03   -0.13480E-03  1414   0.976E-02
   1314 T=   696. E= -.27813348E+02 F= -.32763932E+02 E0= -.32727229E+02  EK= 0.23397E+01 SP= 0.26E+01 SK= 0.48E-01 mag=      0.094
       N       E                     dE             d eps       ncg     rms          rms(c)
DAV:   1    -0.327741990872E+02   -0.11108E-01   -0.15868E-02  2352   0.954E-01    0.509E-02
RMM:   2    -0.327750908923E+02   -0.89181E-03   -0.34987E-03  1459   0.227E-01
   1315 T=   722. E= -.27811176E+02 F= -.32775091E+02 E0= -.32738264E+02  EK= 0.24275E+01 SP= 0.25E+01 SK= 0.57E-01 mag=     -0.018
       N       E                     dE             d eps       ncg     rms          rms(c)
DAV:   1    -0.327819531420E+02   -0.77541E-02   -0.27553E-02  2768   0.107E+00    0.778E-02
RMM:   2    -0.327838328688E+02   -0.18797E-02   -0.52379E-03  1545   0.255E-01    0.574E-02
RMM:   3    -0.327852552207E+02   -0.14224E-02   -0.28218E-03  1401   0.118E-01    0.313E-02
RMM:   4    -0.327856318860E+02   -0.37667E-03   -0.10238E-03  1357   0.695E-02
   1316 T=   751. E= -.27808903E+02 F= -.32785632E+02 E0= -.32748668E+02  EK= 0.25235E+01 SP= 0.24E+01 SK= 0.64E-01 mag=     -0.019
       N       E                     dE             d eps       ncg     rms          rms(c)
DAV:   1    -0.327924162744E+02   -0.71611E-02   -0.15884E-02  2408   0.977E-01    0.786E-02
RMM:   2    -0.327940835233E+02   -0.16672E-02   -0.50751E-03  1439   0.251E-01    0.545E-02
RMM:   3    -0.327950156277E+02   -0.93210E-03   -0.20792E-03  1400   0.997E-02
   1317 T=   781. E= -.27807012E+02 F= -.32795016E+02 E0= -.32757897E+02  EK= 0.26252E+01 SP= 0.23E+01 SK= 0.68E-01 mag=      0.014
       N       E                     dE             d eps       ncg     rms          rms(c)
DAV:   1    -0.328032869601E+02   -0.92034E-02   -0.23458E-02  2648   0.108E+00    0.501E-02
RMM:   2    -0.328040934403E+02   -0.80648E-03   -0.32703E-03  1503   0.247E-01
   1318 T=   813. E= -.27803784E+02 F= -.32804093E+02 E0= -.32766770E+02  EK= 0.27332E+01 SP= 0.22E+01 SK= 0.69E-01 mag=      0.055
       N       E                     dE             d eps       ncg     rms          rms(c)
DAV:   1    -0.328103550542E+02   -0.70681E-02   -0.21700E-02  2728   0.113E+00    0.383E-02
RMM:   2    -0.328113105981E+02   -0.95554E-03   -0.40343E-03  1561   0.254E-01
   1319 T=   845. E= -.27802065E+02 F= -.32811311E+02 E0= -.32773672E+02  EK= 0.28404E+01 SP= 0.21E+01 SK= 0.65E-01 mag=      0.068
       N       E                     dE             d eps       ncg     rms          rms(c)
DAV:   1    -0.328157341026E+02   -0.53790E-02   -0.12388E-02  2304   0.105E+00    0.374E-02
RMM:   2    -0.328166882107E+02   -0.95411E-03   -0.40146E-03  1562   0.298E-01
   1320 T=   877. E= -.27799049E+02 F= -.32816688E+02 E0= -.32778679E+02  EK= 0.29469E+01 SP= 0.20E+01 SK= 0.58E-01 mag=      0.031
       N       E                     dE             d eps       ncg     rms          rms(c)
DAV:   1    -0.328183227655E+02   -0.25887E-02   -0.19918E-02  2720   0.121E+00    0.387E-02
RMM:   2    -0.328194427384E+02   -0.11200E-02   -0.45943E-03  1559   0.287E-01
   1321 T=   907. E= -.27793905E+02 F= -.32819443E+02 E0= -.32781099E+02  EK= 0.30492E+01 SP= 0.19E+01 SK= 0.49E-01 mag=     -0.040
       N       E                     dE             d eps       ncg     rms          rms(c)
DAV:   1    -0.328185974506E+02   -0.27469E-03   -0.10871E-02  2472   0.110E+00    0.379E-02
RMM:   2    -0.328198422092E+02   -0.12448E-02   -0.47740E-03  1582   0.307E-01
   1322 T=   935. E= -.27788970E+02 F= -.32819842E+02 E0= -.32781151E+02  EK= 0.31419E+01 SP= 0.19E+01 SK= 0.37E-01 mag=     -0.091
       N       E                     dE             d eps       ncg     rms          rms(c)
DAV:   1    -0.328162978896E+02    0.22996E-02   -0.20040E-02  2616   0.124E+00    0.374E-02
RMM:   2    -0.328174244128E+02   -0.11265E-02   -0.41855E-03  1538   0.286E-01
   1323 T=   958. E= -.27784222E+02 F= -.32817424E+02 E0= -.32778318E+02  EK= 0.32207E+01 SP= 0.18E+01 SK= 0.26E-01 mag=     -0.078
       N       E                     dE             d eps       ncg     rms          rms(c)
DAV:   1    -0.328098660339E+02    0.64319E-02   -0.16183E-02  2528   0.115E+00    0.336E-02
RMM:   2    -0.328111589628E+02   -0.12929E-02   -0.49031E-03  1569   0.309E-01
   1324 T=   976. E= -.27779747E+02 F= -.32811159E+02 E0= -.32771737E+02  EK= 0.32813E+01 SP= 0.17E+01 SK= 0.15E-01 mag=      0.003
       N       E                     dE             d eps       ncg     rms          rms(c)
DAV:   1    -0.327996431105E+02    0.10223E-01   -0.21365E-02  2912   0.124E+00    0.476E-02
RMM:   2    -0.328012413309E+02   -0.15982E-02   -0.56300E-03  1598   0.303E-01    0.350E-02
RMM:   3    -0.328016821711E+02   -0.44084E-03   -0.15860E-03  1441   0.119E-01
   1325 T=   988. E= -.27776049E+02 F= -.32801682E+02 E0= -.32762037E+02  EK= 0.33208E+01 SP= 0.17E+01 SK= 0.64E-02 mag=      0.042
       N       E                     dE             d eps       ncg     rms          rms(c)
DAV:   1    -0.327871325114E+02    0.14109E-01   -0.22210E-02  2424   0.117E+00    0.454E-02
RMM:   2    -0.327885330496E+02   -0.14005E-02   -0.36958E-03  1503   0.291E-01    0.318E-02
RMM:   3    -0.327887960325E+02   -0.26298E-03   -0.86308E-04  1243   0.105E-01
   1326 T=   993. E= -.27771916E+02 F= -.32788796E+02 E0= -.32748959E+02  EK= 0.33386E+01 SP= 0.17E+01 SK= 0.14E-02 mag=      0.010
       N       E                     dE             d eps       ncg     rms          rms(c)
DAV:   1    -0.327709514548E+02    0.17582E-01   -0.25668E-02  2968   0.121E+00    0.394E-02
RMM:   2    -0.327720840713E+02   -0.11326E-02   -0.35158E-03  1566   0.247E-01
   1327 T=   992. E= -.27766287E+02 F= -.32772084E+02 E0= -.32732208E+02  EK= 0.33342E+01 SP= 0.17E+01 SK= 0.51E-04 mag=     -0.057
       N       E                     dE             d eps       ncg     rms          rms(c)
DAV:   1    -0.327507605774E+02    0.20191E-01   -0.19034E-02  2896   0.123E+00    0.355E-02
RMM:   2    -0.327520755520E+02   -0.13150E-02   -0.46967E-03  1576   0.270E-01
   1328 T=   983. E= -.27763561E+02 F= -.32752076E+02 E0= -.32712309E+02  EK= 0.33039E+01 SP= 0.17E+01 SK= 0.25E-02 mag=     -0.091
       N       E                     dE             d eps       ncg     rms          rms(c)
DAV:   1    -0.327281919129E+02    0.22569E-01   -0.17713E-02  2448   0.118E+00    0.317E-02
RMM:   2    -0.327295522198E+02   -0.13603E-02   -0.51050E-03  1599   0.324E-01    0.207E-02
RMM:   3    -0.327297813362E+02   -0.22912E-03   -0.15127E-03  1427   0.121E-01
   1329 T=   968. E= -.27761165E+02 F= -.32729781E+02 E0= -.32690175E+02  EK= 0.32527E+01 SP= 0.17E+01 SK= 0.81E-02 mag=     -0.044
       N       E                     dE             d eps       ncg     rms          rms(c)
DAV:   1    -0.327033884282E+02    0.26164E-01   -0.23173E-02  2656   0.122E+00    0.324E-02
RMM:   2    -0.327045631117E+02   -0.11747E-02   -0.29643E-03  1441   0.258E-01
   1330 T=   948. E= -.27755027E+02 F= -.32704563E+02 E0= -.32665263E+02  EK= 0.31863E+01 SP= 0.17E+01 SK= 0.16E-01 mag=      0.048
       N       E                     dE             d eps       ncg     rms          rms(c)
DAV:   1    -0.326760578232E+02    0.27331E-01   -0.18561E-02  2824   0.126E+00    0.400E-02
RMM:   2    -0.326773342882E+02   -0.12765E-02   -0.44766E-03  1571   0.257E-01
   1331 T=   923. E= -.27750516E+02 F= -.32677334E+02 E0= -.32638517E+02  EK= 0.31029E+01 SP= 0.18E+01 SK= 0.25E-01 mag=      0.108
       N       E                     dE             d eps       ncg     rms          rms(c)
DAV:   1    -0.326477574480E+02    0.28300E-01   -0.14061E-02  2280   0.110E+00    0.322E-02
RMM:   2    -0.326489661447E+02   -0.12087E-02   -0.39739E-03  1582   0.304E-01
   1332 T=   895. E= -.27746085E+02 F= -.32648966E+02 E0= -.32610628E+02  EK= 0.30085E+01 SP= 0.19E+01 SK= 0.33E-01 mag=      0.091
       N       E                     dE             d eps       ncg     rms          rms(c)
DAV:   1    -0.326181874852E+02    0.29570E-01   -0.24456E-02  2848   0.122E+00    0.340E-02
RMM:   2    -0.326194181624E+02   -0.12307E-02   -0.41604E-03  1554   0.285E-01
   1333 T=   865. E= -.27740613E+02 F= -.32619418E+02 E0= -.32581601E+02  EK= 0.29075E+01 SP= 0.19E+01 SK= 0.40E-01 mag=      0.007
       N       E                     dE             d eps       ncg     rms          rms(c)
DAV:   1    -0.325882800335E+02    0.29907E-01   -0.12858E-02  2648   0.108E+00    0.376E-02
RMM:   2    -0.325895831977E+02   -0.13032E-02   -0.47086E-03  1570   0.291E-01
   1334 T=   834. E= -.27735944E+02 F= -.32589583E+02 E0= -.32552403E+02  EK= 0.28023E+01 SP= 0.20E+01 SK= 0.44E-01 mag=     -0.087
       N       E                     dE             d eps       ncg     rms          rms(c)
DAV:   1    -0.325590909332E+02    0.29189E-01   -0.18889E-02  2744   0.114E+00    0.375E-02
RMM:   2    -0.325602943409E+02   -0.12034E-02   -0.41105E-03  1542   0.278E-01
   1335 T=   803. E= -.27731154E+02 F= -.32560294E+02 E0= -.32523819E+02  EK= 0.26978E+01 SP= 0.21E+01 SK= 0.46E-01 mag=     -0.116
       N       E                     dE             d eps       ncg     rms          rms(c)
DAV:   1    -0.325311607201E+02    0.27930E-01   -0.14424E-02  2520   0.107E+00    0.378E-02
RMM:   2    -0.325323062201E+02   -0.11455E-02   -0.42475E-03  1539   0.291E-01
   1336 T=   773. E= -.27726788E+02 F= -.32532306E+02 E0= -.32496426E+02  EK= 0.25970E+01 SP= 0.22E+01 SK= 0.45E-01 mag=     -0.059
       N       E                     dE             d eps       ncg     rms          rms(c)
DAV:   1    -0.325046754492E+02    0.26485E-01   -0.16422E-02  2920   0.108E+00    0.395E-02
RMM:   2    -0.325058381521E+02   -0.11627E-02   -0.40532E-03  1534   0.264E-01
   1337 T=   745. E= -.27722352E+02 F= -.32505838E+02 E0= -.32470571E+02  EK= 0.25027E+01 SP= 0.22E+01 SK= 0.41E-01 mag=      0.034
       N       E                     dE             d eps       ncg     rms          rms(c)
DAV:   1    -0.324802103685E+02    0.24465E-01   -0.13846E-02  2488   0.101E+00    0.388E-02
RMM:   2    -0.324812917517E+02   -0.10814E-02   -0.43968E-03  1561   0.278E-01
   1338 T=   719. E= -.27718111E+02 F= -.32481292E+02 E0= -.32446724E+02  EK= 0.24169E+01 SP= 0.23E+01 SK= 0.35E-01 mag=      0.113
       N       E                     dE             d eps       ncg     rms          rms(c)
DAV:   1    -0.324577877487E+02    0.22423E-01   -0.16654E-02  2896   0.101E+00    0.527E-02
RMM:   2    -0.324590979039E+02   -0.13102E-02   -0.41200E-03  1527   0.259E-01
   1339 T=   697. E= -.27713769E+02 F= -.32459098E+02 E0= -.32425186E+02  EK= 0.23416E+01 SP= 0.24E+01 SK= 0.28E-01 mag=      0.106
       N       E                     dE             d eps       ncg     rms          rms(c)
DAV:   1    -0.324401591090E+02    0.17629E-01   -0.12212E-02  2568   0.989E-01    0.411E-02
RMM:   2    -0.324410467772E+02   -0.88767E-03   -0.38135E-03  1529   0.274E-01
   1340 T=   678. E= -.27710639E+02 F= -.32441047E+02 E0= -.32407577E+02  EK= 0.22782E+01 SP= 0.24E+01 SK= 0.20E-01 mag=      0.012
       N       E                     dE             d eps       ncg     rms          rms(c)
DAV:   1    -0.324245711180E+02    0.15588E-01   -0.13648E-02  2624   0.986E-01    0.486E-02
RMM:   2    -0.324256344816E+02   -0.10634E-02   -0.43309E-03  1535   0.272E-01
   1341 T=   663. E= -.27706362E+02 F= -.32425634E+02 E0= -.32392771E+02  EK= 0.22283E+01 SP= 0.25E+01 SK= 0.12E-01 mag=     -0.116
       N       E                     dE             d eps       ncg     rms          rms(c)
DAV:   1    -0.324120172582E+02    0.12554E-01   -0.11090E-02  2344   0.956E-01    0.618E-02
RMM:   2    -0.324134414295E+02   -0.14242E-02   -0.41224E-03  1519   0.265E-01    0.483E-02
RMM:   3    -0.324142255281E+02   -0.78410E-03   -0.16533E-03  1423   0.110E-01
   1342 T=   652. E= -.27703187E+02 F= -.32414226E+02 E0= -.32381895E+02  EK= 0.21914E+01 SP= 0.25E+01 SK= 0.62E-02 mag=     -0.045
       N       E                     dE             d eps       ncg     rms          rms(c)
DAV:   1    -0.324047221422E+02    0.87193E-02   -0.14238E-02  2384   0.922E-01    0.683E-02
RMM:   2    -0.324060872317E+02   -0.13651E-02   -0.30441E-03  1445   0.241E-01    0.496E-02
RMM:   3    -0.324065279990E+02   -0.44077E-03   -0.78037E-04  1251   0.862E-02
   1343 T=   645. E= -.27699524E+02 F= -.32406528E+02 E0= -.32374641E+02  EK= 0.21691E+01 SP= 0.25E+01 SK= 0.20E-02 mag=      0.057
       N       E                     dE             d eps       ncg     rms          rms(c)
DAV:   1    -0.324024242930E+02    0.36629E-02   -0.26819E-02  2424   0.933E-01    0.548E-02
RMM:   2    -0.324032943021E+02   -0.87001E-03   -0.37879E-03  1548   0.240E-01
   1344 T=   643. E= -.27695147E+02 F= -.32403294E+02 E0= -.32371840E+02  EK= 0.21624E+01 SP= 0.25E+01 SK= 0.78E-04 mag=      0.114
       N       E                     dE             d eps       ncg     rms          rms(c)
DAV:   1    -0.324039840198E+02   -0.15597E-02   -0.18957E-02  2560   0.967E-01    0.428E-02
RMM:   2    -0.324047168507E+02   -0.73283E-03   -0.33424E-03  1526   0.235E-01
   1345 T=   646. E= -.27691974E+02 F= -.32404717E+02 E0= -.32373608E+02  EK= 0.21696E+01 SP= 0.25E+01 SK= 0.71E-03 mag=      0.070
       N       E                     dE             d eps       ncg     rms          rms(c)
DAV:   1    -0.324101633630E+02   -0.61793E-02   -0.99733E-03  2440   0.932E-01    0.300E-02
RMM:   2    -0.324108065280E+02   -0.64316E-03   -0.33173E-03  1535   0.263E-01
   1346 T=   652. E= -.27688721E+02 F= -.32410807E+02 E0= -.32380015E+02  EK= 0.21921E+01 SP= 0.25E+01 SK= 0.37E-02 mag=     -0.038
       N       E                     dE             d eps       ncg     rms          rms(c)
DAV:   1    -0.324198855898E+02   -0.97222E-02   -0.11291E-02  2416   0.101E+00    0.527E-02
RMM:   2    -0.324208068002E+02   -0.92121E-03   -0.35704E-03  1515   0.252E-01
   1347 T=   663. E= -.27684298E+02 F= -.32420807E+02 E0= -.32390464E+02  EK= 0.22299E+01 SP= 0.25E+01 SK= 0.87E-02 mag=     -0.119
       N       E                     dE             d eps       ncg     rms          rms(c)
DAV:   1    -0.324348090901E+02   -0.14924E-01   -0.73679E-03  2360   0.941E-01    0.485E-02
RMM:   2    -0.324356505420E+02   -0.84145E-03   -0.32870E-03  1520   0.258E-01
   1348 T=   679. E= -.27679830E+02 F= -.32435651E+02 E0= -.32405582E+02  EK= 0.22825E+01 SP= 0.25E+01 SK= 0.15E-01 mag=     -0.110
       N       E                     dE             d eps       ncg     rms          rms(c)
DAV:   1    -0.324541307592E+02   -0.19322E-01   -0.10104E-02  2224   0.103E+00    0.373E-02
RMM:   2    -0.324547834083E+02   -0.65265E-03   -0.34329E-03  1519   0.254E-01
   1349 T=   699. E= -.27675279E+02 F= -.32454783E+02 E0= -.32424868E+02  EK= 0.23491E+01 SP= 0.24E+01 SK= 0.22E-01 mag=     -0.010
       N       E                     dE             d eps       ncg     rms          rms(c)
DAV:   1    -0.324759205915E+02   -0.21790E-01   -0.97560E-03  2328   0.975E-01    0.477E-02
RMM:   2    -0.324768767366E+02   -0.95615E-03   -0.42811E-03  1532   0.276E-01
   1350 T=   722. E= -.27670717E+02 F= -.32476877E+02 E0= -.32447288E+02  EK= 0.24274E+01 SP= 0.24E+01 SK= 0.28E-01 mag=      0.116
       N       E                     dE             d eps       ncg     rms          rms(c)
DAV:   1    -0.325010718827E+02   -0.25151E-01   -0.12485E-02  2752   0.106E+00    0.713E-02
RMM:   2    -0.325025364463E+02   -0.14646E-02   -0.44890E-03  1549   0.266E-01    0.536E-02
RMM:   3    -0.325033507257E+02   -0.81428E-03   -0.16979E-03  1418   0.110E-01
   1351 T=   749. E= -.27668148E+02 F= -.32503351E+02 E0= -.32473960E+02  EK= 0.25158E+01 SP= 0.23E+01 SK= 0.33E-01 mag=      0.049
       N       E                     dE             d eps       ncg     rms          rms(c)
DAV:   1    -0.325311139188E+02   -0.28577E-01   -0.13992E-02  2424   0.101E+00    0.680E-02
RMM:   2    -0.325322848071E+02   -0.11709E-02   -0.28431E-03  1433   0.243E-01
   1352 T=   778. E= -.27663829E+02 F= -.32532285E+02 E0= -.32503101E+02  EK= 0.26147E+01 SP= 0.22E+01 SK= 0.37E-01 mag=     -0.086
       N       E                     dE             d eps       ncg     rms          rms(c)
DAV:   1    -0.325616517835E+02   -0.30538E-01   -0.28091E-02  2720   0.118E+00    0.689E-02
RMM:   2    -0.325633843405E+02   -0.17326E-02   -0.52495E-03  1575   0.274E-01    0.557E-02
RMM:   3    -0.325639563624E+02   -0.57202E-03   -0.12506E-03  1438   0.108E-01
   1353 T=   809. E= -.27660037E+02 F= -.32563956E+02 E0= -.32534932E+02  EK= 0.27202E+01 SP= 0.21E+01 SK= 0.37E-01 mag=     -0.056
       N       E                     dE             d eps       ncg     rms          rms(c)
DAV:   1    -0.325967383543E+02   -0.33354E-01   -0.13551E-02  2256   0.104E+00    0.507E-02
RMM:   2    -0.325979038663E+02   -0.11655E-02   -0.39111E-03  1494   0.257E-01
   1354 T=   842. E= -.27656747E+02 F= -.32597904E+02 E0= -.32568861E+02  EK= 0.28295E+01 SP= 0.21E+01 SK= 0.35E-01 mag=      0.092
       N       E                     dE             d eps       ncg     rms          rms(c)
DAV:   1    -0.326288147377E+02   -0.32076E-01   -0.28904E-02  2928   0.120E+00    0.923E-02
RMM:   2    -0.326308290513E+02   -0.20143E-02   -0.52864E-03  1550   0.273E-01    0.653E-02
RMM:   3    -0.326323911809E+02   -0.15621E-02   -0.25509E-03  1423   0.124E-01    0.418E-02
RMM:   4    -0.326329534274E+02   -0.56225E-03   -0.12519E-03  1377   0.767E-02
   1355 T=   874. E= -.27653888E+02 F= -.32632953E+02 E0= -.32603926E+02  EK= 0.29386E+01 SP= 0.20E+01 SK= 0.30E-01 mag=      0.005
       N       E                     dE             d eps       ncg     rms          rms(c)
DAV:   1    -0.326640109523E+02   -0.31620E-01   -0.14296E-02  2312   0.108E+00    0.860E-02
RMM:   2    -0.326659085488E+02   -0.18976E-02   -0.49482E-03  1498   0.277E-01    0.612E-02
RMM:   3    -0.326671422469E+02   -0.12337E-02   -0.23652E-03  1399   0.106E-01
   1356 T=   905. E= -.27651045E+02 F= -.32667142E+02 E0= -.32638236E+02  EK= 0.30425E+01 SP= 0.20E+01 SK= 0.24E-01 mag=     -0.031
       N       E                     dE             d eps       ncg     rms          rms(c)
DAV:   1    -0.327008913852E+02   -0.34983E-01   -0.29485E-02  2664   0.120E+00    0.433E-02
RMM:   2    -0.327018245495E+02   -0.93316E-03   -0.42068E-03  1564   0.280E-01
   1357 T=   935. E= -.27646457E+02 F= -.32701825E+02 E0= -.32672810E+02  EK= 0.31408E+01 SP= 0.19E+01 SK= 0.16E-01 mag=     -0.018
       N       E                     dE             d eps       ncg     rms          rms(c)
DAV:   1    -0.327343457321E+02   -0.33454E-01   -0.26056E-02  2864   0.122E+00    0.295E-02
RMM:   2    -0.327353065716E+02   -0.96084E-03   -0.45139E-03  1568   0.273E-01
   1358 T=   959. E= -.27644352E+02 F= -.32735307E+02 E0= -.32706235E+02  EK= 0.32241E+01 SP= 0.19E+01 SK= 0.86E-02 mag=      0.021
       N       E                     dE             d eps       ncg     rms          rms(c)
DAV:   1    -0.327652679091E+02   -0.30922E-01   -0.12967E-02  2208   0.115E+00    0.398E-02
RMM:   2    -0.327663748666E+02   -0.11070E-02   -0.46794E-03  1579   0.315E-01
   1359 T=   980. E= -.27640388E+02 F= -.32766375E+02 E0= -.32737249E+02  EK= 0.32919E+01 SP= 0.18E+01 SK= 0.29E-02 mag=      0.052
       N       E                     dE             d eps       ncg     rms          rms(c)
DAV:   1    -0.327938720666E+02   -0.28604E-01   -0.24392E-02  2896   0.133E+00    0.351E-02
RMM:   2    -0.327950198486E+02   -0.11478E-02   -0.48879E-03  1593   0.304E-01
   1360 T=   994. E= -.27634364E+02 F= -.32795020E+02 E0= -.32765780E+02  EK= 0.33416E+01 SP= 0.18E+01 SK= 0.13E-03 mag=      0.049
       N       E                     dE             d eps       ncg     rms          rms(c)
DAV:   1    -0.328197867034E+02   -0.25915E-01   -0.11291E-02  2640   0.117E+00    0.231E-02
RMM:   2    -0.328209398958E+02   -0.11532E-02   -0.55324E-03  1649   0.326E-01
   1361 T=  1002. E= -.27629365E+02 F= -.32820940E+02 E0= -.32791519E+02  EK= 0.33677E+01 SP= 0.18E+01 SK= 0.11E-02 mag=      0.010
       N       E                     dE             d eps       ncg     rms          rms(c)
DAV:   1    -0.328422732709E+02   -0.22487E-01   -0.20802E-02  2568   0.126E+00    0.328E-02
RMM:   2    -0.328434385026E+02   -0.11652E-02   -0.49585E-03  1597   0.301E-01
   1362 T=  1003. E= -.27624022E+02 F= -.32843439E+02 E0= -.32813864E+02  EK= 0.33697E+01 SP= 0.18E+01 SK= 0.64E-02 mag=     -0.038
       N       E                     dE             d eps       ncg     rms          rms(c)
DAV:   1    -0.328611981455E+02   -0.18925E-01   -0.16668E-02  2656   0.121E+00    0.370E-02
RMM:   2    -0.328623767032E+02   -0.11786E-02   -0.45005E-03  1563   0.297E-01
   1363 T=   996. E= -.27619074E+02 F= -.32862377E+02 E0= -.32832622E+02  EK= 0.33469E+01 SP= 0.19E+01 SK= 0.16E-01 mag=     -0.060
       N       E                     dE             d eps       ncg     rms          rms(c)
DAV:   1    -0.328768291735E+02   -0.15631E-01   -0.20451E-02  2816   0.123E+00    0.313E-02
RMM:   2    -0.328779686027E+02   -0.11394E-02   -0.48788E-03  1591   0.298E-01
   1364 T=   982. E= -.27614197E+02 F= -.32877969E+02 E0= -.32847972E+02  EK= 0.33011E+01 SP= 0.19E+01 SK= 0.28E-01 mag=     -0.032
       N       E                     dE             d eps       ncg     rms          rms(c)
DAV:   1    -0.328891329355E+02   -0.12304E-01   -0.16207E-02  2496   0.116E+00    0.280E-02
RMM:   2    -0.328902639194E+02   -0.11310E-02   -0.50195E-03  1577   0.310E-01
   1365 T=   962. E= -.27609666E+02 F= -.32890264E+02 E0= -.32860047E+02  EK= 0.32345E+01 SP= 0.20E+01 SK= 0.43E-01 mag=      0.028
       N       E                     dE             d eps       ncg     rms          rms(c)
DAV:   1    -0.328978119050E+02   -0.86790E-02   -0.19315E-02  2776   0.120E+00    0.435E-02
RMM:   2    -0.328991586591E+02   -0.13468E-02   -0.53984E-03  1595   0.306E-01
   1366 T=   938. E= -.27603926E+02 F= -.32899159E+02 E0= -.32868764E+02  EK= 0.31516E+01 SP= 0.21E+01 SK= 0.58E-01 mag=      0.059
       N       E                     dE             d eps       ncg     rms          rms(c)
DAV:   1    -0.329050673280E+02   -0.72554E-02   -0.17495E-02  2808   0.117E+00    0.351E-02
RMM:   2    -0.329061728450E+02   -0.11055E-02   -0.53733E-03  1605   0.324E-01
   1367 T=   909. E= -.27598382E+02 F= -.32906173E+02 E0= -.32875501E+02  EK= 0.30562E+01 SP= 0.22E+01 SK= 0.73E-01 mag=      0.038
       N       E                     dE             d eps       ncg     rms          rms(c)
DAV:   1    -0.329100852796E+02   -0.50180E-02   -0.17605E-02  2712   0.113E+00    0.336E-02
RMM:   2    -0.329111110427E+02   -0.10258E-02   -0.45957E-03  1552   0.293E-01
   1368 T=   878. E= -.27592748E+02 F= -.32911111E+02 E0= -.32880210E+02  EK= 0.29521E+01 SP= 0.23E+01 SK= 0.85E-01 mag=     -0.017
       N       E                     dE             d eps       ncg     rms          rms(c)
DAV:   1    -0.329133937269E+02   -0.33084E-02   -0.14100E-02  2648   0.113E+00    0.423E-02
RMM:   2    -0.329145736018E+02   -0.11799E-02   -0.50802E-03  1572   0.293E-01
   1369 T=   846. E= -.27587009E+02 F= -.32914574E+02 E0= -.32883484E+02  EK= 0.28438E+01 SP= 0.24E+01 SK= 0.93E-01 mag=     -0.063
       N       E                     dE             d eps       ncg     rms          rms(c)
DAV:   1    -0.329164493829E+02   -0.30557E-02   -0.14963E-02  2784   0.109E+00    0.384E-02
RMM:   2    -0.329174628785E+02   -0.10135E-02   -0.44529E-03  1572   0.286E-01
   1370 T=   814. E= -.27582032E+02 F= -.32917463E+02 E0= -.32886148E+02  EK= 0.27345E+01 SP= 0.25E+01 SK= 0.97E-01 mag=     -0.047
       N       E                     dE             d eps       ncg     rms          rms(c)
DAV:   1    -0.329191902212E+02   -0.27408E-02   -0.14945E-02  2504   0.108E+00    0.325E-02
RMM:   2    -0.329200512267E+02   -0.86101E-03   -0.42898E-03  1553   0.293E-01
   1371 T=   782. E= -.27577198E+02 F= -.32920051E+02 E0= -.32888495E+02  EK= 0.26281E+01 SP= 0.26E+01 SK= 0.97E-01 mag=      0.015
       N       E                     dE             d eps       ncg     rms          rms(c)
DAV:   1    -0.329209785750E+02   -0.17884E-02   -0.15555E-02  2744   0.104E+00    0.520E-02
RMM:   2    -0.329221350840E+02   -0.11565E-02   -0.45500E-03  1558   0.275E-01
   1372 T=   752. E= -.27571168E+02 F= -.32922135E+02 E0= -.32890411E+02  EK= 0.25282E+01 SP= 0.27E+01 SK= 0.92E-01 mag=      0.049
       N       E                     dE             d eps       ncg     rms          rms(c)
DAV:   1    -0.329248872222E+02   -0.39086E-02   -0.14435E-02  2600   0.105E+00    0.355E-02
RMM:   2    -0.329256435064E+02   -0.75628E-03   -0.40501E-03  1544   0.285E-01
   1373 T=   725. E= -.27565770E+02 F= -.32925644E+02 E0= -.32893652E+02  EK= 0.24368E+01 SP= 0.28E+01 SK= 0.84E-01 mag=      0.036
       N       E                     dE             d eps       ncg     rms          rms(c)
DAV:   1    -0.329283103958E+02   -0.34232E-02   -0.15220E-02  2592   0.991E-01    0.401E-02
RMM:   2    -0.329291209325E+02   -0.81054E-03   -0.41612E-03  1539   0.275E-01
   1374 T=   701. E= -.27559779E+02 F= -.32929121E+02 E0= -.32896904E+02  EK= 0.23549E+01 SP= 0.29E+01 SK= 0.73E-01 mag=     -0.009
       N       E                     dE             d eps       ncg     rms          rms(c)
DAV:   1    -0.329324515090E+02   -0.41411E-02   -0.10013E-02  2272   0.994E-01    0.465E-02
RMM:   2    -0.329334070798E+02   -0.95557E-03   -0.45936E-03  1561   0.279E-01
   1375 T=   679. E= -.27554035E+02 F= -.32933407E+02 E0= -.32900989E+02  EK= 0.22836E+01 SP= 0.30E+01 SK= 0.60E-01 mag=     -0.048
       N       E                     dE             d eps       ncg     rms          rms(c)
DAV:   1    -0.329384687811E+02   -0.60173E-02   -0.96218E-03  2472   0.100E+00    0.413E-02
RMM:   2    -0.329392419969E+02   -0.77322E-03   -0.37808E-03  1527   0.274E-01
   1376 T=   662. E= -.27548572E+02 F= -.32939242E+02 E0= -.32906571E+02  EK= 0.22242E+01 SP= 0.31E+01 SK= 0.46E-01 mag=     -0.044
       N       E                     dE             d eps       ncg     rms          rms(c)
DAV:   1    -0.329453242843E+02   -0.68555E-02   -0.10507E-02  2416   0.100E+00    0.399E-02
RMM:   2    -0.329459997525E+02   -0.67547E-03   -0.39033E-03  1526   0.286E-01
   1377 T=   648. E= -.27542564E+02 F= -.32946000E+02 E0= -.32913022E+02  EK= 0.21774E+01 SP= 0.32E+01 SK= 0.33E-01 mag=     -0.002
       N       E                     dE             d eps       ncg     rms          rms(c)
DAV:   1    -0.329521854136E+02   -0.68611E-02   -0.11155E-02  2440   0.954E-01    0.572E-02
RMM:   2    -0.329531659121E+02   -0.98050E-03   -0.39747E-03  1517   0.270E-01
   1378 T=   638. E= -.27536009E+02 F= -.32953166E+02 E0= -.32919943E+02  EK= 0.21427E+01 SP= 0.33E+01 SK= 0.21E-01 mag=      0.036
       N       E                     dE             d eps       ncg     rms          rms(c)
DAV:   1    -0.329612265594E+02   -0.90411E-02   -0.98498E-03  2400   0.988E-01    0.442E-02
RMM:   2    -0.329619253657E+02   -0.69881E-03   -0.38203E-03  1527   0.273E-01
   1379 T=   631. E= -.27530384E+02 F= -.32961925E+02 E0= -.32928364E+02  EK= 0.21201E+01 SP= 0.33E+01 SK= 0.12E-01 mag=      0.047
       N       E                     dE             d eps       ncg     rms          rms(c)
DAV:   1    -0.329700507303E+02   -0.88242E-02   -0.11375E-02  2392   0.958E-01    0.481E-02
RMM:   2    -0.329707744850E+02   -0.72375E-03   -0.39369E-03  1520   0.272E-01
   1380 T=   628. E= -.27524612E+02 F= -.32970774E+02 E0= -.32936834E+02  EK= 0.21090E+01 SP= 0.33E+01 SK= 0.49E-02 mag=      0.022
       N       E                     dE             d eps       ncg     rms          rms(c)
DAV:   1    -0.329787251459E+02   -0.86744E-02   -0.91196E-03  2232   0.978E-01    0.483E-02
RMM:   2    -0.329795774275E+02   -0.85228E-03   -0.41886E-03  1532   0.278E-01
   1381 T=   628. E= -.27518404E+02 F= -.32979577E+02 E0= -.32945253E+02  EK= 0.21097E+01 SP= 0.34E+01 SK= 0.94E-03 mag=     -0.023
       N       E                     dE             d eps       ncg     rms          rms(c)
DAV:   1    -0.329875245132E+02   -0.87994E-02   -0.96955E-03  2320   0.973E-01    0.568E-02
RMM:   2    -0.329883809142E+02   -0.85640E-03   -0.39116E-03  1519   0.275E-01
   1382 T=   631. E= -.27512100E+02 F= -.32988381E+02 E0= -.32953656E+02  EK= 0.21216E+01 SP= 0.34E+01 SK= 0.67E-04 mag=     -0.049
       N       E                     dE             d eps       ncg     rms          rms(c)
DAV:   1    -0.329963508053E+02   -0.88263E-02   -0.10687E-02  2336   0.996E-01    0.507E-02
RMM:   2    -0.329970841977E+02   -0.73339E-03   -0.42688E-03  1527   0.286E-01
   1383 T=   638. E= -.27506362E+02 F= -.32997084E+02 E0= -.32961812E+02  EK= 0.21440E+01 SP= 0.33E+01 SK= 0.21E-02 mag=     -0.040
       N       E                     dE             d eps       ncg     rms          rms(c)
DAV:   1    -0.330033250058E+02   -0.69742E-02   -0.12920E-02  2456   0.973E-01    0.664E-02
RMM:   2    -0.330043147812E+02   -0.98978E-03   -0.43846E-03  1520   0.277E-01
   1384 T=   648. E= -.27500326E+02 F= -.33004315E+02 E0= -.32968503E+02  EK= 0.21762E+01 SP= 0.33E+01 SK= 0.67E-02 mag=      0.000
       N       E                     dE             d eps       ncg     rms          rms(c)
DAV:   1    -0.330095972750E+02   -0.62723E-02   -0.10483E-02  2232   0.100E+00    0.567E-02
RMM:   2    -0.330105399058E+02   -0.94263E-03   -0.42582E-03  1517   0.284E-01
   1385 T=   660. E= -.27494961E+02 F= -.33010540E+02 E0= -.32974141E+02  EK= 0.22173E+01 SP= 0.33E+01 SK= 0.13E-01 mag=      0.048
       N       E                     dE             d eps       ncg     rms          rms(c)
DAV:   1    -0.330139081615E+02   -0.43109E-02   -0.10947E-02  2312   0.101E+00    0.600E-02
RMM:   2    -0.330148096857E+02   -0.90152E-03   -0.44125E-03  1520   0.290E-01
   1386 T=   675. E= -.27489246E+02 F= -.33014810E+02 E0= -.32977726E+02  EK= 0.22671E+01 SP= 0.32E+01 SK= 0.21E-01 mag=      0.065
       N       E                     dE             d eps       ncg     rms          rms(c)
DAV:   1    -0.330155321861E+02   -0.16240E-02   -0.12701E-02  2392   0.106E+00    0.629E-02
RMM:   2    -0.330166138233E+02   -0.10816E-02   -0.58781E-03  1587   0.318E-01
   1387 T=   692. E= -.27482792E+02 F= -.33016614E+02 E0= -.32978752E+02  EK= 0.23251E+01 SP= 0.32E+01 SK= 0.29E-01 mag=      0.036
       N       E                     dE             d eps       ncg     rms          rms(c)
DAV:   1    -0.330143038723E+02    0.12283E-02   -0.15258E-02  2472   0.105E+00    0.726E-02
RMM:   2    -0.330156294682E+02   -0.13256E-02   -0.52629E-03  1535   0.310E-01
   1388 T=   711. E= -.27476023E+02 F= -.33015629E+02 E0= -.32977006E+02  EK= 0.23897E+01 SP= 0.31E+01 SK= 0.38E-01 mag=     -0.025
       N       E                     dE             d eps       ncg     rms          rms(c)
DAV:   1    -0.330113250627E+02    0.29788E-02   -0.13844E-02  2320   0.110E+00    0.646E-02
RMM:   2    -0.330124399533E+02   -0.11149E-02   -0.52086E-03  1541   0.321E-01
   1389 T=   732. E= -.27470065E+02 F= -.33012440E+02 E0= -.32972885E+02  EK= 0.24597E+01 SP= 0.30E+01 SK= 0.45E-01 mag=     -0.083
       N       E                     dE             d eps       ncg     rms          rms(c)
DAV:   1    -0.330045009235E+02    0.68241E-02   -0.17181E-02  2536   0.107E+00    0.689E-02
RMM:   2    -0.330057775920E+02   -0.12767E-02   -0.54988E-03  1532   0.309E-01
   1390 T=   754. E= -.27464253E+02 F= -.33005778E+02 E0= -.32965244E+02  EK= 0.25333E+01 SP= 0.30E+01 SK= 0.51E-01 mag=     -0.086
       N       E                     dE             d eps       ncg     rms          rms(c)
DAV:   1    -0.329946763144E+02    0.98246E-02   -0.16168E-02  2536   0.112E+00    0.780E-02
RMM:   2    -0.329961041958E+02   -0.14279E-02   -0.58443E-03  1544   0.328E-01    0.524E-02
RMM:   3    -0.329965948594E+02   -0.49066E-03   -0.16053E-03  1495   0.125E-01
   1391 T=   776. E= -.27460402E+02 F= -.32996595E+02 E0= -.32954998E+02  EK= 0.26082E+01 SP= 0.29E+01 SK= 0.54E-01 mag=     -0.010
       N       E                     dE             d eps       ncg     rms          rms(c)
DAV:   1    -0.329823046855E+02    0.13800E-01   -0.19141E-02  2408   0.106E+00    0.775E-02
RMM:   2    -0.329834429358E+02   -0.11383E-02   -0.42108E-03  1437   0.266E-01
   1392 T=   799. E= -.27454288E+02 F= -.32983443E+02 E0= -.32940742E+02  EK= 0.26858E+01 SP= 0.28E+01 SK= 0.56E-01 mag=      0.104
       N       E                     dE             d eps       ncg     rms          rms(c)
DAV:   1    -0.329638304911E+02    0.18474E-01   -0.24514E-02  2920   0.119E+00    0.959E-02
RMM:   2    -0.329658002630E+02   -0.19698E-02   -0.49710E-03  1539   0.254E-01    0.680E-02
RMM:   3    -0.329671854891E+02   -0.13852E-02   -0.22831E-03  1400   0.118E-01    0.396E-02
RMM:   4    -0.329676853976E+02   -0.49991E-03   -0.10756E-03  1378   0.756E-02
   1393 T=   822. E= -.27450437E+02 F= -.32967685E+02 E0= -.32923747E+02  EK= 0.27610E+01 SP= 0.27E+01 SK= 0.55E-01 mag=      0.053
       N       E                     dE             d eps       ncg     rms          rms(c)
DAV:   1    -0.329441335113E+02    0.23052E-01   -0.18200E-02  2304   0.104E+00    0.112E-01
RMM:   2    -0.329464650079E+02   -0.23315E-02   -0.65153E-03  1424   0.275E-01    0.787E-02
RMM:   3    -0.329479743314E+02   -0.15093E-02   -0.29560E-03  1400   0.118E-01    0.474E-02
RMM:   4    -0.329485721594E+02   -0.59783E-03   -0.12807E-03  1387   0.837E-02
   1394 T=   842. E= -.27449071E+02 F= -.32948572E+02 E0= -.32903442E+02  EK= 0.28308E+01 SP= 0.26E+01 SK= 0.51E-01 mag=     -0.053
       N       E                     dE             d eps       ncg     rms          rms(c)
DAV:   1    -0.329260124797E+02    0.21962E-01   -0.13915E-02  2800   0.114E+00    0.614E-02
RMM:   2    -0.329266712677E+02   -0.65879E-03   -0.30252E-03  1514   0.234E-01
   1395 T=   863. E= -.27445172E+02 F= -.32926671E+02 E0= -.32880409E+02  EK= 0.28988E+01 SP= 0.25E+01 SK= 0.46E-01 mag=     -0.121
       N       E                     dE             d eps       ncg     rms          rms(c)
DAV:   1    -0.329017680298E+02    0.24244E-01   -0.15773E-02  2704   0.111E+00    0.439E-02
RMM:   2    -0.329026768692E+02   -0.90884E-03   -0.46163E-03  1549   0.278E-01
   1396 T=   881. E= -.27441620E+02 F= -.32902677E+02 E0= -.32855154E+02  EK= 0.29606E+01 SP= 0.25E+01 SK= 0.39E-01 mag=     -0.102
       N       E                     dE             d eps       ncg     rms          rms(c)
DAV:   1    -0.328765519517E+02    0.25216E-01   -0.14250E-02  2456   0.117E+00    0.433E-02
RMM:   2    -0.328774517746E+02   -0.89982E-03   -0.43232E-03  1556   0.284E-01
   1397 T=   897. E= -.27437776E+02 F= -.32877452E+02 E0= -.32828688E+02  EK= 0.30157E+01 SP= 0.24E+01 SK= 0.32E-01 mag=      0.009
       N       E                     dE             d eps       ncg     rms          rms(c)
DAV:   1    -0.328502987839E+02    0.26253E-01   -0.16963E-02  2544   0.117E+00    0.410E-02
RMM:   2    -0.328512118830E+02   -0.91310E-03   -0.50008E-03  1561   0.315E-01
   1398 T=   912. E= -.27432254E+02 F= -.32851212E+02 E0= -.32801427E+02  EK= 0.30636E+01 SP= 0.23E+01 SK= 0.24E-01 mag=      0.159
       N       E                     dE             d eps       ncg     rms          rms(c)
DAV:   1    -0.328232876626E+02    0.27011E-01   -0.15865E-02  2464   0.116E+00    0.579E-02
RMM:   2    -0.328244988326E+02   -0.12112E-02   -0.48990E-03  1544   0.313E-01
   1399 T=   923. E= -.27426424E+02 F= -.32824499E+02 E0= -.32773881E+02  EK= 0.31018E+01 SP= 0.23E+01 SK= 0.16E-01 mag=      0.239
       N       E                     dE             d eps       ncg     rms          rms(c)
DAV:   1    -0.327981410466E+02    0.25147E-01   -0.18483E-02  2808   0.120E+00    0.488E-02
RMM:   2    -0.327991875190E+02   -0.10465E-02   -0.48404E-03  1559   0.305E-01
   1400 T=   931. E= -.27421188E+02 F= -.32799188E+02 E0= -.32747419E+02  EK= 0.31296E+01 SP= 0.22E+01 SK= 0.97E-02 mag=      0.181
       N       E                     dE             d eps       ncg     rms          rms(c)
DAV:   1    -0.327744395876E+02    0.23701E-01   -0.15969E-02  2648   0.118E+00    0.352E-02
RMM:   2    -0.327753343541E+02   -0.89477E-03   -0.51944E-03  1584   0.321E-01
   1401 T=   936. E= -.27416210E+02 F= -.32775334E+02 E0= -.32722502E+02  EK= 0.31462E+01 SP= 0.22E+01 SK= 0.46E-02 mag=     -0.016
       N       E                     dE             d eps       ncg     rms          rms(c)
DAV:   1    -0.327516423689E+02    0.22797E-01   -0.19360E-02  2640   0.118E+00    0.537E-02
RMM:   2    -0.327529196183E+02   -0.12772E-02   -0.54551E-03  1558   0.311E-01
   1402 T=   938. E= -.27410562E+02 F= -.32752920E+02 E0= -.32699782E+02  EK= 0.31519E+01 SP= 0.22E+01 SK= 0.14E-02 mag=     -0.259
       N       E                     dE             d eps       ncg     rms          rms(c)
DAV:   1    -0.327318746136E+02    0.19768E-01   -0.17877E-02  2752   0.118E+00    0.706E-02
RMM:   2    -0.327335178798E+02   -0.16433E-02   -0.59706E-03  1587   0.323E-01    0.542E-02
RMM:   3    -0.327344969792E+02   -0.97910E-03   -0.21961E-03  1452   0.130E-01
   1403 T=   936. E= -.27407067E+02 F= -.32734497E+02 E0= -.32680879E+02  EK= 0.31460E+01 SP= 0.22E+01 SK= 0.33E-04 mag=     -0.201
       N       E                     dE             d eps       ncg     rms          rms(c)
DAV:   1    -0.327177288728E+02    0.15789E-01   -0.21215E-02  2376   0.115E+00    0.693E-02
RMM:   2    -0.327191274336E+02   -0.13986E-02   -0.41059E-03  1501   0.290E-01    0.497E-02
RMM:   3    -0.327196414007E+02   -0.51397E-03   -0.12458E-03  1351   0.108E-01
   1404 T=   932. E= -.27402495E+02 F= -.32719641E+02 E0= -.32665150E+02  EK= 0.31316E+01 SP= 0.22E+01 SK= 0.61E-03 mag=      0.061
       N       E                     dE             d eps       ncg     rms          rms(c)
DAV:   1    -0.327064763845E+02    0.12651E-01   -0.25330E-02  2944   0.114E+00    0.640E-02
RMM:   2    -0.327075380760E+02   -0.10617E-02   -0.38479E-03  1512   0.245E-01
   1405 T=   925. E= -.27396234E+02 F= -.32707538E+02 E0= -.32653675E+02  EK= 0.31090E+01 SP= 0.22E+01 SK= 0.29E-02 mag=      0.372
       N       E                     dE             d eps       ncg     rms          rms(c)
DAV:   1    -0.326980667428E+02    0.84096E-02   -0.19690E-02  2928   0.116E+00    0.768E-02
RMM:   2    -0.326995820943E+02   -0.15154E-02   -0.43536E-03  1555   0.259E-01    0.606E-02
RMM:   3    -0.327003965393E+02   -0.81445E-03   -0.12765E-03  1450   0.110E-01
   1406 T=   915. E= -.27393567E+02 F= -.32700397E+02 E0= -.32646689E+02  EK= 0.30760E+01 SP= 0.22E+01 SK= 0.66E-02 mag=      0.220
       N       E                     dE             d eps       ncg     rms          rms(c)
DAV:   1    -0.326974805511E+02    0.21015E-02   -0.20408E-02  2624   0.113E+00    0.696E-02
RMM:   2    -0.326985294939E+02   -0.10489E-02   -0.36315E-03  1526   0.280E-01
   1407 T=   905. E= -.27388777E+02 F= -.32698529E+02 E0= -.32644043E+02  EK= 0.30398E+01 SP= 0.23E+01 SK= 0.11E-01 mag=     -0.288
       N       E                     dE             d eps       ncg     rms          rms(c)
DAV:   1    -0.326930760203E+02    0.44045E-02   -0.33388E-02  3088   0.123E+00    0.120E-01
RMM:   2    -0.326960512554E+02   -0.29752E-02   -0.62323E-03  1535   0.272E-01    0.961E-02
RMM:   3    -0.326985505335E+02   -0.24993E-02   -0.26192E-03  1440   0.123E-01    0.721E-02
RMM:   4    -0.327002234864E+02   -0.16730E-02   -0.16599E-03  1400   0.917E-02    0.439E-02
RMM:   5    -0.327012094224E+02   -0.98594E-03   -0.20993E-03  1432   0.842E-02
   1408 T=   892. E= -.27384317E+02 F= -.32701209E+02 E0= -.32646409E+02  EK= 0.29987E+01 SP= 0.23E+01 SK= 0.17E-01 mag=     -0.066
       N       E                     dE             d eps       ncg     rms          rms(c)
DAV:   1    -0.327012910076E+02   -0.10675E-02   -0.15980E-02  2536   0.107E+00    0.115E-01
RMM:   2    -0.327037040785E+02   -0.24131E-02   -0.49532E-03  1500   0.264E-01    0.863E-02
RMM:   3    -0.327053470270E+02   -0.16429E-02   -0.20427E-03  1400   0.108E-01    0.644E-02
RMM:   4    -0.327064398113E+02   -0.10928E-02   -0.10423E-03  1368   0.751E-02
   1409 T=   878. E= -.27381852E+02 F= -.32706440E+02 E0= -.32652643E+02  EK= 0.29503E+01 SP= 0.24E+01 SK= 0.22E-01 mag=      0.209
       N       E                     dE             d eps       ncg     rms          rms(c)
DAV:   1    -0.327146485333E+02   -0.93015E-02   -0.27552E-02  2968   0.118E+00    0.814E-02
RMM:   2    -0.327160589249E+02   -0.14104E-02   -0.45571E-03  1514   0.251E-01    0.577E-02
RMM:   3    -0.327169973316E+02   -0.93841E-03   -0.18439E-03  1392   0.112E-01
   1410 T=   863. E= -.27379558E+02 F= -.32716997E+02 E0= -.32663317E+02  EK= 0.29010E+01 SP= 0.24E+01 SK= 0.27E-01 mag=      0.276
       N       E                     dE             d eps       ncg     rms          rms(c)
DAV:   1    -0.327312544856E+02   -0.15196E-01   -0.18791E-02  2552   0.106E+00    0.447E-02
RMM:   2    -0.327319513964E+02   -0.69691E-03   -0.36548E-03  1537   0.276E-01
   1411 T=   849. E= -.27375901E+02 F= -.32731951E+02 E0= -.32677975E+02  EK= 0.28529E+01 SP= 0.25E+01 SK= 0.31E-01 mag=      0.088
       N       E                     dE             d eps       ncg     rms          rms(c)
DAV:   1    -0.327481545385E+02   -0.16900E-01   -0.18195E-02  2968   0.116E+00    0.456E-02
RMM:   2    -0.327489617320E+02   -0.80719E-03   -0.41285E-03  1554   0.244E-01
   1412 T=   834. E= -.27371786E+02 F= -.32748962E+02 E0= -.32695709E+02  EK= 0.28041E+01 SP= 0.25E+01 SK= 0.35E-01 mag=     -0.255
       N       E                     dE             d eps       ncg     rms          rms(c)
DAV:   1    -0.327662250278E+02   -0.18070E-01   -0.97698E-03  2104   0.107E+00    0.761E-02
RMM:   2    -0.327677748495E+02   -0.15498E-02   -0.42489E-03  1527   0.284E-01    0.633E-02
RMM:   3    -0.327688352226E+02   -0.10604E-02   -0.16148E-03  1440   0.116E-01
   1413 T=   820. E= -.27368288E+02 F= -.32768835E+02 E0= -.32716827E+02  EK= 0.27559E+01 SP= 0.26E+01 SK= 0.37E-01 mag=     -0.279
       N       E                     dE             d eps       ncg     rms          rms(c)
DAV:   1    -0.327931827122E+02   -0.25408E-01   -0.18165E-02  2744   0.109E+00    0.327E-02
RMM:   2    -0.327937355851E+02   -0.55287E-03   -0.27775E-03  1497   0.256E-01
   1414 T=   807. E= -.27363958E+02 F= -.32793736E+02 E0= -.32740954E+02  EK= 0.27129E+01 SP= 0.27E+01 SK= 0.38E-01 mag=      0.008
       N       E                     dE             d eps       ncg     rms          rms(c)
DAV:   1    -0.328170954481E+02   -0.23913E-01   -0.18255E-02  3056   0.113E+00    0.646E-02
RMM:   2    -0.328181728150E+02   -0.10774E-02   -0.39110E-03  1532   0.233E-01
   1415 T=   795. E= -.27358836E+02 F= -.32818173E+02 E0= -.32766988E+02  EK= 0.26709E+01 SP= 0.28E+01 SK= 0.38E-01 mag=      0.372
       N       E                     dE             d eps       ncg     rms          rms(c)
DAV:   1    -0.328431216501E+02   -0.26026E-01   -0.10466E-02  2136   0.102E+00    0.888E-02
RMM:   2    -0.328447224178E+02   -0.16008E-02   -0.51898E-03  1547   0.296E-01    0.670E-02
RMM:   3    -0.328461308734E+02   -0.14085E-02   -0.22877E-03  1400   0.131E-01    0.541E-02
RMM:   4    -0.328474138784E+02   -0.12830E-02   -0.23123E-03  1433   0.106E-01
   1416 T=   783. E= -.27358602E+02 F= -.32847414E+02 E0= -.32795693E+02  EK= 0.26302E+01 SP= 0.28E+01 SK= 0.37E-01 mag=      0.108
       N       E                     dE             d eps       ncg     rms          rms(c)
DAV:   1    -0.328736078129E+02   -0.27477E-01   -0.15471E-02  2880   0.112E+00    0.926E-02
RMM:   2    -0.328749657878E+02   -0.13580E-02   -0.35312E-03  1523   0.236E-01    0.674E-02
RMM:   3    -0.328761212489E+02   -0.11555E-02   -0.14700E-03  1398   0.966E-02
   1417 T=   772. E= -.27354285E+02 F= -.32876121E+02 E0= -.32825854E+02  EK= 0.25955E+01 SP= 0.29E+01 SK= 0.35E-01 mag=     -0.377
       N       E                     dE             d eps       ncg     rms          rms(c)
DAV:   1    -0.329011272973E+02   -0.26162E-01   -0.18591E-02  2672   0.102E+00    0.118E-01
RMM:   2    -0.329038080085E+02   -0.26807E-02   -0.48774E-03  1460   0.275E-01    0.953E-02
RMM:   3    -0.329068303981E+02   -0.30224E-02   -0.31618E-03  1400   0.138E-01    0.620E-02
RMM:   4    -0.329085342115E+02   -0.17038E-02   -0.28236E-03  1405   0.119E-01    0.249E-02
RMM:   5    -0.329087695751E+02   -0.23536E-03   -0.53694E-04  1257   0.642E-02
   1418 T=   763. E= -.27353083E+02 F= -.32908770E+02 E0= -.32857720E+02  EK= 0.25647E+01 SP= 0.30E+01 SK= 0.33E-01 mag=     -0.037
       N       E                     dE             d eps       ncg     rms          rms(c)
DAV:   1    -0.329331040953E+02   -0.24570E-01   -0.10712E-02  2168   0.104E+00    0.123E-01
RMM:   2    -0.329357711902E+02   -0.26671E-02   -0.51904E-03  1426   0.225E-01    0.983E-02
RMM:   3    -0.329382888737E+02   -0.25177E-02   -0.21975E-03  1399   0.115E-01    0.732E-02
RMM:   4    -0.329398879140E+02   -0.15990E-02   -0.12726E-03  1387   0.835E-02    0.486E-02
RMM:   5    -0.329411779532E+02   -0.12900E-02   -0.27610E-03  1468   0.923E-02
   1419 T=   755. E= -.27351710E+02 F= -.32941178E+02 E0= -.32890546E+02  EK= 0.25375E+01 SP= 0.30E+01 SK= 0.29E-01 mag=      0.040
       N       E                     dE             d eps       ncg     rms          rms(c)
DAV:   1    -0.329738675553E+02   -0.33980E-01   -0.10727E-02  2640   0.101E+00    0.333E-02
RMM:   2    -0.329744462718E+02   -0.57872E-03   -0.28309E-03  1522   0.244E-01
   1420 T=   749. E= -.27347772E+02 F= -.32974446E+02 E0= -.32924247E+02  EK= 0.25177E+01 SP= 0.31E+01 SK= 0.26E-01 mag=     -0.092
       N       E                     dE             d eps       ncg     rms          rms(c)
DAV:   1    -0.330069158947E+02   -0.33048E-01   -0.14384E-02  2992   0.106E+00    0.486E-02
RMM:   2    -0.330078195287E+02   -0.90363E-03   -0.39104E-03  1527   0.244E-01
   1421 T=   745. E= -.27343880E+02 F= -.33007820E+02 E0= -.32958541E+02  EK= 0.25024E+01 SP= 0.31E+01 SK= 0.22E-01 mag=     -0.276
       N       E                     dE             d eps       ncg     rms          rms(c)
DAV:   1    -0.330410536442E+02   -0.34138E-01   -0.82538E-03  1984   0.101E+00    0.591E-02
RMM:   2    -0.330420496827E+02   -0.99604E-03   -0.47586E-03  1543   0.288E-01
   1422 T=   741. E= -.27340489E+02 F= -.33042050E+02 E0= -.32993475E+02  EK= 0.24919E+01 SP= 0.32E+01 SK= 0.18E-01 mag=     -0.352
       N       E                     dE             d eps       ncg     rms          rms(c)
DAV:   1    -0.330771913568E+02   -0.36138E-01   -0.19125E-02  2832   0.114E+00    0.401E-02
RMM:   2    -0.330779948173E+02   -0.80346E-03   -0.38207E-03  1515   0.253E-01
   1423 T=   740. E= -.27337009E+02 F= -.33077995E+02 E0= -.33029230E+02  EK= 0.24879E+01 SP= 0.32E+01 SK= 0.15E-01 mag=     -0.240
       N       E                     dE             d eps       ncg     rms          rms(c)
DAV:   1    -0.331133518836E+02   -0.36161E-01   -0.96190E-03  2136   0.967E-01    0.241E-02
RMM:   2    -0.331140431794E+02   -0.69130E-03   -0.46196E-03  1547   0.297E-01
   1424 T=   741. E= -.27332956E+02 F= -.33114043E+02 E0= -.33065111E+02  EK= 0.24891E+01 SP= 0.33E+01 SK= 0.12E-01 mag=      0.041
       N       E                     dE             d eps       ncg     rms          rms(c)
DAV:   1    -0.331473824415E+02   -0.34031E-01   -0.13174E-02  2680   0.106E+00    0.536E-02
RMM:   2    -0.331484185443E+02   -0.10361E-02   -0.46334E-03  1544   0.268E-01
   1425 T=   742. E= -.27327178E+02 F= -.33148419E+02 E0= -.33100603E+02  EK= 0.24949E+01 SP= 0.33E+01 SK= 0.90E-02 mag=      0.328
       N       E                     dE             d eps       ncg     rms          rms(c)
DAV:   1    -0.331817497572E+02   -0.34367E-01   -0.12350E-02  2480   0.102E+00    0.735E-02
RMM:   2    -0.331830879088E+02   -0.13382E-02   -0.44735E-03  1533   0.289E-01
   1426 T=   745. E= -.27322337E+02 F= -.33183088E+02 E0= -.33136129E+02  EK= 0.25045E+01 SP= 0.33E+01 SK= 0.68E-02 mag=      0.434
       N       E                     dE             d eps       ncg     rms          rms(c)
DAV:   1    -0.332188508876E+02   -0.37101E-01   -0.12965E-02  2424   0.105E+00    0.476E-02
RMM:   2    -0.332198079598E+02   -0.95707E-03   -0.46466E-03  1546   0.289E-01
   1427 T=   749. E= -.27319235E+02 F= -.33219808E+02 E0= -.33172125E+02  EK= 0.25184E+01 SP= 0.34E+01 SK= 0.49E-02 mag=      0.250
       N       E                     dE             d eps       ncg     rms          rms(c)
DAV:   1    -0.332545381291E+02   -0.35687E-01   -0.11503E-02  2368   0.101E+00    0.321E-02
RMM:   2    -0.332552250821E+02   -0.68695E-03   -0.43964E-03  1536   0.284E-01
   1428 T=   755. E= -.27314958E+02 F= -.33255225E+02 E0= -.33207355E+02  EK= 0.25360E+01 SP= 0.34E+01 SK= 0.35E-02 mag=     -0.158
       N       E                     dE             d eps       ncg     rms          rms(c)
DAV:   1    -0.332845776576E+02   -0.30040E-01   -0.16219E-02  2896   0.109E+00    0.898E-02
RMM:   2    -0.332865396070E+02   -0.19619E-02   -0.53390E-03  1513   0.278E-01    0.741E-02
RMM:   3    -0.332880969016E+02   -0.15573E-02   -0.24219E-03  1415   0.121E-01    0.570E-02
RMM:   4    -0.332892872380E+02   -0.11903E-02   -0.15319E-03  1394   0.862E-02
   1429 T=   760. E= -.27311074E+02 F= -.33289287E+02 E0= -.33241927E+02  EK= 0.25553E+01 SP= 0.34E+01 SK= 0.25E-02 mag=     -0.054
       N       E                     dE             d eps       ncg     rms          rms(c)
DAV:   1    -0.333205176199E+02   -0.32421E-01   -0.15977E-02  2600   0.102E+00    0.733E-02
RMM:   2    -0.333219152976E+02   -0.13977E-02   -0.37725E-03  1493   0.243E-01    0.575E-02
RMM:   3    -0.333225797325E+02   -0.66443E-03   -0.10925E-03  1351   0.892E-02
   1430 T=   766. E= -.27308167E+02 F= -.33322580E+02 E0= -.33275578E+02  EK= 0.25758E+01 SP= 0.34E+01 SK= 0.17E-02 mag=      0.203
       N       E                     dE             d eps       ncg     rms          rms(c)
DAV:   1    -0.333530974593E+02   -0.31182E-01   -0.45239E-02  2672   0.107E+00    0.748E-02
RMM:   2    -0.333544629729E+02   -0.13655E-02   -0.47462E-03  1536   0.292E-01    0.606E-02
RMM:   3    -0.333551000429E+02   -0.63707E-03   -0.11920E-03  1498   0.111E-01
   1431 T=   773. E= -.27304958E+02 F= -.33355100E+02 E0= -.33308357E+02  EK= 0.25983E+01 SP= 0.35E+01 SK= 0.12E-02 mag=      0.207
       N       E                     dE             d eps       ncg     rms          rms(c)
DAV:   1    -0.333870658841E+02   -0.32603E-01   -0.12093E-02  2448   0.105E+00    0.397E-02
RMM:   2    -0.333876789917E+02   -0.61311E-03   -0.34894E-03  1537   0.264E-01
   1432 T=   781. E= -.27301268E+02 F= -.33387679E+02 E0= -.33340185E+02  EK= 0.26235E+01 SP= 0.35E+01 SK= 0.85E-03 mag=     -0.022
       N       E                     dE             d eps       ncg     rms          rms(c)
DAV:   1    -0.334157832599E+02   -0.28717E-01   -0.21252E-02  3008   0.112E+00    0.587E-02
RMM:   2    -0.334168094251E+02   -0.10262E-02   -0.46006E-03  1548   0.256E-01
   1433 T=   788. E= -.27295970E+02 F= -.33416809E+02 E0= -.33370093E+02  EK= 0.26483E+01 SP= 0.35E+01 SK= 0.66E-03 mag=     -0.320
       N       E                     dE             d eps       ncg     rms          rms(c)
DAV:   1    -0.334427277927E+02   -0.26945E-01   -0.92484E-03  1984   0.101E+00    0.843E-02
RMM:   2    -0.334444218942E+02   -0.16941E-02   -0.51652E-03  1539   0.291E-01    0.664E-02
RMM:   3    -0.334457265323E+02   -0.13046E-02   -0.22809E-03  1419   0.124E-01
   1434 T=   795. E= -.27293798E+02 F= -.33445727E+02 E0= -.33399211E+02  EK= 0.26706E+01 SP= 0.35E+01 SK= 0.56E-03 mag=     -0.163
       N       E                     dE             d eps       ncg     rms          rms(c)
DAV:   1    -0.334720501241E+02   -0.27628E-01   -0.21155E-02  2616   0.111E+00    0.721E-02
RMM:   2    -0.334732894096E+02   -0.12393E-02   -0.44412E-03  1490   0.286E-01
   1435 T=   802. E= -.27288177E+02 F= -.33473289E+02 E0= -.33426550E+02  EK= 0.26954E+01 SP= 0.35E+01 SK= 0.54E-03 mag=      0.312
       N       E                     dE             d eps       ncg     rms          rms(c)
DAV:   1    -0.334899327043E+02   -0.17883E-01   -0.37533E-02  2992   0.115E+00    0.137E-01
RMM:   2    -0.334936293686E+02   -0.36967E-02   -0.62244E-03  1531   0.268E-01    0.109E-01
RMM:   3    -0.334972098532E+02   -0.35805E-02   -0.37154E-03  1405   0.132E-01    0.723E-02
RMM:   4    -0.334991327811E+02   -0.19229E-02   -0.24533E-03  1400   0.102E-01    0.399E-02
RMM:   5    -0.334998327731E+02   -0.69999E-03   -0.17143E-03  1444   0.804E-02
   1436 T=   808. E= -.27284878E+02 F= -.33499833E+02 E0= -.33452508E+02  EK= 0.27167E+01 SP= 0.35E+01 SK= 0.60E-03 mag=      0.028
       N       E                     dE             d eps       ncg     rms          rms(c)
DAV:   1    -0.335147947349E+02   -0.15662E-01   -0.17495E-02  2544   0.103E+00    0.133E-01
RMM:   2    -0.335180670566E+02   -0.32723E-02   -0.59362E-03  1448   0.242E-01    0.105E-01
RMM:   3    -0.335208434846E+02   -0.27764E-02   -0.29363E-03  1400   0.103E-01    0.761E-02
RMM:   4    -0.335224245674E+02   -0.15811E-02   -0.12758E-03  1376   0.738E-02    0.498E-02
RMM:   5    -0.335235427587E+02   -0.11182E-02   -0.22081E-03  1440   0.771E-02
   1437 T=   813. E= -.27284474E+02 F= -.33523543E+02 E0= -.33476259E+02  EK= 0.27314E+01 SP= 0.35E+01 SK= 0.72E-03 mag=     -0.049
       N       E                     dE             d eps       ncg     rms          rms(c)
DAV:   1    -0.335445563177E+02   -0.22132E-01   -0.14450E-02  2688   0.107E+00    0.472E-02
RMM:   2    -0.335453202929E+02   -0.76398E-03   -0.37239E-03  1525   0.267E-01
   1438 T=   817. E= -.27280913E+02 F= -.33545320E+02 E0= -.33498069E+02  EK= 0.27462E+01 SP= 0.35E+01 SK= 0.92E-03 mag=      0.042
       N       E                     dE             d eps       ncg     rms          rms(c)
DAV:   1    -0.335640525990E+02   -0.19496E-01   -0.18597E-02  3008   0.119E+00    0.478E-02
RMM:   2    -0.335649620566E+02   -0.90946E-03   -0.43589E-03  1564   0.269E-01
   1439 T=   820. E= -.27277544E+02 F= -.33564962E+02 E0= -.33517903E+02  EK= 0.27572E+01 SP= 0.35E+01 SK= 0.12E-02 mag=      0.202
       N       E                     dE             d eps       ncg     rms          rms(c)
DAV:   1    -0.335816977108E+02   -0.17645E-01   -0.13014E-02  2456   0.103E+00    0.569E-02
RMM:   2    -0.335827206085E+02   -0.10229E-02   -0.41000E-03  1546   0.288E-01
   1440 T=   822. E= -.27274855E+02 F= -.33582721E+02 E0= -.33535911E+02  EK= 0.27639E+01 SP= 0.35E+01 SK= 0.16E-02 mag=      0.262
       N       E                     dE             d eps       ncg     rms          rms(c)
DAV:   1    -0.335987525577E+02   -0.17055E-01   -0.18200E-02  2752   0.117E+00    0.378E-02
RMM:   2    -0.335995572081E+02   -0.80465E-03   -0.41947E-03  1549   0.264E-01
   1441 T=   824. E= -.27271389E+02 F= -.33599557E+02 E0= -.33552412E+02  EK= 0.27685E+01 SP= 0.36E+01 SK= 0.20E-02 mag=      0.167
       N       E                     dE             d eps       ncg     rms          rms(c)
DAV:   1    -0.336130919896E+02   -0.14339E-01   -0.10878E-02  2328   0.104E+00    0.349E-02
RMM:   2    -0.336139520826E+02   -0.86009E-03   -0.47856E-03  1566   0.301E-01
   1442 T=   824. E= -.27266679E+02 F= -.33613952E+02 E0= -.33566594E+02  EK= 0.27698E+01 SP= 0.36E+01 SK= 0.25E-02 mag=     -0.055
       N       E                     dE             d eps       ncg     rms          rms(c)
DAV:   1    -0.336247833744E+02   -0.11691E-01   -0.14218E-02  2760   0.113E+00    0.560E-02
RMM:   2    -0.336258940164E+02   -0.11106E-02   -0.47256E-03  1550   0.278E-01
   1443 T=   823. E= -.27261258E+02 F= -.33625894E+02 E0= -.33578925E+02  EK= 0.27673E+01 SP= 0.36E+01 SK= 0.31E-02 mag=     -0.271
       N       E                     dE             d eps       ncg     rms          rms(c)
DAV:   1    -0.336351506352E+02   -0.10367E-01   -0.14140E-02  2616   0.107E+00    0.618E-02
RMM:   2    -0.336364211333E+02   -0.12705E-02   -0.47120E-03  1528   0.300E-01
   1444 T=   822. E= -.27256167E+02 F= -.33636421E+02 E0= -.33589704E+02  EK= 0.27612E+01 SP= 0.36E+01 SK= 0.37E-02 mag=     -0.305
       N       E                     dE             d eps       ncg     rms          rms(c)
DAV:   1    -0.336457892468E+02   -0.10639E-01   -0.16278E-02  2808   0.111E+00    0.412E-02
RMM:   2    -0.336466388486E+02   -0.84960E-03   -0.42569E-03  1523   0.278E-01
   1445 T=   819. E= -.27252382E+02 F= -.33646639E+02 E0= -.33599330E+02  EK= 0.27516E+01 SP= 0.36E+01 SK= 0.43E-02 mag=     -0.104
       N       E                     dE             d eps       ncg     rms          rms(c)
DAV:   1    -0.336530511293E+02   -0.72619E-02   -0.12516E-02  2560   0.104E+00    0.542E-02
RMM:   2    -0.336541252703E+02   -0.10741E-02   -0.46845E-03  1555   0.287E-01
   1446 T=   815. E= -.27247317E+02 F= -.33654125E+02 E0= -.33606912E+02  EK= 0.27391E+01 SP= 0.37E+01 SK= 0.48E-02 mag=      0.209
       N       E                     dE             d eps       ncg     rms          rms(c)
DAV:   1    -0.336577858569E+02   -0.47347E-02   -0.17495E-02  2872   0.111E+00    0.840E-02
RMM:   2    -0.336595037635E+02   -0.17179E-02   -0.49910E-03  1542   0.278E-01    0.672E-02
RMM:   3    -0.336604587734E+02   -0.95501E-03   -0.16955E-03  1469   0.114E-01
   1447 T=   810. E= -.27242770E+02 F= -.33660459E+02 E0= -.33613647E+02  EK= 0.27238E+01 SP= 0.37E+01 SK= 0.52E-02 mag=      0.141
       N       E                     dE             d eps       ncg     rms          rms(c)
DAV:   1    -0.336653022687E+02   -0.57985E-02   -0.19642E-02  2424   0.104E+00    0.649E-02
RMM:   2    -0.336665537136E+02   -0.12514E-02   -0.37229E-03  1467   0.272E-01
   1448 T=   806. E= -.27237603E+02 F= -.33666554E+02 E0= -.33619348E+02  EK= 0.27081E+01 SP= 0.37E+01 SK= 0.55E-02 mag=     -0.216
       N       E                     dE             d eps       ncg     rms          rms(c)
DAV:   1    -0.336648602144E+02    0.44205E-03   -0.37458E-02  2912   0.116E+00    0.126E-01
RMM:   2    -0.336677707984E+02   -0.29106E-02   -0.53917E-03  1540   0.260E-01    0.962E-02
RMM:   3    -0.336704613717E+02   -0.26906E-02   -0.28968E-03  1415   0.123E-01    0.641E-02
RMM:   4    -0.336716886841E+02   -0.12273E-02   -0.15477E-03  1389   0.861E-02
   1449 T=   801. E= -.27233173E+02 F= -.33671689E+02 E0= -.33624455E+02  EK= 0.26904E+01 SP= 0.37E+01 SK= 0.56E-02 mag=     -0.056
       N       E                     dE             d eps       ncg     rms          rms(c)
DAV:   1    -0.336699271433E+02    0.53423E-03   -0.19934E-02  2416   0.999E-01    0.123E-01
RMM:   2    -0.336727559090E+02   -0.28288E-02   -0.51288E-03  1425   0.258E-01    0.927E-02
RMM:   3    -0.336749013526E+02   -0.21454E-02   -0.26221E-03  1401   0.110E-01    0.558E-02
RMM:   4    -0.336758653228E+02   -0.96397E-03   -0.11336E-03  1383   0.794E-02
   1450 T=   794. E= -.27231689E+02 F= -.33675865E+02 E0= -.33628549E+02  EK= 0.26690E+01 SP= 0.38E+01 SK= 0.55E-02 mag=      0.090
       N       E                     dE             d eps       ncg     rms          rms(c)
DAV:   1    -0.336780538003E+02   -0.31524E-02   -0.30604E-02  2736   0.113E+00    0.670E-02
RMM:   2    -0.336789839702E+02   -0.93017E-03   -0.36301E-03  1529   0.251E-01
   1451 T=   788. E= -.27227951E+02 F= -.33678984E+02 E0= -.33631699E+02  EK= 0.26495E+01 SP= 0.38E+01 SK= 0.52E-02 mag=      0.146
       N       E                     dE             d eps       ncg     rms          rms(c)
DAV:   1    -0.336808270936E+02   -0.27733E-02   -0.21488E-02  2832   0.105E+00    0.568E-02
RMM:   2    -0.336818105919E+02   -0.98350E-03   -0.39951E-03  1550   0.263E-01
   1452 T=   782. E= -.27225202E+02 F= -.33681811E+02 E0= -.33634470E+02  EK= 0.26298E+01 SP= 0.38E+01 SK= 0.47E-02 mag=      0.077
       N       E                     dE             d eps       ncg     rms          rms(c)
DAV:   1    -0.336836403556E+02   -0.28133E-02   -0.11029E-02  2584   0.105E+00    0.469E-02
RMM:   2    -0.336844099734E+02   -0.76962E-03   -0.37416E-03  1534   0.270E-01
   1453 T=   777. E= -.27222933E+02 F= -.33684410E+02 E0= -.33637017E+02  EK= 0.26110E+01 SP= 0.38E+01 SK= 0.41E-02 mag=     -0.075
       N       E                     dE             d eps       ncg     rms          rms(c)
DAV:   1    -0.336851886295E+02   -0.15483E-02   -0.16151E-02  2496   0.107E+00    0.545E-02
RMM:   2    -0.336861068846E+02   -0.91826E-03   -0.41048E-03  1514   0.261E-01
   1454 T=   772. E= -.27218773E+02 F= -.33686107E+02 E0= -.33638939E+02  EK= 0.25952E+01 SP= 0.39E+01 SK= 0.34E-02 mag=     -0.223
       N       E                     dE             d eps       ncg     rms          rms(c)
DAV:   1    -0.336858685683E+02   -0.67994E-03   -0.12560E-02  2488   0.103E+00    0.661E-02
RMM:   2    -0.336871551896E+02   -0.12866E-02   -0.45264E-03  1540   0.279E-01
   1455 T=   768. E= -.27213772E+02 F= -.33687155E+02 E0= -.33640194E+02  EK= 0.25819E+01 SP= 0.39E+01 SK= 0.26E-02 mag=     -0.225
       N       E                     dE             d eps       ncg     rms          rms(c)
DAV:   1    -0.336888316876E+02   -0.29631E-02   -0.14327E-02  2760   0.106E+00    0.571E-02
RMM:   2    -0.336896245887E+02   -0.79290E-03   -0.41948E-03  1562   0.280E-01
   1456 T=   765. E= -.27209881E+02 F= -.33689625E+02 E0= -.33642372E+02  EK= 0.25716E+01 SP= 0.39E+01 SK= 0.19E-02 mag=     -0.061
       N       E                     dE             d eps       ncg     rms          rms(c)
DAV:   1    -0.336896351158E+02   -0.80343E-03   -0.15940E-02  2640   0.102E+00    0.559E-02
RMM:   2    -0.336905861681E+02   -0.95105E-03   -0.45280E-03  1539   0.288E-01
   1457 T=   763. E= -.27204756E+02 F= -.33690586E+02 E0= -.33643446E+02  EK= 0.25638E+01 SP= 0.39E+01 SK= 0.13E-02 mag=      0.191
       N       E                     dE             d eps       ncg     rms          rms(c)
DAV:   1    -0.336888525968E+02    0.78252E-03   -0.14134E-02  2424   0.104E+00    0.788E-02
RMM:   2    -0.336904568176E+02   -0.16042E-02   -0.46469E-03  1536   0.275E-01    0.619E-02
RMM:   3    -0.336914170904E+02   -0.96027E-03   -0.18487E-03  1427   0.117E-01
   1458 T=   761. E= -.27200466E+02 F= -.33691417E+02 E0= -.33644549E+02  EK= 0.25580E+01 SP= 0.39E+01 SK= 0.73E-03 mag=      0.124
       N       E                     dE             d eps       ncg     rms          rms(c)
DAV:   1    -0.336915542741E+02   -0.10975E-02   -0.19299E-02  2544   0.101E+00    0.699E-02
RMM:   2    -0.336927317541E+02   -0.11775E-02   -0.38073E-03  1509   0.272E-01
   1459 T=   761. E= -.27195170E+02 F= -.33692732E+02 E0= -.33645695E+02  EK= 0.25568E+01 SP= 0.39E+01 SK= 0.33E-03 mag=     -0.181
       N       E                     dE             d eps       ncg     rms          rms(c)
DAV:   1    -0.336884511131E+02    0.31032E-02   -0.32764E-02  2824   0.110E+00    0.106E-01
RMM:   2    -0.336907912527E+02   -0.23401E-02   -0.49403E-03  1549   0.254E-01    0.821E-02
RMM:   3    -0.336928308977E+02   -0.20396E-02   -0.24790E-03  1416   0.117E-01    0.542E-02
RMM:   4    -0.336937525006E+02   -0.92160E-03   -0.13775E-03  1386   0.832E-02
   1460 T=   761. E= -.27191138E+02 F= -.33693753E+02 E0= -.33646734E+02  EK= 0.25571E+01 SP= 0.39E+01 SK= 0.85E-04 mag=     -0.057
       N       E                     dE             d eps       ncg     rms          rms(c)
DAV:   1    -0.336896680791E+02    0.31628E-02   -0.14465E-02  2272   0.998E-01    0.108E-01
RMM:   2    -0.336918651413E+02   -0.21971E-02   -0.49612E-03  1435   0.244E-01    0.799E-02
RMM:   3    -0.336934138387E+02   -0.15487E-02   -0.23367E-03  1400   0.107E-01    0.480E-02
RMM:   4    -0.336940814332E+02   -0.66759E-03   -0.10443E-03  1374   0.724E-02
   1461 T=   761. E= -.27189818E+02 F= -.33694081E+02 E0= -.33647040E+02  EK= 0.25571E+01 SP= 0.39E+01 SK= 0.89E-07 mag=      0.100
       N       E                     dE             d eps       ncg     rms          rms(c)
DAV:   1    -0.336928804816E+02    0.53336E-03   -0.18853E-02  2912   0.107E+00    0.682E-02
RMM:   2    -0.336936896515E+02   -0.80917E-03   -0.29598E-03  1501   0.224E-01
   1462 T=   762. E= -.27186648E+02 F= -.33693690E+02 E0= -.33646763E+02  EK= 0.25613E+01 SP= 0.39E+01 SK= 0.72E-04 mag=      0.166
       N       E                     dE             d eps       ncg     rms          rms(c)
DAV:   1    -0.336926297619E+02    0.25072E-03   -0.11987E-02  2688   0.102E+00    0.463E-02
RMM:   2    -0.336934524563E+02   -0.82269E-03   -0.44050E-03  1549   0.262E-01
   1463 T=   764. E= -.27184743E+02 F= -.33693452E+02 E0= -.33646432E+02  EK= 0.25674E+01 SP= 0.39E+01 SK= 0.29E-03 mag=      0.091
       N       E                     dE             d eps       ncg     rms          rms(c)
DAV:   1    -0.336920541332E+02    0.57563E-03   -0.10620E-02  2216   0.107E+00    0.354E-02
RMM:   2    -0.336927097134E+02   -0.65558E-03   -0.36277E-03  1536   0.277E-01
   1464 T=   767. E= -.27181348E+02 F= -.33692710E+02 E0= -.33645688E+02  EK= 0.25774E+01 SP= 0.39E+01 SK= 0.61E-03 mag=     -0.082
       N       E                     dE             d eps       ncg     rms          rms(c)
DAV:   1    -0.336898303945E+02    0.22237E-02   -0.17980E-02  2928   0.108E+00    0.558E-02
RMM:   2    -0.336907983253E+02   -0.96793E-03   -0.41132E-03  1535   0.275E-01
   1465 T=   771. E= -.27176343E+02 F= -.33690798E+02 E0= -.33644073E+02  EK= 0.25905E+01 SP= 0.39E+01 SK= 0.10E-02 mag=     -0.224
       N       E                     dE             d eps       ncg     rms          rms(c)
DAV:   1    -0.336874901147E+02    0.23403E-02   -0.10244E-02  2408   0.104E+00    0.571E-02
RMM:   2    -0.336885441487E+02   -0.10540E-02   -0.44672E-03  1566   0.295E-01
   1466 T=   775. E= -.27171944E+02 F= -.33688544E+02 E0= -.33641921E+02  EK= 0.26050E+01 SP= 0.39E+01 SK= 0.14E-02 mag=     -0.209
       N       E                     dE             d eps       ncg     rms          rms(c)
DAV:   1    -0.336856730511E+02    0.18171E-02   -0.12990E-02  2768   0.107E+00    0.322E-02
RMM:   2    -0.336863739951E+02   -0.70094E-03   -0.39925E-03  1538   0.274E-01
   1467 T=   780. E= -.27167748E+02 F= -.33686374E+02 E0= -.33639516E+02  EK= 0.26215E+01 SP= 0.39E+01 SK= 0.19E-02 mag=     -0.031
       N       E                     dE             d eps       ncg     rms          rms(c)
DAV:   1    -0.336816678381E+02    0.40052E-02   -0.10303E-02  2424   0.103E+00    0.529E-02
RMM:   2    -0.336826384655E+02   -0.97063E-03   -0.43390E-03  1541   0.293E-01
   1468 T=   785. E= -.27162268E+02 F= -.33682638E+02 E0= -.33635958E+02  EK= 0.26394E+01 SP= 0.39E+01 SK= 0.22E-02 mag=      0.192
       N       E                     dE             d eps       ncg     rms          rms(c)
DAV:   1    -0.336764419435E+02    0.52259E-02   -0.16146E-02  2800   0.110E+00    0.708E-02
RMM:   2    -0.336777590188E+02   -0.13171E-02   -0.44778E-03  1540   0.279E-01
   1469 T=   791. E= -.27156465E+02 F= -.33677759E+02 E0= -.33631522E+02  EK= 0.26578E+01 SP= 0.39E+01 SK= 0.25E-02 mag=      0.305
       N       E                     dE             d eps       ncg     rms          rms(c)
DAV:   1    -0.336718155394E+02    0.46264E-02   -0.11183E-02  2664   0.105E+00    0.526E-02
RMM:   2    -0.336729973453E+02   -0.11818E-02   -0.51148E-03  1593   0.304E-01
   1470 T=   796. E= -.27152764E+02 F= -.33672997E+02 E0= -.33626640E+02  EK= 0.26751E+01 SP= 0.38E+01 SK= 0.26E-02 mag=      0.188
       N       E                     dE             d eps       ncg     rms          rms(c)
DAV:   1    -0.336662754040E+02    0.55401E-02   -0.15195E-02  2760   0.110E+00    0.453E-02
RMM:   2    -0.336671391683E+02   -0.86376E-03   -0.44676E-03  1554   0.290E-01
   1471 T=   801. E= -.27148999E+02 F= -.33667139E+02 E0= -.33620551E+02  EK= 0.26918E+01 SP= 0.38E+01 SK= 0.27E-02 mag=     -0.103
       N       E                     dE             d eps       ncg     rms          rms(c)
DAV:   1    -0.336565881434E+02    0.96873E-02   -0.14876E-02  2696   0.106E+00    0.815E-02
RMM:   2    -0.336583570544E+02   -0.17689E-02   -0.52902E-03  1537   0.301E-01    0.641E-02
RMM:   3    -0.336594892998E+02   -0.11322E-02   -0.21063E-03  1444   0.121E-01
   1472 T=   805. E= -.27145187E+02 F= -.33659489E+02 E0= -.33613342E+02  EK= 0.27068E+01 SP= 0.38E+01 SK= 0.26E-02 mag=     -0.174
       N       E                     dE             d eps       ncg     rms          rms(c)
DAV:   1    -0.336510273852E+02    0.73297E-02   -0.14143E-02  2512   0.105E+00    0.535E-02
RMM:   2    -0.336518229426E+02   -0.79556E-03   -0.31727E-03  1456   0.261E-01
   1473 T=   810. E= -.27139573E+02 F= -.33651823E+02 E0= -.33605478E+02  EK= 0.27233E+01 SP= 0.38E+01 SK= 0.24E-02 mag=     -0.022
       N       E                     dE             d eps       ncg     rms          rms(c)
DAV:   1    -0.336403715220E+02    0.10656E-01   -0.21810E-02  2960   0.117E+00    0.704E-02
RMM:   2    -0.336416468429E+02   -0.12753E-02   -0.39165E-03  1532   0.236E-01
   1474 T=   814. E= -.27133323E+02 F= -.33641647E+02 E0= -.33595531E+02  EK= 0.27371E+01 SP= 0.38E+01 SK= 0.21E-02 mag=      0.188
       N       E                     dE             d eps       ncg     rms          rms(c)
DAV:   1    -0.336297722203E+02    0.10599E-01   -0.10588E-02  2128   0.100E+00    0.706E-02
RMM:   2    -0.336309967305E+02   -0.12245E-02   -0.42168E-03  1551   0.284E-01
   1475 T=   817. E= -.27129495E+02 F= -.33630997E+02 E0= -.33585233E+02  EK= 0.27468E+01 SP= 0.38E+01 SK= 0.18E-02 mag=      0.282
       N       E                     dE             d eps       ncg     rms          rms(c)
DAV:   1    -0.336183541408E+02    0.11418E-01   -0.21737E-02  2888   0.123E+00    0.588E-02
RMM:   2    -0.336196107701E+02   -0.12566E-02   -0.48967E-03  1561   0.294E-01
   1476 T=   820. E= -.27125157E+02 F= -.33619611E+02 E0= -.33573772E+02  EK= 0.27550E+01 SP= 0.37E+01 SK= 0.15E-02 mag=      0.158
       N       E                     dE             d eps       ncg     rms          rms(c)
DAV:   1    -0.336060069807E+02    0.12347E-01   -0.12179E-02  2336   0.101E+00    0.501E-02
RMM:   2    -0.336071292891E+02   -0.11223E-02   -0.53744E-03  1566   0.329E-01
   1477 T=   822. E= -.27119777E+02 F= -.33607129E+02 E0= -.33561181E+02  EK= 0.27614E+01 SP= 0.37E+01 SK= 0.11E-02 mag=     -0.118
       N       E                     dE             d eps       ncg     rms          rms(c)
DAV:   1    -0.335904780725E+02    0.15529E-01   -0.19779E-02  2816   0.115E+00    0.794E-02
RMM:   2    -0.335922368394E+02   -0.17588E-02   -0.51416E-03  1551   0.289E-01    0.618E-02
RMM:   3    -0.335932473381E+02   -0.10105E-02   -0.18680E-03  1463   0.118E-01
   1478 T=   823. E= -.27114480E+02 F= -.33593247E+02 E0= -.33547720E+02  EK= 0.27645E+01 SP= 0.37E+01 SK= 0.82E-03 mag=     -0.141
       N       E                     dE             d eps       ncg     rms          rms(c)
DAV:   1    -0.335778664837E+02    0.14370E-01   -0.16222E-02  2376   0.104E+00    0.667E-02
RMM:   2    -0.335789135098E+02   -0.10470E-02   -0.30979E-03  1480   0.254E-01
   1479 T=   823. E= -.27109475E+02 F= -.33578914E+02 E0= -.33533291E+02  EK= 0.27650E+01 SP= 0.37E+01 SK= 0.56E-03 mag=      0.050
       N       E                     dE             d eps       ncg     rms          rms(c)
DAV:   1    -0.335600385746E+02    0.17828E-01   -0.25940E-02  2928   0.117E+00    0.874E-02
RMM:   2    -0.335620118431E+02   -0.19733E-02   -0.48323E-03  1560   0.246E-01    0.664E-02
RMM:   3    -0.335631249960E+02   -0.11132E-02   -0.16243E-03  1421   0.107E-01
   1480 T=   822. E= -.27104657E+02 F= -.33563125E+02 E0= -.33517757E+02  EK= 0.27618E+01 SP= 0.37E+01 SK= 0.34E-03 mag=      0.099
       N       E                     dE             d eps       ncg     rms          rms(c)
DAV:   1    -0.335449131280E+02    0.17099E-01   -0.22180E-02  2360   0.100E+00    0.841E-02
RMM:   2    -0.335464342701E+02   -0.15211E-02   -0.39128E-03  1451   0.254E-01    0.590E-02
RMM:   3    -0.335469476677E+02   -0.51340E-03   -0.99420E-04  1299   0.102E-01
   1481 T=   819. E= -.27102317E+02 F= -.33546948E+02 E0= -.33501571E+02  EK= 0.27540E+01 SP= 0.37E+01 SK= 0.19E-03 mag=      0.025
       N       E                     dE             d eps       ncg     rms          rms(c)
DAV:   1    -0.335289216274E+02    0.17513E-01   -0.31519E-02  2680   0.107E+00    0.572E-02
RMM:   2    -0.335298113112E+02   -0.88968E-03   -0.39881E-03  1542   0.273E-01
   1482 T=   817. E= -.27097458E+02 F= -.33529811E+02 E0= -.33484564E+02  EK= 0.27460E+01 SP= 0.37E+01 SK= 0.93E-04 mag=     -0.107
       N       E                     dE             d eps       ncg     rms          rms(c)
DAV:   1    -0.335107275043E+02    0.18194E-01   -0.21509E-02  2792   0.113E+00    0.542E-02
RMM:   2    -0.335117275351E+02   -0.10000E-02   -0.41303E-03  1568   0.262E-01
   1483 T=   814. E= -.27093720E+02 F= -.33511728E+02 E0= -.33466855E+02  EK= 0.27345E+01 SP= 0.37E+01 SK= 0.38E-04 mag=     -0.188
       N       E                     dE             d eps       ncg     rms          rms(c)
DAV:   1    -0.334927772847E+02    0.17950E-01   -0.12875E-02  2552   0.102E+00    0.498E-02
RMM:   2    -0.334937459826E+02   -0.96870E-03   -0.37174E-03  1542   0.284E-01
   1484 T=   810. E= -.27089932E+02 F= -.33493746E+02 E0= -.33448997E+02  EK= 0.27220E+01 SP= 0.37E+01 SK= 0.12E-04 mag=     -0.132
       N       E                     dE             d eps       ncg     rms          rms(c)
DAV:   1    -0.334749761516E+02    0.17801E-01   -0.15638E-02  2640   0.119E+00    0.410E-02
RMM:   2    -0.334759416606E+02   -0.96551E-03   -0.44340E-03  1560   0.282E-01
   1485 T=   806. E= -.27084921E+02 F= -.33475942E+02 E0= -.33431182E+02  EK= 0.27101E+01 SP= 0.37E+01 SK= 0.25E-05 mag=      0.038
       N       E                     dE             d eps       ncg     rms          rms(c)
DAV:   1    -0.334561857644E+02    0.18790E-01   -0.96748E-03  2424   0.102E+00    0.529E-02
RMM:   2    -0.334573347777E+02   -0.11490E-02   -0.41605E-03  1542   0.296E-01
   1486 T=   803. E= -.27078962E+02 F= -.33457335E+02 E0= -.33413013E+02  EK= 0.26978E+01 SP= 0.37E+01 SK= 0.31E-06 mag=      0.183
       N       E                     dE             d eps       ncg     rms          rms(c)
DAV:   1    -0.334384589868E+02    0.17727E-01   -0.16313E-02  2872   0.115E+00    0.540E-02
RMM:   2    -0.334395367206E+02   -0.10777E-02   -0.40763E-03  1543   0.271E-01
   1487 T=   799. E= -.27073754E+02 F= -.33439537E+02 E0= -.33395494E+02  EK= 0.26853E+01 SP= 0.37E+01 SK= 0.13E-06 mag=      0.197
       N       E                     dE             d eps       ncg     rms          rms(c)
DAV:   1    -0.334211417872E+02    0.17317E-01   -0.12079E-02  2512   0.102E+00    0.456E-02
RMM:   2    -0.334222715396E+02   -0.11298E-02   -0.45773E-03  1552   0.300E-01
   1488 T=   795. E= -.27069136E+02 F= -.33422272E+02 E0= -.33378151E+02  EK= 0.26728E+01 SP= 0.37E+01 SK= 0.10E-05 mag=      0.056
       N       E                     dE             d eps       ncg     rms          rms(c)
DAV:   1    -0.334039235418E+02    0.17218E-01   -0.13405E-02  2624   0.109E+00    0.513E-02
RMM:   2    -0.334051049375E+02   -0.11814E-02   -0.43213E-03  1535   0.274E-01
   1489 T=   792. E= -.27064150E+02 F= -.33405105E+02 E0= -.33361225E+02  EK= 0.26612E+01 SP= 0.37E+01 SK= 0.61E-05 mag=     -0.139
       N       E                     dE             d eps       ncg     rms          rms(c)
DAV:   1    -0.333871698055E+02    0.16754E-01   -0.12629E-02  2560   0.104E+00    0.636E-02
RMM:   2    -0.333884868129E+02   -0.13170E-02   -0.48123E-03  1548   0.298E-01
   1490 T=   789. E= -.27059028E+02 F= -.33388487E+02 E0= -.33345175E+02  EK= 0.26509E+01 SP= 0.37E+01 SK= 0.22E-04 mag=     -0.261
       N       E                     dE             d eps       ncg     rms          rms(c)
DAV:   1    -0.333712455237E+02    0.15924E-01   -0.17077E-02  2784   0.107E+00    0.678E-02
RMM:   2    -0.333728835490E+02   -0.16380E-02   -0.49816E-03  1535   0.284E-01    0.537E-02
RMM:   3    -0.333738071774E+02   -0.92363E-03   -0.19435E-03  1442   0.112E-01
   1491 T=   786. E= -.27055708E+02 F= -.33373807E+02 E0= -.33330371E+02  EK= 0.26417E+01 SP= 0.37E+01 SK= 0.57E-04 mag=     -0.068
       N       E                     dE             d eps       ncg     rms          rms(c)
DAV:   1    -0.333570815831E+02    0.15802E-01   -0.19518E-02  2496   0.100E+00    0.796E-02
RMM:   2    -0.333587922793E+02   -0.17107E-02   -0.33285E-03  1458   0.241E-01    0.628E-02
RMM:   3    -0.333595242975E+02   -0.73202E-03   -0.93128E-04  1297   0.911E-02
   1492 T=   784. E= -.27052227E+02 F= -.33359524E+02 E0= -.33316448E+02  EK= 0.26341E+01 SP= 0.37E+01 SK= 0.12E-03 mag=      0.152
       N       E                     dE             d eps       ncg     rms          rms(c)
DAV:   1    -0.333449994317E+02    0.13793E-01   -0.31097E-02  2704   0.103E+00    0.730E-02
RMM:   2    -0.333461939988E+02   -0.11946E-02   -0.38196E-03  1543   0.248E-01
   1493 T=   783. E= -.27047742E+02 F= -.33346194E+02 E0= -.33303501E+02  EK= 0.26299E+01 SP= 0.37E+01 SK= 0.22E-03 mag=      0.247
       N       E                     dE             d eps       ncg     rms          rms(c)
DAV:   1    -0.333338068527E+02    0.11193E-01   -0.16090E-02  2760   0.105E+00    0.480E-02
RMM:   2    -0.333347245870E+02   -0.91773E-03   -0.37147E-03  1554   0.246E-01
   1494 T=   781. E= -.27045935E+02 F= -.33334725E+02 E0= -.33291793E+02  EK= 0.26262E+01 SP= 0.37E+01 SK= 0.36E-03 mag=      0.144
       N       E                     dE             d eps       ncg     rms          rms(c)
DAV:   1    -0.333233320305E+02    0.10475E-01   -0.12883E-02  2640   0.101E+00    0.367E-02
RMM:   2    -0.333241044652E+02   -0.77243E-03   -0.34104E-03  1551   0.277E-01
   1495 T=   781. E= -.27043224E+02 F= -.33324104E+02 E0= -.33281212E+02  EK= 0.26258E+01 SP= 0.37E+01 SK= 0.54E-03 mag=     -0.099
       N       E                     dE             d eps       ncg     rms          rms(c)
DAV:   1    -0.333113642601E+02    0.11968E-01   -0.15934E-02  2520   0.109E+00    0.761E-02
RMM:   2    -0.333129248678E+02   -0.15606E-02   -0.41503E-03  1515   0.261E-01    0.588E-02
RMM:   3    -0.333138414588E+02   -0.91659E-03   -0.16578E-03  1407   0.109E-01
   1496 T=   782. E= -.27039389E+02 F= -.33313841E+02 E0= -.33271478E+02  EK= 0.26283E+01 SP= 0.36E+01 SK= 0.75E-03 mag=     -0.088
       N       E                     dE             d eps       ncg     rms          rms(c)
DAV:   1    -0.333047138963E+02    0.82110E-02   -0.15032E-02  2440   0.982E-01    0.548E-02
RMM:   2    -0.333055309940E+02   -0.81710E-03   -0.26054E-03  1477   0.235E-01
   1497 T=   784. E= -.27034990E+02 F= -.33305531E+02 E0= -.33262988E+02  EK= 0.26349E+01 SP= 0.36E+01 SK= 0.97E-03 mag=      0.109
       N       E                     dE             d eps       ncg     rms          rms(c)
DAV:   1    -0.332942968511E+02    0.10417E-01   -0.26265E-02  2952   0.110E+00    0.820E-02
RMM:   2    -0.332958667818E+02   -0.15699E-02   -0.46662E-03  1572   0.238E-01    0.598E-02
RMM:   3    -0.332969566642E+02   -0.10899E-02   -0.15307E-03  1447   0.107E-01
   1498 T=   786. E= -.27029974E+02 F= -.33296957E+02 E0= -.33254787E+02  EK= 0.26432E+01 SP= 0.36E+01 SK= 0.12E-02 mag=      0.112
       N       E                     dE             d eps       ncg     rms          rms(c)
DAV:   1    -0.332890777837E+02    0.67890E-02   -0.94838E-03  2136   0.972E-01    0.654E-02
RMM:   2    -0.332898627145E+02   -0.78493E-03   -0.31712E-03  1550   0.247E-01
   1499 T=   789. E= -.27027124E+02 F= -.33289863E+02 E0= -.33247554E+02  EK= 0.26519E+01 SP= 0.36E+01 SK= 0.14E-02 mag=     -0.039
       N       E                     dE             d eps       ncg     rms          rms(c)
DAV:   1    -0.332808245177E+02    0.82533E-02   -0.22065E-02  2896   0.112E+00    0.676E-02
RMM:   2    -0.332819490784E+02   -0.11246E-02   -0.35574E-03  1544   0.230E-01
   1500 T=   792. E= -.27023231E+02 F= -.33281949E+02 E0= -.33240035E+02  EK= 0.26617E+01 SP= 0.36E+01 SK= 0.16E-02 mag=     -0.186
       N       E                     dE             d eps       ncg     rms          rms(c)
DAV:   1    -0.332734052817E+02    0.74192E-02   -0.10314E-02  2048   0.981E-01    0.629E-02
RMM:   2    -0.332746530228E+02   -0.12477E-02   -0.47100E-03  1546   0.289E-01
   1501 T=   795. E= -.27019773E+02 F= -.33274653E+02 E0= -.33232992E+02  EK= 0.26725E+01 SP= 0.36E+01 SK= 0.17E-02 mag=     -0.186
       N       E                     dE             d eps       ncg     rms          rms(c)
DAV:   1    -0.332672238532E+02    0.61814E-02   -0.19299E-02  2768   0.114E+00    0.441E-02
RMM:   2    -0.332681769985E+02   -0.95315E-03   -0.48075E-03  1588   0.291E-01
   1502 T=   799. E= -.27016165E+02 F= -.33268177E+02 E0= -.33226265E+02  EK= 0.26847E+01 SP= 0.36E+01 SK= 0.17E-02 mag=     -0.035
       N       E                     dE             d eps       ncg     rms          rms(c)
DAV:   1    -0.332584479129E+02    0.87759E-02   -0.14534E-02  2352   0.101E+00    0.549E-02
RMM:   2    -0.332596643534E+02   -0.12164E-02   -0.48632E-03  1535   0.304E-01
   1503 T=   802. E= -.27011526E+02 F= -.33259664E+02 E0= -.33217993E+02  EK= 0.26960E+01 SP= 0.36E+01 SK= 0.17E-02 mag=      0.141
       N       E                     dE             d eps       ncg     rms          rms(c)
DAV:   1    -0.332491536133E+02    0.92943E-02   -0.16378E-02  2488   0.114E+00    0.658E-02
RMM:   2    -0.332505086506E+02   -0.13550E-02   -0.46736E-03  1551   0.287E-01    0.487E-02
RMM:   3    -0.332509661935E+02   -0.45754E-03   -0.13099E-03  1489   0.116E-01
   1504 T=   805. E= -.27007752E+02 F= -.33250966E+02 E0= -.33209494E+02  EK= 0.27062E+01 SP= 0.35E+01 SK= 0.17E-02 mag=      0.088
       N       E                     dE             d eps       ncg     rms          rms(c)
DAV:   1    -0.332403804648E+02    0.10128E-01   -0.17346E-02  2552   0.104E+00    0.553E-02
RMM:   2    -0.332414430837E+02   -0.10626E-02   -0.33531E-03  1470   0.247E-01
   1505 T=   808. E= -.27003437E+02 F= -.33241443E+02 E0= -.33199862E+02  EK= 0.27157E+01 SP= 0.35E+01 SK= 0.15E-02 mag=     -0.129
       N       E                     dE             d eps       ncg     rms          rms(c)
DAV:   1    -0.332269222479E+02    0.13458E-01   -0.26835E-02  2712   0.114E+00    0.915E-02
RMM:   2    -0.332289144630E+02   -0.19922E-02   -0.49840E-03  1567   0.258E-01    0.684E-02
RMM:   3    -0.332302535534E+02   -0.13391E-02   -0.19406E-03  1426   0.120E-01
   1506 T=   810. E= -.26999116E+02 F= -.33230254E+02 E0= -.33188990E+02  EK= 0.27229E+01 SP= 0.35E+01 SK= 0.14E-02 mag=     -0.099
       N       E                     dE             d eps       ncg     rms          rms(c)
DAV:   1    -0.332166738173E+02    0.12241E-01   -0.17679E-02  2320   0.102E+00    0.747E-02
RMM:   2    -0.332180754951E+02   -0.14017E-02   -0.39211E-03  1489   0.271E-01    0.520E-02
RMM:   3    -0.332184461557E+02   -0.37066E-03   -0.10805E-03  1254   0.103E-01
   1507 T=   811. E= -.26996543E+02 F= -.33218446E+02 E0= -.33176987E+02  EK= 0.27270E+01 SP= 0.35E+01 SK= 0.12E-02 mag=      0.041
       N       E                     dE             d eps       ncg     rms          rms(c)
DAV:   1    -0.332031850944E+02    0.14890E-01   -0.33333E-02  2560   0.108E+00    0.670E-02
RMM:   2    -0.332043400341E+02   -0.11549E-02   -0.44473E-03  1553   0.275E-01
   1508 T=   812. E= -.26991488E+02 F= -.33204340E+02 E0= -.33163107E+02  EK= 0.27302E+01 SP= 0.35E+01 SK= 0.10E-02 mag=      0.185
       N       E                     dE             d eps       ncg     rms          rms(c)
DAV:   1    -0.331880214557E+02    0.15164E-01   -0.23387E-02  2672   0.112E+00    0.655E-02
RMM:   2    -0.331892608849E+02   -0.12394E-02   -0.42847E-03  1556   0.262E-01
   1509 T=   812. E= -.26988356E+02 F= -.33189261E+02 E0= -.33148196E+02  EK= 0.27296E+01 SP= 0.35E+01 SK= 0.85E-03 mag=      0.195
       N       E                     dE             d eps       ncg     rms          rms(c)
DAV:   1    -0.331727261619E+02    0.15295E-01   -0.13928E-02  2440   0.105E+00    0.374E-02
RMM:   2    -0.331736271825E+02   -0.90102E-03   -0.43580E-03  1568   0.306E-01
   1510 T=   812. E= -.26984633E+02 F= -.33173627E+02 E0= -.33132332E+02  EK= 0.27279E+01 SP= 0.35E+01 SK= 0.70E-03 mag=      0.049
       N       E                     dE             d eps       ncg     rms          rms(c)
DAV:   1    -0.331544372239E+02    0.18289E-01   -0.18288E-02  2528   0.115E+00    0.523E-02
RMM:   2    -0.331555404520E+02   -0.11032E-02   -0.46743E-03  1549   0.286E-01
   1511 T=   811. E= -.26978698E+02 F= -.33155540E+02 E0= -.33114421E+02  EK= 0.27250E+01 SP= 0.35E+01 SK= 0.57E-03 mag=     -0.157
       N       E                     dE             d eps       ncg     rms          rms(c)
DAV:   1    -0.331345938411E+02    0.19843E-01   -0.12036E-02  2504   0.106E+00    0.753E-02
RMM:   2    -0.331361538793E+02   -0.15600E-02   -0.42980E-03  1532   0.281E-01    0.567E-02
RMM:   3    -0.331368328032E+02   -0.67892E-03   -0.14129E-03  1439   0.113E-01
   1512 T=   809. E= -.26974947E+02 F= -.33136833E+02 E0= -.33095920E+02  EK= 0.27184E+01 SP= 0.34E+01 SK= 0.47E-03 mag=     -0.080
       N       E                     dE             d eps       ncg     rms          rms(c)
DAV:   1    -0.331163683007E+02    0.19786E-01   -0.18714E-02  2440   0.105E+00    0.620E-02
RMM:   2    -0.331176196043E+02   -0.12513E-02   -0.33432E-03  1501   0.270E-01
   1513 T=   807. E= -.26968802E+02 F= -.33117620E+02 E0= -.33076692E+02  EK= 0.27129E+01 SP= 0.34E+01 SK= 0.39E-03 mag=      0.186
       N       E                     dE             d eps       ncg     rms          rms(c)
DAV:   1    -0.330928605818E+02    0.23508E-01   -0.29910E-02  2816   0.116E+00    0.111E-01
RMM:   2    -0.330954787693E+02   -0.26182E-02   -0.61621E-03  1614   0.264E-01    0.828E-02
RMM:   3    -0.330976466144E+02   -0.21678E-02   -0.27257E-03  1422   0.125E-01    0.493E-02
RMM:   4    -0.330984346046E+02   -0.78799E-03   -0.14380E-03  1389   0.845E-02
   1514 T=   805. E= -.26964637E+02 F= -.33098435E+02 E0= -.33057421E+02  EK= 0.27048E+01 SP= 0.34E+01 SK= 0.34E-03 mag=      0.019
       N       E                     dE             d eps       ncg     rms          rms(c)
DAV:   1    -0.330737496267E+02    0.23897E-01   -0.16691E-02  2328   0.100E+00    0.110E-01
RMM:   2    -0.330760909524E+02   -0.23413E-02   -0.46799E-03  1441   0.249E-01    0.814E-02
RMM:   3    -0.330779003326E+02   -0.18094E-02   -0.24748E-03  1400   0.104E-01    0.509E-02
RMM:   4    -0.330786647584E+02   -0.76443E-03   -0.10072E-03  1360   0.751E-02
   1515 T=   801. E= -.26962948E+02 F= -.33078665E+02 E0= -.33037779E+02  EK= 0.26933E+01 SP= 0.34E+01 SK= 0.31E-03 mag=     -0.040
       N       E                     dE             d eps       ncg     rms          rms(c)
DAV:   1    -0.330589149191E+02    0.18985E-01   -0.20438E-02  2768   0.111E+00    0.491E-02
RMM:   2    -0.330596176014E+02   -0.70268E-03   -0.30104E-03  1515   0.229E-01
   1516 T=   799. E= -.26959559E+02 F= -.33059618E+02 E0= -.33018745E+02  EK= 0.26840E+01 SP= 0.34E+01 SK= 0.31E-03 mag=      0.003
       N       E                     dE             d eps       ncg     rms          rms(c)
DAV:   1    -0.330403770155E+02    0.18538E-01   -0.16103E-02  2696   0.106E+00    0.415E-02
RMM:   2    -0.330412460853E+02   -0.86907E-03   -0.38229E-03  1552   0.255E-01
   1517 T=   796. E= -.26956399E+02 F= -.33041246E+02 E0= -.33000497E+02  EK= 0.26753E+01 SP= 0.34E+01 SK= 0.33E-03 mag=      0.086
       N       E                     dE             d eps       ncg     rms          rms(c)
DAV:   1    -0.330231766009E+02    0.17200E-01   -0.11401E-02  2176   0.108E+00    0.441E-02
RMM:   2    -0.330240975173E+02   -0.92092E-03   -0.40343E-03  1537   0.280E-01
   1518 T=   794. E= -.26953064E+02 F= -.33024098E+02 E0= -.32983498E+02  EK= 0.26682E+01 SP= 0.34E+01 SK= 0.38E-03 mag=      0.122
       N       E                     dE             d eps       ncg     rms          rms(c)
DAV:   1    -0.330082545218E+02    0.14922E-01   -0.16461E-02  2744   0.110E+00    0.383E-02
RMM:   2    -0.330090748684E+02   -0.82035E-03   -0.39509E-03  1529   0.272E-01
   1519 T=   793. E= -.26949100E+02 F= -.33009075E+02 E0= -.32968532E+02  EK= 0.26644E+01 SP= 0.34E+01 SK= 0.44E-03 mag=      0.075
       N       E                     dE             d eps       ncg     rms          rms(c)
DAV:   1    -0.329951384760E+02    0.13116E-01   -0.11607E-02  2376   0.104E+00    0.314E-02
RMM:   2    -0.329959998598E+02   -0.86138E-03   -0.44173E-03  1563   0.286E-01
   1520 T=   793. E= -.26944897E+02 F= -.32996000E+02 E0= -.32955570E+02  EK= 0.26634E+01 SP= 0.34E+01 SK= 0.51E-03 mag=     -0.035
       N       E                     dE             d eps       ncg     rms          rms(c)
DAV:   1    -0.329842160486E+02    0.10922E-01   -0.13607E-02  2488   0.109E+00    0.433E-02
RMM:   2    -0.329851532709E+02   -0.93722E-03   -0.43058E-03  1542   0.279E-01
   1521 T=   793. E= -.26940260E+02 F= -.32985153E+02 E0= -.32944951E+02  EK= 0.26657E+01 SP= 0.34E+01 SK= 0.59E-03 mag=     -0.126
       N       E                     dE             d eps       ncg     rms          rms(c)
DAV:   1    -0.329766501183E+02    0.75659E-02   -0.13191E-02  2360   0.106E+00    0.447E-02
RMM:   2    -0.329775571797E+02   -0.90706E-03   -0.40988E-03  1537   0.287E-01
   1522 T=   795. E= -.26935510E+02 F= -.32977557E+02 E0= -.32937527E+02  EK= 0.26719E+01 SP= 0.34E+01 SK= 0.65E-03 mag=     -0.124
       N       E                     dE             d eps       ncg     rms          rms(c)
DAV:   1    -0.329723244983E+02    0.43256E-02   -0.13433E-02  2792   0.108E+00    0.319E-02
RMM:   2    -0.329731550431E+02   -0.83054E-03   -0.44614E-03  1561   0.277E-01
   1523 T=   798. E= -.26931195E+02 F= -.32973155E+02 E0= -.32933212E+02  EK= 0.26813E+01 SP= 0.34E+01 SK= 0.70E-03 mag=     -0.018
       N       E                     dE             d eps       ncg     rms          rms(c)
DAV:   1    -0.329703504542E+02    0.19740E-02   -0.11811E-02  2496   0.104E+00    0.434E-02
RMM:   2    -0.329712661986E+02   -0.91574E-03   -0.42124E-03  1527   0.284E-01
   1524 T=   801. E= -.26927189E+02 F= -.32971266E+02 E0= -.32931569E+02  EK= 0.26931E+01 SP= 0.34E+01 SK= 0.70E-03 mag=      0.116
       N       E                     dE             d eps       ncg     rms          rms(c)
DAV:   1    -0.329716168326E+02   -0.12664E-02   -0.12769E-02  2576   0.109E+00    0.546E-02
RMM:   2    -0.329727022918E+02   -0.10855E-02   -0.42819E-03  1530   0.270E-01
   1525 T=   806. E= -.26922963E+02 F= -.32972702E+02 E0= -.32933290E+02  EK= 0.27084E+01 SP= 0.33E+01 SK= 0.66E-03 mag=      0.152
       N       E                     dE             d eps       ncg     rms          rms(c)
DAV:   1    -0.329775244150E+02   -0.59076E-02   -0.11486E-02  2616   0.107E+00    0.376E-02
RMM:   2    -0.329783454682E+02   -0.82105E-03   -0.44339E-03  1547   0.297E-01
   1526 T=   811. E= -.26919062E+02 F= -.32978345E+02 E0= -.32939054E+02  EK= 0.27272E+01 SP= 0.33E+01 SK= 0.56E-03 mag=      0.057
       N       E                     dE             d eps       ncg     rms          rms(c)
DAV:   1    -0.329855080073E+02   -0.79836E-02   -0.13466E-02  2608   0.108E+00    0.463E-02
RMM:   2    -0.329864387546E+02   -0.93075E-03   -0.44575E-03  1537   0.288E-01
   1527 T=   818. E= -.26914461E+02 F= -.32986439E+02 E0= -.32947392E+02  EK= 0.27482E+01 SP= 0.33E+01 SK= 0.42E-03 mag=     -0.098
       N       E                     dE             d eps       ncg     rms          rms(c)
DAV:   1    -0.329961252516E+02   -0.10617E-01   -0.10971E-02  2464   0.108E+00    0.633E-02
RMM:   2    -0.329973507903E+02   -0.12255E-02   -0.46231E-03  1530   0.288E-01
   1528 T=   824. E= -.26909518E+02 F= -.32997351E+02 E0= -.32958670E+02  EK= 0.27709E+01 SP= 0.33E+01 SK= 0.24E-03 mag=     -0.179
       N       E                     dE             d eps       ncg     rms          rms(c)
DAV:   1    -0.330114505291E+02   -0.15325E-01   -0.13673E-02  2792   0.112E+00    0.467E-02
RMM:   2    -0.330124256138E+02   -0.97508E-03   -0.46083E-03  1565   0.288E-01
   1529 T=   832. E= -.26905192E+02 F= -.33012426E+02 E0= -.32973935E+02  EK= 0.27951E+01 SP= 0.33E+01 SK= 0.84E-04 mag=     -0.105
       N       E                     dE             d eps       ncg     rms          rms(c)
DAV:   1    -0.330287609581E+02   -0.17310E-01   -0.13139E-02  2440   0.109E+00    0.410E-02
RMM:   2    -0.330297340159E+02   -0.97306E-03   -0.53881E-03  1593   0.307E-01
   1530 T=   839. E= -.26900514E+02 F= -.33029734E+02 E0= -.32991457E+02  EK= 0.28192E+01 SP= 0.33E+01 SK= 0.13E-05 mag=      0.066
       N       E                     dE             d eps       ncg     rms          rms(c)
DAV:   1    -0.330470471760E+02   -0.18286E-01   -0.15949E-02  2736   0.113E+00    0.709E-02
RMM:   2    -0.330484760642E+02   -0.14289E-02   -0.50381E-03  1547   0.301E-01    0.526E-02
RMM:   3    -0.330490704081E+02   -0.59434E-03   -0.14910E-03  1480   0.119E-01
   1531 T=   845. E= -.26896376E+02 F= -.33049070E+02 E0= -.33011154E+02  EK= 0.28414E+01 SP= 0.33E+01 SK= 0.71E-04 mag=      0.067
       N       E                     dE             d eps       ncg     rms          rms(c)
DAV:   1    -0.330698308950E+02   -0.21355E-01   -0.14748E-02  2512   0.108E+00    0.481E-02
RMM:   2    -0.330707083322E+02   -0.87744E-03   -0.32388E-03  1495   0.259E-01
   1532 T=   852. E= -.26890635E+02 F= -.33070708E+02 E0= -.33033066E+02  EK= 0.28635E+01 SP= 0.33E+01 SK= 0.38E-03 mag=     -0.055
       N       E                     dE             d eps       ncg     rms          rms(c)
DAV:   1    -0.330917291249E+02   -0.21898E-01   -0.20707E-02  3072   0.119E+00    0.761E-02
RMM:   2    -0.330931233902E+02   -0.13943E-02   -0.41812E-03  1538   0.241E-01    0.537E-02
RMM:   3    -0.330938865040E+02   -0.76311E-03   -0.14221E-03  1423   0.105E-01
   1533 T=   857. E= -.26886005E+02 F= -.33093887E+02 E0= -.33056546E+02  EK= 0.28814E+01 SP= 0.33E+01 SK= 0.10E-02 mag=     -0.035
       N       E                     dE             d eps       ncg     rms          rms(c)
DAV:   1    -0.331163399925E+02   -0.23217E-01   -0.10820E-02  1960   0.104E+00    0.679E-02
RMM:   2    -0.331175785835E+02   -0.12386E-02   -0.33404E-03  1483   0.244E-01
   1534 T=   861. E= -.26882094E+02 F= -.33117579E+02 E0= -.33080519E+02  EK= 0.28940E+01 SP= 0.33E+01 SK= 0.21E-02 mag=      0.054
       N       E                     dE             d eps       ncg     rms          rms(c)
DAV:   1    -0.331406274491E+02   -0.24287E-01   -0.22165E-02  3048   0.120E+00    0.800E-02
RMM:   2    -0.331420415902E+02   -0.14141E-02   -0.39320E-03  1525   0.236E-01    0.551E-02
RMM:   3    -0.331426727811E+02   -0.63119E-03   -0.12145E-03  1408   0.996E-02
   1535 T=   863. E= -.26878865E+02 F= -.33142673E+02 E0= -.33105928E+02  EK= 0.29017E+01 SP= 0.34E+01 SK= 0.36E-02 mag=      0.016
       N       E                     dE             d eps       ncg     rms          rms(c)
DAV:   1    -0.331660018796E+02   -0.23960E-01   -0.13794E-02  2120   0.104E+00    0.860E-02
RMM:   2    -0.331676484177E+02   -0.16465E-02   -0.39949E-03  1523   0.267E-01    0.598E-02
RMM:   3    -0.331681506400E+02   -0.50222E-03   -0.11638E-03  1373   0.104E-01
   1536 T=   864. E= -.26876356E+02 F= -.33168151E+02 E0= -.33131714E+02  EK= 0.29034E+01 SP= 0.34E+01 SK= 0.55E-02 mag=      0.003
       N       E                     dE             d eps       ncg     rms          rms(c)
DAV:   1    -0.331927589958E+02   -0.25111E-01   -0.27199E-02  2736   0.112E+00    0.374E-02
RMM:   2    -0.331935636740E+02   -0.80468E-03   -0.44293E-03  1569   0.274E-01
   1537 T=   863. E= -.26871537E+02 F= -.33193564E+02 E0= -.33157386E+02  EK= 0.29016E+01 SP= 0.34E+01 SK= 0.79E-02 mag=     -0.001
       N       E                     dE             d eps       ncg     rms          rms(c)
DAV:   1    -0.332170280910E+02   -0.24269E-01   -0.22290E-02  2696   0.113E+00    0.306E-02
RMM:   2    -0.332178198333E+02   -0.79174E-03   -0.44839E-03  1562   0.263E-01
   1538 T=   860. E= -.26867886E+02 F= -.33217820E+02 E0= -.33181925E+02  EK= 0.28919E+01 SP= 0.34E+01 SK= 0.11E-01 mag=     -0.002
       N       E                     dE             d eps       ncg     rms          rms(c)
DAV:   1    -0.332406348604E+02   -0.23607E-01   -0.11238E-02  2312   0.106E+00    0.304E-02
RMM:   2    -0.332413939584E+02   -0.75910E-03   -0.39322E-03  1545   0.285E-01
   1539 T=   856. E= -.26863477E+02 F= -.33241394E+02 E0= -.33205748E+02  EK= 0.28771E+01 SP= 0.35E+01 SK= 0.13E-01 mag=     -0.006
       N       E                     dE             d eps       ncg     rms          rms(c)
DAV:   1    -0.332632476666E+02   -0.22613E-01   -0.14117E-02  2656   0.117E+00    0.269E-02
RMM:   2    -0.332639775689E+02   -0.72990E-03   -0.39373E-03  1521   0.264E-01
   1540 T=   850. E= -.26857804E+02 F= -.33263978E+02 E0= -.33228539E+02  EK= 0.28578E+01 SP= 0.35E+01 SK= 0.16E-01 mag=     -0.003
       N       E                     dE             d eps       ncg     rms          rms(c)
DAV:   1    -0.332842203826E+02   -0.20973E-01   -0.82855E-03  2120   0.105E+00    0.229E-02
RMM:   2    -0.332849333257E+02   -0.71294E-03   -0.37638E-03  1539   0.284E-01
   1541 T=   843. E= -.26851562E+02 F= -.33284933E+02 E0= -.33249692E+02  EK= 0.28334E+01 SP= 0.36E+01 SK= 0.19E-01 mag=      0.007
       N       E                     dE             d eps       ncg     rms          rms(c)
DAV:   1    -0.333035172916E+02   -0.19297E-01   -0.12846E-02  2672   0.113E+00    0.301E-02
RMM:   2    -0.333043030634E+02   -0.78577E-03   -0.43822E-03  1561   0.259E-01
   1542 T=   834. E= -.26845451E+02 F= -.33304303E+02 E0= -.33269204E+02  EK= 0.28041E+01 SP= 0.36E+01 SK= 0.22E-01 mag=      0.017
       N       E                     dE             d eps       ncg     rms          rms(c)
DAV:   1    -0.333211315379E+02   -0.17614E-01   -0.11210E-02  2272   0.104E+00    0.236E-02
RMM:   2    -0.333219116075E+02   -0.78007E-03   -0.45286E-03  1586   0.288E-01
   1543 T=   824. E= -.26840200E+02 F= -.33321912E+02 E0= -.33286906E+02  EK= 0.27698E+01 SP= 0.37E+01 SK= 0.24E-01 mag=      0.014
       N       E                     dE             d eps       ncg     rms          rms(c)
DAV:   1    -0.333370640172E+02   -0.15932E-01   -0.17032E-02  2632   0.111E+00    0.301E-02
RMM:   2    -0.333377974035E+02   -0.73339E-03   -0.37124E-03  1525   0.259E-01
   1544 T=   813. E= -.26834837E+02 F= -.33337797E+02 E0= -.33302834E+02  EK= 0.27325E+01 SP= 0.37E+01 SK= 0.25E-01 mag=     -0.005
       N       E                     dE             d eps       ncg     rms          rms(c)
DAV:   1    -0.333513852044E+02   -0.14321E-01   -0.10067E-02  2288   0.102E+00    0.283E-02
RMM:   2    -0.333521368723E+02   -0.75167E-03   -0.40427E-03  1542   0.285E-01
   1545 T=   802. E= -.26829162E+02 F= -.33352137E+02 E0= -.33317183E+02  EK= 0.26938E+01 SP= 0.38E+01 SK= 0.26E-01 mag=     -0.028
       N       E                     dE             d eps       ncg     rms          rms(c)
DAV:   1    -0.333640194212E+02   -0.12634E-01   -0.12723E-02  2688   0.109E+00    0.306E-02
RMM:   2    -0.333647845127E+02   -0.76509E-03   -0.42355E-03  1576   0.267E-01
   1546 T=   790. E= -.26823000E+02 F= -.33364785E+02 E0= -.33329778E+02  EK= 0.26545E+01 SP= 0.39E+01 SK= 0.25E-01 mag=     -0.028
       N       E                     dE             d eps       ncg     rms          rms(c)
DAV:   1    -0.333750075073E+02   -0.10988E-01   -0.10216E-02  2272   0.101E+00    0.278E-02
RMM:   2    -0.333757440967E+02   -0.73659E-03   -0.40040E-03  1557   0.281E-01
   1547 T=   778. E= -.26817298E+02 F= -.33375744E+02 E0= -.33340649E+02  EK= 0.26148E+01 SP= 0.39E+01 SK= 0.24E-01 mag=     -0.003
       N       E                     dE             d eps       ncg     rms          rms(c)
DAV:   1    -0.333844717190E+02   -0.94642E-02   -0.11791E-02  2512   0.107E+00    0.336E-02
RMM:   2    -0.333852283288E+02   -0.75661E-03   -0.38211E-03  1509   0.260E-01
   1548 T=   767. E= -.26811690E+02 F= -.33385228E+02 E0= -.33349984E+02  EK= 0.25761E+01 SP= 0.40E+01 SK= 0.22E-01 mag=      0.027
       N       E                     dE             d eps       ncg     rms          rms(c)
DAV:   1    -0.333929503361E+02   -0.84786E-02   -0.10331E-02  2328   0.101E+00    0.304E-02
RMM:   2    -0.333936847491E+02   -0.73441E-03   -0.41642E-03  1565   0.280E-01
   1549 T=   756. E= -.26806080E+02 F= -.33393685E+02 E0= -.33358240E+02  EK= 0.25398E+01 SP= 0.40E+01 SK= 0.20E-01 mag=      0.039
       N       E                     dE             d eps       ncg     rms          rms(c)
DAV:   1    -0.334004985189E+02   -0.75482E-02   -0.13536E-02  2480   0.104E+00    0.336E-02
RMM:   2    -0.334012259124E+02   -0.72739E-03   -0.37636E-03  1523   0.266E-01
   1550 T=   746. E= -.26800478E+02 F= -.33401226E+02 E0= -.33365530E+02  EK= 0.25067E+01 SP= 0.41E+01 SK= 0.17E-01 mag=      0.019
       N       E                     dE             d eps       ncg     rms          rms(c)
DAV:   1    -0.334072787586E+02   -0.67802E-02   -0.10293E-02  2336   0.100E+00    0.349E-02
RMM:   2    -0.334080477338E+02   -0.76898E-03   -0.41382E-03  1549   0.276E-01
   1551 T=   737. E= -.26795092E+02 F= -.33408048E+02 E0= -.33372086E+02  EK= 0.24774E+01 SP= 0.41E+01 SK= 0.13E-01 mag=     -0.021
       N       E                     dE             d eps       ncg     rms          rms(c)
DAV:   1    -0.334137249923E+02   -0.64462E-02   -0.10600E-02  2424   0.103E+00    0.331E-02
RMM:   2    -0.334144526706E+02   -0.72768E-03   -0.38455E-03  1532   0.270E-01
   1552 T=   730. E= -.26789908E+02 F= -.33414453E+02 E0= -.33378172E+02  EK= 0.24527E+01 SP= 0.42E+01 SK= 0.10E-01 mag=     -0.047
       N       E                     dE             d eps       ncg     rms          rms(c)
DAV:   1    -0.334199308061E+02   -0.62058E-02   -0.10336E-02  2456   0.999E-01    0.354E-02
RMM:   2    -0.334206271220E+02   -0.69632E-03   -0.37838E-03  1533   0.273E-01
   1553 T=   724. E= -.26784773E+02 F= -.33420627E+02 E0= -.33383988E+02  EK= 0.24334E+01 SP= 0.42E+01 SK= 0.70E-02 mag=     -0.039
       N       E                     dE             d eps       ncg     rms          rms(c)
DAV:   1    -0.334258565629E+02   -0.59258E-02   -0.11597E-02  2536   0.101E+00    0.363E-02
RMM:   2    -0.334266264885E+02   -0.76993E-03   -0.37832E-03  1521   0.266E-01
   1554 T=   720. E= -.26779255E+02 F= -.33426626E+02 E0= -.33389596E+02  EK= 0.24201E+01 SP= 0.42E+01 SK= 0.44E-02 mag=     -0.000
       N       E                     dE             d eps       ncg     rms          rms(c)
DAV:   1    -0.334322243533E+02   -0.63678E-02   -0.10289E-02  2480   0.996E-01    0.376E-02
RMM:   2    -0.334329071877E+02   -0.68283E-03   -0.36852E-03  1524   0.271E-01
   1555 T=   718. E= -.26774218E+02 F= -.33432907E+02 E0= -.33395476E+02  EK= 0.24127E+01 SP= 0.42E+01 SK= 0.23E-02 mag=      0.047
       N       E                     dE             d eps       ncg     rms          rms(c)
DAV:   1    -0.334386500873E+02   -0.64257E-02   -0.10669E-02  2528   0.986E-01    0.377E-02
RMM:   2    -0.334394228735E+02   -0.77279E-03   -0.40447E-03  1536   0.270E-01
   1556 T=   718. E= -.26769246E+02 F= -.33439423E+02 E0= -.33401582E+02  EK= 0.24116E+01 SP= 0.43E+01 SK= 0.84E-03 mag=      0.060
       N       E                     dE             d eps       ncg     rms          rms(c)
DAV:   1    -0.334457879591E+02   -0.71379E-02   -0.11121E-02  2496   0.998E-01    0.397E-02
RMM:   2    -0.334465409958E+02   -0.75304E-03   -0.39240E-03  1528   0.275E-01
   1557 T=   719. E= -.26764467E+02 F= -.33446541E+02 E0= -.33408263E+02  EK= 0.24171E+01 SP= 0.43E+01 SK= 0.11E-03 mag=      0.026
       N       E                     dE             d eps       ncg     rms          rms(c)
DAV:   1    -0.334535402375E+02   -0.77523E-02   -0.10740E-02  2448   0.101E+00    0.353E-02
RMM:   2    -0.334542912336E+02   -0.75100E-03   -0.38535E-03  1524   0.274E-01
   1558 T=   723. E= -.26759472E+02 F= -.33454291E+02 E0= -.33415570E+02  EK= 0.24294E+01 SP= 0.43E+01 SK= 0.56E-04 mag=     -0.032
       N       E                     dE             d eps       ncg     rms          rms(c)
DAV:   1    -0.334622375414E+02   -0.86973E-02   -0.10451E-02  2392   0.101E+00    0.388E-02
RMM:   2    -0.334629911104E+02   -0.75357E-03   -0.41715E-03  1536   0.290E-01
   1559 T=   729. E= -.26753836E+02 F= -.33462991E+02 E0= -.33423878E+02  EK= 0.24492E+01 SP= 0.43E+01 SK= 0.60E-03 mag=     -0.076
       N       E                     dE             d eps       ncg     rms          rms(c)
DAV:   1    -0.334716696721E+02   -0.94321E-02   -0.12924E-02  2424   0.101E+00    0.446E-02
RMM:   2    -0.334725525638E+02   -0.88289E-03   -0.41530E-03  1528   0.287E-01
   1560 T=   737. E= -.26747871E+02 F= -.33472553E+02 E0= -.33433046E+02  EK= 0.24756E+01 SP= 0.42E+01 SK= 0.16E-02 mag=     -0.063
       N       E                     dE             d eps       ncg     rms          rms(c)
DAV:   1    -0.334823003871E+02   -0.10631E-01   -0.12490E-02  2368   0.104E+00    0.385E-02
RMM:   2    -0.334831027774E+02   -0.80239E-03   -0.43833E-03  1553   0.292E-01
   1561 T=   746. E= -.26742138E+02 F= -.33483103E+02 E0= -.33443169E+02  EK= 0.25077E+01 SP= 0.42E+01 SK= 0.28E-02 mag=      0.005
       N       E                     dE             d eps       ncg     rms          rms(c)
DAV:   1    -0.334933983927E+02   -0.11098E-01   -0.13574E-02  2368   0.102E+00    0.395E-02
RMM:   2    -0.334941984688E+02   -0.80008E-03   -0.43739E-03  1532   0.297E-01
   1562 T=   757. E= -.26736091E+02 F= -.33494198E+02 E0= -.33453942E+02  EK= 0.25451E+01 SP= 0.42E+01 SK= 0.41E-02 mag=      0.078
       N       E                     dE             d eps       ncg     rms          rms(c)
DAV:   1    -0.335048430037E+02   -0.11445E-01   -0.13021E-02  2408   0.106E+00    0.500E-02
RMM:   2    -0.335058418855E+02   -0.99888E-03   -0.47045E-03  1555   0.304E-01
   1563 T=   770. E= -.26729711E+02 F= -.33505842E+02 E0= -.33465346E+02  EK= 0.25871E+01 SP= 0.42E+01 SK= 0.52E-02 mag=      0.098
       N       E                     dE             d eps       ncg     rms          rms(c)
DAV:   1    -0.335173679602E+02   -0.12525E-01   -0.13663E-02  2392   0.105E+00    0.458E-02
RMM:   2    -0.335182887429E+02   -0.92078E-03   -0.45040E-03  1529   0.309E-01
   1564 T=   783. E= -.26723355E+02 F= -.33518289E+02 E0= -.33477463E+02  EK= 0.26327E+01 SP= 0.42E+01 SK= 0.60E-02 mag=      0.040
       N       E                     dE             d eps       ncg     rms          rms(c)
DAV:   1    -0.335301170086E+02   -0.12749E-01   -0.12325E-02  2320   0.109E+00    0.392E-02
RMM:   2    -0.335309320534E+02   -0.81504E-03   -0.45601E-03  1524   0.310E-01
   1565 T=   798. E= -.26716582E+02 F= -.33530932E+02 E0= -.33489896E+02  EK= 0.26808E+01 SP= 0.41E+01 SK= 0.64E-02 mag=     -0.062
       N       E                     dE             d eps       ncg     rms          rms(c)
DAV:   1    -0.335421506417E+02   -0.12034E-01   -0.15311E-02  2560   0.108E+00    0.560E-02
RMM:   2    -0.335432713042E+02   -0.11207E-02   -0.48103E-03  1530   0.308E-01
   1566 T=   812. E= -.26709426E+02 F= -.33543271E+02 E0= -.33502225E+02  EK= 0.27297E+01 SP= 0.41E+01 SK= 0.62E-02 mag=     -0.125
       N       E                     dE             d eps       ncg     rms          rms(c)
DAV:   1    -0.335550437384E+02   -0.12893E-01   -0.14927E-02  2448   0.111E+00    0.546E-02
RMM:   2    -0.335561770191E+02   -0.11333E-02   -0.49414E-03  1543   0.320E-01
   1567 T=   827. E= -.26702949E+02 F= -.33556177E+02 E0= -.33515006E+02  EK= 0.27779E+01 SP= 0.41E+01 SK= 0.55E-02 mag=     -0.091
       N       E                     dE             d eps       ncg     rms          rms(c)
DAV:   1    -0.335680408576E+02   -0.12997E-01   -0.14354E-02  2424   0.109E+00    0.407E-02
RMM:   2    -0.335689352236E+02   -0.89437E-03   -0.49879E-03  1551   0.318E-01
   1568 T=   840. E= -.26696618E+02 F= -.33568935E+02 E0= -.33527657E+02  EK= 0.28240E+01 SP= 0.40E+01 SK= 0.45E-02 mag=      0.024
       N       E                     dE             d eps       ncg     rms          rms(c)
DAV:   1    -0.335788730596E+02   -0.10832E-01   -0.17097E-02  2504   0.112E+00    0.584E-02
RMM:   2    -0.335801289453E+02   -0.12559E-02   -0.54767E-03  1553   0.326E-01
   1569 T=   853. E= -.26689081E+02 F= -.33580129E+02 E0= -.33539080E+02  EK= 0.28667E+01 SP= 0.40E+01 SK= 0.31E-02 mag=      0.128
       N       E                     dE             d eps       ncg     rms          rms(c)
DAV:   1    -0.335894756448E+02   -0.10603E-01   -0.17714E-02  2600   0.113E+00    0.646E-02
RMM:   2    -0.335908535097E+02   -0.13779E-02   -0.54432E-03  1561   0.320E-01    0.451E-02
RMM:   3    -0.335913839340E+02   -0.53042E-03   -0.15068E-03  1472   0.123E-01
   1570 T=   864. E= -.26683743E+02 F= -.33591384E+02 E0= -.33550414E+02  EK= 0.29029E+01 SP= 0.40E+01 SK= 0.18E-02 mag=      0.076
       N       E                     dE             d eps       ncg     rms          rms(c)
DAV:   1    -0.335998937268E+02   -0.90402E-02   -0.14829E-02  2288   0.107E+00    0.483E-02
RMM:   2    -0.336008044079E+02   -0.91068E-03   -0.38709E-03  1445   0.254E-01
   1571 T=   873. E= -.26677084E+02 F= -.33600804E+02 E0= -.33559986E+02  EK= 0.29330E+01 SP= 0.40E+01 SK= 0.75E-03 mag=     -0.081
       N       E                     dE             d eps       ncg     rms          rms(c)
DAV:   1    -0.336051096368E+02   -0.52159E-02   -0.23176E-02  2968   0.120E+00    0.862E-02
RMM:   2    -0.336069893580E+02   -0.18797E-02   -0.47132E-03  1447   0.235E-01    0.631E-02
RMM:   3    -0.336083329942E+02   -0.13436E-02   -0.22745E-03  1399   0.112E-01
   1572 T=   879. E= -.26671504E+02 F= -.33608333E+02 E0= -.33567880E+02  EK= 0.29537E+01 SP= 0.40E+01 SK= 0.10E-03 mag=     -0.053
       N       E                     dE             d eps       ncg     rms          rms(c)
DAV:   1    -0.336121135816E+02   -0.51242E-02   -0.13027E-02  2168   0.103E+00    0.776E-02
RMM:   2    -0.336137182709E+02   -0.16047E-02   -0.37525E-03  1490   0.266E-01    0.536E-02
RMM:   3    -0.336142727042E+02   -0.55443E-03   -0.11459E-03  1359   0.102E-01
   1573 T=   882. E= -.26668515E+02 F= -.33614273E+02 E0= -.33574086E+02  EK= 0.29630E+01 SP= 0.40E+01 SK= 0.68E-04 mag=      0.025
       N       E                     dE             d eps       ncg     rms          rms(c)
DAV:   1    -0.336172189763E+02   -0.35007E-02   -0.31007E-02  2632   0.110E+00    0.538E-02
RMM:   2    -0.336181716503E+02   -0.95267E-03   -0.40473E-03  1538   0.273E-01
   1574 T=   882. E= -.26662906E+02 F= -.33618172E+02 E0= -.33578378E+02  EK= 0.29655E+01 SP= 0.40E+01 SK= 0.72E-03 mag=      0.093
       N       E                     dE             d eps       ncg     rms          rms(c)
DAV:   1    -0.336186105816E+02   -0.13916E-02   -0.25139E-02  2696   0.115E+00    0.472E-02
RMM:   2    -0.336195940654E+02   -0.98348E-03   -0.44189E-03  1540   0.271E-01
   1575 T=   880. E= -.26658245E+02 F= -.33619594E+02 E0= -.33580285E+02  EK= 0.29570E+01 SP= 0.40E+01 SK= 0.21E-02 mag=      0.089
       N       E                     dE             d eps       ncg     rms          rms(c)
DAV:   1    -0.336181314761E+02    0.47911E-03   -0.12844E-02  2232   0.106E+00    0.340E-02
RMM:   2    -0.336189518789E+02   -0.82040E-03   -0.42316E-03  1535   0.295E-01
   1576 T=   875. E= -.26652804E+02 F= -.33618952E+02 E0= -.33580059E+02  EK= 0.29401E+01 SP= 0.40E+01 SK= 0.40E-02 mag=      0.014
       N       E                     dE             d eps       ncg     rms          rms(c)
DAV:   1    -0.336145677012E+02    0.35638E-02   -0.17634E-02  2744   0.117E+00    0.413E-02
RMM:   2    -0.336155038353E+02   -0.93613E-03   -0.44075E-03  1535   0.276E-01
   1577 T=   867. E= -.26645931E+02 F= -.33615504E+02 E0= -.33577146E+02  EK= 0.29152E+01 SP= 0.40E+01 SK= 0.63E-02 mag=     -0.076
       N       E                     dE             d eps       ncg     rms          rms(c)
DAV:   1    -0.336083395449E+02    0.62282E-02   -0.10598E-02  2424   0.104E+00    0.490E-02
RMM:   2    -0.336093956467E+02   -0.10561E-02   -0.43004E-03  1551   0.290E-01
   1578 T=   857. E= -.26639514E+02 F= -.33609396E+02 E0= -.33571635E+02  EK= 0.28814E+01 SP= 0.41E+01 SK= 0.87E-02 mag=     -0.107
       N       E                     dE             d eps       ncg     rms          rms(c)
DAV:   1    -0.336005764835E+02    0.77631E-02   -0.16100E-02  2640   0.112E+00    0.358E-02
RMM:   2    -0.336013993430E+02   -0.82286E-03   -0.38218E-03  1531   0.262E-01
   1579 T=   845. E= -.26633931E+02 F= -.33601399E+02 E0= -.33564092E+02  EK= 0.28403E+01 SP= 0.41E+01 SK= 0.11E-01 mag=     -0.050
       N       E                     dE             d eps       ncg     rms          rms(c)
DAV:   1    -0.335896031521E+02    0.10973E-01   -0.11060E-02  2296   0.102E+00    0.338E-02
RMM:   2    -0.335905131815E+02   -0.91003E-03   -0.46666E-03  1548   0.287E-01
   1580 T=   831. E= -.26628366E+02 F= -.33590513E+02 E0= -.33553729E+02  EK= 0.27930E+01 SP= 0.42E+01 SK= 0.13E-01 mag=      0.058
       N       E                     dE             d eps       ncg     rms          rms(c)
DAV:   1    -0.335754008276E+02    0.14202E-01   -0.16948E-02  2688   0.109E+00    0.600E-02
RMM:   2    -0.335766733683E+02   -0.12725E-02   -0.44910E-03  1536   0.273E-01
   1581 T=   816. E= -.26621736E+02 F= -.33576673E+02 E0= -.33540526E+02  EK= 0.27418E+01 SP= 0.42E+01 SK= 0.14E-01 mag=      0.109
       N       E                     dE             d eps       ncg     rms          rms(c)
DAV:   1    -0.335608576895E+02    0.14543E-01   -0.13881E-02  2408   0.101E+00    0.433E-02
RMM:   2    -0.335617869004E+02   -0.92921E-03   -0.48505E-03  1563   0.303E-01
   1582 T=   800. E= -.26615961E+02 F= -.33561787E+02 E0= -.33526020E+02  EK= 0.26883E+01 SP= 0.42E+01 SK= 0.15E-01 mag=      0.073
       N       E                     dE             d eps       ncg     rms          rms(c)
DAV:   1    -0.335435429975E+02    0.17315E-01   -0.18087E-02  2640   0.105E+00    0.452E-02
RMM:   2    -0.335444631806E+02   -0.92018E-03   -0.46339E-03  1542   0.283E-01
   1583 T=   784. E= -.26609719E+02 F= -.33544463E+02 E0= -.33509100E+02  EK= 0.26337E+01 SP= 0.43E+01 SK= 0.14E-01 mag=     -0.029
       N       E                     dE             d eps       ncg     rms          rms(c)
DAV:   1    -0.335232656601E+02    0.20277E-01   -0.11759E-02  2360   0.100E+00    0.577E-02
RMM:   2    -0.335245848065E+02   -0.13191E-02   -0.49384E-03  1572   0.282E-01
   1584 T=   767. E= -.26603562E+02 F= -.33524585E+02 E0= -.33489792E+02  EK= 0.25786E+01 SP= 0.43E+01 SK= 0.13E-01 mag=     -0.110
       N       E                     dE             d eps       ncg     rms          rms(c)
DAV:   1    -0.335028618367E+02    0.20404E-01   -0.14545E-02  2640   0.104E+00    0.493E-02
RMM:   2    -0.335038731007E+02   -0.10113E-02   -0.43040E-03  1535   0.281E-01
   1585 T=   751. E= -.26598052E+02 F= -.33503873E+02 E0= -.33469424E+02  EK= 0.25255E+01 SP= 0.44E+01 SK= 0.11E-01 mag=     -0.102
       N       E                     dE             d eps       ncg     rms          rms(c)
DAV:   1    -0.334810956960E+02    0.21766E-01   -0.13986E-02  2368   0.986E-01    0.333E-02
RMM:   2    -0.334819675199E+02   -0.87182E-03   -0.44211E-03  1541   0.284E-01
   1586 T=   737. E= -.26592853E+02 F= -.33481968E+02 E0= -.33447730E+02  EK= 0.24754E+01 SP= 0.44E+01 SK= 0.83E-02 mag=     -0.007
       N       E                     dE             d eps       ncg     rms          rms(c)
DAV:   1    -0.334567021743E+02    0.24394E-01   -0.14058E-02  2624   0.999E-01    0.609E-02
RMM:   2    -0.334579697380E+02   -0.12676E-02   -0.48668E-03  1567   0.274E-01
   1587 T=   723. E= -.26586823E+02 F= -.33457970E+02 E0= -.33424155E+02  EK= 0.24294E+01 SP= 0.44E+01 SK= 0.57E-02 mag=      0.100
       N       E                     dE             d eps       ncg     rms          rms(c)
DAV:   1    -0.334320736843E+02    0.24628E-01   -0.13481E-02  2568   0.978E-01    0.566E-02
RMM:   2    -0.334332611617E+02   -0.11875E-02   -0.44303E-03  1550   0.275E-01
   1588 T=   711. E= -.26581473E+02 F= -.33433261E+02 E0= -.33399748E+02  EK= 0.23883E+01 SP= 0.45E+01 SK= 0.32E-02 mag=      0.145
       N       E                     dE             d eps       ncg     rms          rms(c)
DAV:   1    -0.334070356602E+02    0.25038E-01   -0.13274E-02  2336   0.970E-01    0.434E-02
RMM:   2    -0.334080012925E+02   -0.96563E-03   -0.43916E-03  1540   0.279E-01
   1589 T=   700. E= -.26576590E+02 F= -.33408001E+02 E0= -.33374500E+02  EK= 0.23531E+01 SP= 0.45E+01 SK= 0.12E-02 mag=      0.079
       N       E                     dE             d eps       ncg     rms          rms(c)
DAV:   1    -0.333805927570E+02    0.26443E-01   -0.12632E-02  2512   0.963E-01    0.553E-02
RMM:   2    -0.333816681005E+02   -0.10753E-02   -0.45559E-03  1542   0.280E-01
   1590 T=   692. E= -.26570987E+02 F= -.33381668E+02 E0= -.33348324E+02  EK= 0.23249E+01 SP= 0.45E+01 SK= 0.12E-03 mag=     -0.066
       N       E                     dE             d eps       ncg     rms          rms(c)
DAV:   1    -0.333523352804E+02    0.28257E-01   -0.11933E-02  2456   0.966E-01    0.718E-02
RMM:   2    -0.333539587319E+02   -0.16235E-02   -0.51347E-03  1549   0.275E-01    0.548E-02
RMM:   3    -0.333549844954E+02   -0.10258E-02   -0.22864E-03  1416   0.117E-01
   1591 T=   685. E= -.26566698E+02 F= -.33354984E+02 E0= -.33321808E+02  EK= 0.23029E+01 SP= 0.45E+01 SK= 0.20E-03 mag=     -0.063
       N       E                     dE             d eps       ncg     rms          rms(c)
DAV:   1    -0.333261002635E+02    0.27858E-01   -0.17824E-02  2408   0.918E-01    0.655E-02
RMM:   2    -0.333274345956E+02   -0.13343E-02   -0.32058E-03  1432   0.229E-01
   1592 T=   681. E= -.26561005E+02 F= -.33327435E+02 E0= -.33294230E+02  EK= 0.22895E+01 SP= 0.45E+01 SK= 0.17E-02 mag=      0.053
       N       E                     dE             d eps       ncg     rms          rms(c)
DAV:   1    -0.332971993107E+02    0.28901E-01   -0.27754E-02  2672   0.103E+00    0.852E-02
RMM:   2    -0.332991140695E+02   -0.19148E-02   -0.44471E-03  1537   0.240E-01    0.656E-02
RMM:   3    -0.333000222633E+02   -0.90819E-03   -0.14513E-03  1434   0.979E-02
   1593 T=   679. E= -.26556417E+02 F= -.33300022E+02 E0= -.33266948E+02  EK= 0.22835E+01 SP= 0.45E+01 SK= 0.46E-02 mag=      0.058
       N       E                     dE             d eps       ncg     rms          rms(c)
DAV:   1    -0.332707119495E+02    0.28402E-01   -0.21990E-02  2312   0.896E-01    0.803E-02
RMM:   2    -0.332724222433E+02   -0.17103E-02   -0.43263E-03  1438   0.234E-01    0.593E-02
RMM:   3    -0.332729425536E+02   -0.52031E-03   -0.11745E-03  1366   0.929E-02
   1594 T=   680. E= -.26554442E+02 F= -.33272943E+02 E0= -.33239605E+02  EK= 0.22837E+01 SP= 0.44E+01 SK= 0.91E-02 mag=     -0.013
       N       E                     dE             d eps       ncg     rms          rms(c)
DAV:   1    -0.332444084041E+02    0.28014E-01   -0.40097E-02  2392   0.973E-01    0.520E-02
RMM:   2    -0.332453698412E+02   -0.96144E-03   -0.47534E-03  1550   0.287E-01
   1595 T=   683. E= -.26549981E+02 F= -.33245370E+02 E0= -.33211969E+02  EK= 0.22945E+01 SP= 0.44E+01 SK= 0.15E-01 mag=     -0.110
       N       E                     dE             d eps       ncg     rms          rms(c)
DAV:   1    -0.332165712018E+02    0.27837E-01   -0.29229E-02  2592   0.100E+00    0.517E-02
RMM:   2    -0.332175880260E+02   -0.10168E-02   -0.43410E-03  1539   0.261E-01
   1596 T=   688. E= -.26546229E+02 F= -.33217588E+02 E0= -.33184125E+02  EK= 0.23130E+01 SP= 0.43E+01 SK= 0.22E-01 mag=     -0.125
       N       E                     dE             d eps       ncg     rms          rms(c)
DAV:   1    -0.331897060188E+02    0.26865E-01   -0.11999E-02  2456   0.934E-01    0.381E-02
RMM:   2    -0.331904782768E+02   -0.77226E-03   -0.39448E-03  1525   0.270E-01
   1597 T=   696. E= -.26543242E+02 F= -.33190478E+02 E0= -.33156642E+02  EK= 0.23398E+01 SP= 0.43E+01 SK= 0.30E-01 mag=     -0.032
       N       E                     dE             d eps       ncg     rms          rms(c)
DAV:   1    -0.331614716413E+02    0.28234E-01   -0.15434E-02  2496   0.105E+00    0.435E-02
RMM:   2    -0.331624382755E+02   -0.96663E-03   -0.41894E-03  1519   0.256E-01
   1598 T=   707. E= -.26538438E+02 F= -.33162438E+02 E0= -.33128480E+02  EK= 0.23757E+01 SP= 0.42E+01 SK= 0.38E-01 mag=      0.101
       N       E                     dE             d eps       ncg     rms          rms(c)
DAV:   1    -0.331336202273E+02    0.27851E-01   -0.92489E-03  2392   0.953E-01    0.546E-02
RMM:   2    -0.331347273028E+02   -0.11071E-02   -0.39909E-03  1529   0.278E-01
   1599 T=   720. E= -.26533348E+02 F= -.33134727E+02 E0= -.33100599E+02  EK= 0.24201E+01 SP= 0.41E+01 SK= 0.46E-01 mag=      0.162
       N       E                     dE             d eps       ncg     rms          rms(c)
DAV:   1    -0.331069992483E+02    0.26621E-01   -0.13335E-02  2648   0.106E+00    0.409E-02
RMM:   2    -0.331078851864E+02   -0.88594E-03   -0.40761E-03  1534   0.271E-01
   1600 T=   736. E= -.26528940E+02 F= -.33107885E+02 E0= -.33073233E+02  EK= 0.24721E+01 SP= 0.41E+01 SK= 0.54E-01 mag=      0.092
       N       E                     dE             d eps       ncg     rms          rms(c)
DAV:   1    -0.330794612367E+02    0.27538E-01   -0.10350E-02  2168   0.986E-01    0.354E-02
RMM:   2    -0.330804704777E+02   -0.10092E-02   -0.50869E-03  1565   0.298E-01
   1601 T=   753. E= -.26524378E+02 F= -.33080470E+02 E0= -.33045461E+02  EK= 0.25303E+01 SP= 0.40E+01 SK= 0.60E-01 mag=     -0.072
       N       E                     dE             d eps       ncg     rms          rms(c)
DAV:   1    -0.330511848484E+02    0.28276E-01   -0.17195E-02  2928   0.109E+00    0.652E-02
RMM:   2    -0.330526841898E+02   -0.14993E-02   -0.48304E-03  1554   0.275E-01    0.496E-02
RMM:   3    -0.330534450041E+02   -0.76081E-03   -0.18378E-03  1418   0.112E-01
   1602 T=   772. E= -.26520561E+02 F= -.33053445E+02 E0= -.33018141E+02  EK= 0.25938E+01 SP= 0.39E+01 SK= 0.64E-01 mag=     -0.072
       N       E                     dE             d eps       ncg     rms          rms(c)
DAV:   1    -0.330261606771E+02    0.26524E-01   -0.16236E-02  2504   0.101E+00    0.552E-02
RMM:   2    -0.330272808064E+02   -0.11201E-02   -0.38925E-03  1483   0.265E-01
   1603 T=   793. E= -.26516004E+02 F= -.33027281E+02 E0= -.32991415E+02  EK= 0.26635E+01 SP= 0.38E+01 SK= 0.66E-01 mag=      0.060
       N       E                     dE             d eps       ncg     rms          rms(c)
DAV:   1    -0.329981373857E+02    0.28023E-01   -0.31493E-02  3048   0.117E+00    0.774E-02
RMM:   2    -0.329999351692E+02   -0.17978E-02   -0.48300E-03  1538   0.248E-01    0.579E-02
RMM:   3    -0.330010141334E+02   -0.10790E-02   -0.18621E-03  1418   0.104E-01
   1604 T=   814. E= -.26511755E+02 F= -.33001014E+02 E0= -.32964769E+02  EK= 0.27358E+01 SP= 0.37E+01 SK= 0.66E-01 mag=      0.066
       N       E                     dE             d eps       ncg     rms          rms(c)
DAV:   1    -0.329739517979E+02    0.25983E-01   -0.17845E-02  2392   0.102E+00    0.731E-02
RMM:   2    -0.329753032984E+02   -0.13515E-02   -0.39654E-03  1458   0.262E-01    0.506E-02
RMM:   3    -0.329756716873E+02   -0.36839E-03   -0.10277E-03  1261   0.101E-01
   1605 T=   835. E= -.26510026E+02 F= -.32975672E+02 E0= -.32938765E+02  EK= 0.28078E+01 SP= 0.36E+01 SK= 0.63E-01 mag=     -0.014
       N       E                     dE             d eps       ncg     rms          rms(c)
DAV:   1    -0.329493829424E+02    0.25920E-01   -0.32491E-02  2920   0.111E+00    0.614E-02
RMM:   2    -0.329504767204E+02   -0.10938E-02   -0.46109E-03  1554   0.278E-01
   1606 T=   857. E= -.26506096E+02 F= -.32950477E+02 E0= -.32913112E+02  EK= 0.28816E+01 SP= 0.35E+01 SK= 0.58E-01 mag=     -0.117
       N       E                     dE             d eps       ncg     rms          rms(c)
DAV:   1    -0.329251940946E+02    0.24189E-01   -0.22822E-02  2784   0.116E+00    0.545E-02
RMM:   2    -0.329263648375E+02   -0.11707E-02   -0.48279E-03  1581   0.278E-01
   1607 T=   878. E= -.26503612E+02 F= -.32926365E+02 E0= -.32888515E+02  EK= 0.29523E+01 SP= 0.34E+01 SK= 0.51E-01 mag=     -0.151
       N       E                     dE             d eps       ncg     rms          rms(c)
DAV:   1    -0.329026872210E+02    0.22507E-01   -0.16112E-02  2552   0.109E+00    0.382E-02
RMM:   2    -0.329037606994E+02   -0.10735E-02   -0.51155E-03  1570   0.325E-01
   1608 T=   899. E= -.26499151E+02 F= -.32903761E+02 E0= -.32865248E+02  EK= 0.30214E+01 SP= 0.33E+01 SK= 0.42E-01 mag=     -0.070
       N       E                     dE             d eps       ncg     rms          rms(c)
DAV:   1    -0.328803621661E+02    0.22325E-01   -0.22875E-02  2672   0.126E+00    0.442E-02
RMM:   2    -0.328815314627E+02   -0.11693E-02   -0.50135E-03  1563   0.297E-01
   1609 T=   918. E= -.26493318E+02 F= -.32881531E+02 E0= -.32842524E+02  EK= 0.30849E+01 SP= 0.33E+01 SK= 0.32E-01 mag=      0.082
       N       E                     dE             d eps       ncg     rms          rms(c)
DAV:   1    -0.328591051675E+02    0.21257E-01   -0.12129E-02  2448   0.111E+00    0.549E-02
RMM:   2    -0.328605795153E+02   -0.14743E-02   -0.51131E-03  1568   0.315E-01    0.416E-02
RMM:   3    -0.328611631630E+02   -0.58365E-03   -0.17065E-03  1422   0.122E-01
   1610 T=   934. E= -.26490044E+02 F= -.32861163E+02 E0= -.32821723E+02  EK= 0.31380E+01 SP= 0.32E+01 SK= 0.23E-01 mag=      0.068
       N       E                     dE             d eps       ncg     rms          rms(c)
DAV:   1    -0.328412040909E+02    0.19375E-01   -0.24186E-02  2640   0.117E+00    0.522E-02
RMM:   2    -0.328425635076E+02   -0.13594E-02   -0.39404E-03  1506   0.282E-01    0.375E-02
RMM:   3    -0.328428406488E+02   -0.27714E-03   -0.81794E-04  1217   0.101E-01
   1611 T=   947. E= -.26485767E+02 F= -.32842841E+02 E0= -.32802850E+02  EK= 0.31821E+01 SP= 0.32E+01 SK= 0.14E-01 mag=     -0.033
       N       E                     dE             d eps       ncg     rms          rms(c)
DAV:   1    -0.328248430299E+02    0.17720E-01   -0.28516E-02  2696   0.114E+00    0.411E-02
RMM:   2    -0.328258744490E+02   -0.10314E-02   -0.42078E-03  1556   0.268E-01
   1612 T=   957. E= -.26480091E+02 F= -.32825874E+02 E0= -.32785488E+02  EK= 0.32153E+01 SP= 0.31E+01 SK= 0.72E-02 mag=     -0.136
       N       E                     dE             d eps       ncg     rms          rms(c)
DAV:   1    -0.328100686539E+02    0.14774E-01   -0.23473E-02  2840   0.119E+00    0.421E-02
RMM:   2    -0.328111649535E+02   -0.10963E-02   -0.42284E-03  1553   0.258E-01
   1613 T=   962. E= -.26476622E+02 F= -.32811165E+02 E0= -.32770450E+02  EK= 0.32333E+01 SP= 0.31E+01 SK= 0.24E-02 mag=     -0.143
       N       E                     dE             d eps       ncg     rms          rms(c)
DAV:   1    -0.327977531917E+02    0.12315E-01   -0.17873E-02  2544   0.117E+00    0.311E-02
RMM:   2    -0.327987690253E+02   -0.10158E-02   -0.42877E-03  1568   0.312E-01
   1614 T=   963. E= -.26472633E+02 F= -.32798769E+02 E0= -.32757661E+02  EK= 0.32380E+01 SP= 0.31E+01 SK= 0.13E-03 mag=     -0.037
       N       E                     dE             d eps       ncg     rms          rms(c)
DAV:   1    -0.327869046098E+02    0.10849E-01   -0.20430E-02  2856   0.125E+00    0.356E-02
RMM:   2    -0.327881165768E+02   -0.12120E-02   -0.54168E-03  1603   0.300E-01
   1615 T=   961. E= -.26467351E+02 F= -.32788117E+02 E0= -.32746843E+02  EK= 0.32296E+01 SP= 0.31E+01 SK= 0.65E-03 mag=      0.110
       N       E                     dE             d eps       ncg     rms          rms(c)
DAV:   1    -0.327789073404E+02    0.79973E-02   -0.15073E-02  2504   0.115E+00    0.482E-02
RMM:   2    -0.327801406541E+02   -0.12333E-02   -0.45055E-03  1552   0.305E-01
   1616 T=   954. E= -.26462266E+02 F= -.32780141E+02 E0= -.32738828E+02  EK= 0.32076E+01 SP= 0.31E+01 SK= 0.38E-02 mag=      0.181
       N       E                     dE             d eps       ncg     rms          rms(c)
DAV:   1    -0.327737710839E+02    0.51363E-02   -0.20461E-02  2600   0.123E+00    0.363E-02
RMM:   2    -0.327749197609E+02   -0.11487E-02   -0.52471E-03  1610   0.295E-01
   1617 T=   944. E= -.26456662E+02 F= -.32774920E+02 E0= -.32733438E+02  EK= 0.31739E+01 SP= 0.31E+01 SK= 0.91E-02 mag=      0.111
       N       E                     dE             d eps       ncg     rms          rms(c)
DAV:   1    -0.327705546063E+02    0.32165E-02   -0.15914E-02  2336   0.114E+00    0.296E-02
RMM:   2    -0.327716761254E+02   -0.11215E-02   -0.57317E-03  1607   0.338E-01
   1618 T=   931. E= -.26451304E+02 F= -.32771676E+02 E0= -.32730127E+02  EK= 0.31284E+01 SP= 0.32E+01 SK= 0.16E-01 mag=     -0.065
       N       E                     dE             d eps       ncg     rms          rms(c)
DAV:   1    -0.327685406935E+02    0.20139E-02   -0.19050E-02  2768   0.119E+00    0.552E-02
RMM:   2    -0.327700149267E+02   -0.14742E-02   -0.53546E-03  1566   0.304E-01    0.429E-02
RMM:   3    -0.327707190537E+02   -0.70413E-03   -0.19186E-03  1428   0.122E-01
   1619 T=   914. E= -.26446764E+02 F= -.32770719E+02 E0= -.32729303E+02  EK= 0.30726E+01 SP= 0.32E+01 SK= 0.24E-01 mag=     -0.065
       N       E                     dE             d eps       ncg     rms          rms(c)
DAV:   1    -0.327705197688E+02   -0.50484E-03   -0.17602E-02  2536   0.112E+00    0.484E-02
RMM:   2    -0.327716045641E+02   -0.10848E-02   -0.35223E-03  1498   0.291E-01
   1620 T=   896. E= -.26439579E+02 F= -.32771605E+02 E0= -.32730262E+02  EK= 0.30117E+01 SP= 0.33E+01 SK= 0.32E-01 mag=      0.062
       N       E                     dE             d eps       ncg     rms          rms(c)
DAV:   1    -0.327721549302E+02   -0.16352E-02   -0.28003E-02  3064   0.123E+00    0.622E-02
RMM:   2    -0.327736052989E+02   -0.14504E-02   -0.45583E-03  1532   0.253E-01    0.472E-02
RMM:   3    -0.327743410351E+02   -0.73574E-03   -0.14291E-03  1411   0.102E-01
   1621 T=   876. E= -.26433483E+02 F= -.32774341E+02 E0= -.32733160E+02  EK= 0.29441E+01 SP= 0.34E+01 SK= 0.39E-01 mag=      0.074
       N       E                     dE             d eps       ncg     rms          rms(c)
DAV:   1    -0.327776633040E+02   -0.40580E-02   -0.13113E-02  2168   0.106E+00    0.527E-02
RMM:   2    -0.327787394117E+02   -0.10761E-02   -0.35963E-03  1508   0.256E-01
   1622 T=   854. E= -.26429312E+02 F= -.32778739E+02 E0= -.32737658E+02  EK= 0.28713E+01 SP= 0.34E+01 SK= 0.45E-01 mag=     -0.010
       N       E                     dE             d eps       ncg     rms          rms(c)
DAV:   1    -0.327825117566E+02   -0.48485E-02   -0.25801E-02  3072   0.121E+00    0.668E-02
RMM:   2    -0.327839610185E+02   -0.14493E-02   -0.44234E-03  1546   0.242E-01    0.490E-02
RMM:   3    -0.327847004008E+02   -0.73938E-03   -0.14596E-03  1402   0.103E-01
   1623 T=   832. E= -.26425314E+02 F= -.32784700E+02 E0= -.32743791E+02  EK= 0.27972E+01 SP= 0.35E+01 SK= 0.50E-01 mag=     -0.031
       N       E                     dE             d eps       ncg     rms          rms(c)
DAV:   1    -0.327903257627E+02   -0.63647E-02   -0.20371E-02  2328   0.103E+00    0.734E-02
RMM:   2    -0.327917205270E+02   -0.13948E-02   -0.36003E-03  1506   0.273E-01    0.501E-02
RMM:   3    -0.327921599743E+02   -0.43945E-03   -0.10930E-03  1326   0.106E-01
   1624 T=   810. E= -.26422068E+02 F= -.32792160E+02 E0= -.32751365E+02  EK= 0.27233E+01 SP= 0.36E+01 SK= 0.52E-01 mag=     -0.016
       N       E                     dE             d eps       ncg     rms          rms(c)
DAV:   1    -0.327999489252E+02   -0.82284E-02   -0.33024E-02  2800   0.109E+00    0.407E-02
RMM:   2    -0.328007132131E+02   -0.76429E-03   -0.41172E-03  1565   0.264E-01
   1625 T=   790. E= -.26416612E+02 F= -.32800713E+02 E0= -.32760027E+02  EK= 0.26540E+01 SP= 0.37E+01 SK= 0.52E-01 mag=      0.030
       N       E                     dE             d eps       ncg     rms          rms(c)
DAV:   1    -0.328092327101E+02   -0.92838E-02   -0.19599E-02  2536   0.107E+00    0.362E-02
RMM:   2    -0.328100294768E+02   -0.79677E-03   -0.44217E-03  1566   0.278E-01
   1626 T=   770. E= -.26412455E+02 F= -.32810029E+02 E0= -.32769492E+02  EK= 0.25871E+01 SP= 0.38E+01 SK= 0.50E-01 mag=      0.073
       N       E                     dE             d eps       ncg     rms          rms(c)
DAV:   1    -0.328193676124E+02   -0.10135E-01   -0.10971E-02  2496   0.103E+00    0.347E-02
RMM:   2    -0.328201195735E+02   -0.75196E-03   -0.40763E-03  1555   0.297E-01
   1627 T=   752. E= -.26407369E+02 F= -.32820120E+02 E0= -.32779670E+02  EK= 0.25262E+01 SP= 0.38E+01 SK= 0.46E-01 mag=      0.072
       N       E                     dE             d eps       ncg     rms          rms(c)
DAV:   1    -0.328301428199E+02   -0.10775E-01   -0.13427E-02  2536   0.113E+00    0.357E-02
RMM:   2    -0.328308753407E+02   -0.73252E-03   -0.37989E-03  1526   0.268E-01
   1628 T=   736. E= -.26401253E+02 F= -.32830875E+02 E0= -.32790473E+02  EK= 0.24725E+01 SP= 0.39E+01 SK= 0.40E-01 mag=      0.013
       N       E                     dE             d eps       ncg     rms          rms(c)
DAV:   1    -0.328417071833E+02   -0.11564E-01   -0.77650E-03  2272   0.978E-01    0.319E-02
RMM:   2    -0.328423821072E+02   -0.67492E-03   -0.35561E-03  1531   0.273E-01
   1629 T=   722. E= -.26395165E+02 F= -.32842382E+02 E0= -.32802038E+02  EK= 0.24257E+01 SP= 0.40E+01 SK= 0.34E-01 mag=     -0.071
       N       E                     dE             d eps       ncg     rms          rms(c)
DAV:   1    -0.328538679184E+02   -0.12161E-01   -0.10433E-02  2440   0.105E+00    0.388E-02
RMM:   2    -0.328546023331E+02   -0.73441E-03   -0.38309E-03  1526   0.261E-01
   1630 T=   710. E= -.26389303E+02 F= -.32854602E+02 E0= -.32814322E+02  EK= 0.23864E+01 SP= 0.41E+01 SK= 0.27E-01 mag=     -0.106
       N       E                     dE             d eps       ncg     rms          rms(c)
DAV:   1    -0.328669040809E+02   -0.13036E-01   -0.91216E-03  2176   0.982E-01    0.361E-02
RMM:   2    -0.328676200418E+02   -0.71596E-03   -0.39829E-03  1520   0.287E-01
   1631 T=   701. E= -.26383550E+02 F= -.32867620E+02 E0= -.32827282E+02  EK= 0.23551E+01 SP= 0.41E+01 SK= 0.21E-01 mag=     -0.066
       N       E                     dE             d eps       ncg     rms          rms(c)
DAV:   1    -0.328802798191E+02   -0.13376E-01   -0.12630E-02  2568   0.105E+00    0.438E-02
RMM:   2    -0.328811247912E+02   -0.84497E-03   -0.42593E-03  1552   0.263E-01
   1632 T=   694. E= -.26377755E+02 F= -.32881125E+02 E0= -.32840740E+02  EK= 0.23322E+01 SP= 0.42E+01 SK= 0.15E-01 mag=      0.032
       N       E                     dE             d eps       ncg     rms          rms(c)
DAV:   1    -0.328947222185E+02   -0.14442E-01   -0.95738E-03  2304   0.965E-01    0.406E-02
RMM:   2    -0.328954991279E+02   -0.77691E-03   -0.40918E-03  1558   0.281E-01
   1633 T=   690. E= -.26372529E+02 F= -.32895499E+02 E0= -.32855119E+02  EK= 0.23175E+01 SP= 0.42E+01 SK= 0.92E-02 mag=      0.135
       N       E                     dE             d eps       ncg     rms          rms(c)
DAV:   1    -0.329097055006E+02   -0.14983E-01   -0.14070E-02  2592   0.103E+00    0.519E-02
RMM:   2    -0.329105862244E+02   -0.88072E-03   -0.39642E-03  1527   0.265E-01
   1634 T=   688. E= -.26367079E+02 F= -.32910586E+02 E0= -.32870226E+02  EK= 0.23118E+01 SP= 0.42E+01 SK= 0.50E-02 mag=      0.158
       N       E                     dE             d eps       ncg     rms          rms(c)
DAV:   1    -0.329260973981E+02   -0.16392E-01   -0.91642E-03  2176   0.965E-01    0.472E-02
RMM:   2    -0.329269476252E+02   -0.85023E-03   -0.40402E-03  1543   0.278E-01
   1635 T=   689. E= -.26361980E+02 F= -.32926948E+02 E0= -.32886366E+02  EK= 0.23150E+01 SP= 0.42E+01 SK= 0.21E-02 mag=      0.072
       N       E                     dE             d eps       ncg     rms          rms(c)
DAV:   1    -0.329431965569E+02   -0.17099E-01   -0.11470E-02  2624   0.102E+00    0.486E-02
RMM:   2    -0.329440969835E+02   -0.90043E-03   -0.46100E-03  1585   0.262E-01
   1636 T=   692. E= -.26356951E+02 F= -.32944097E+02 E0= -.32903371E+02  EK= 0.23269E+01 SP= 0.43E+01 SK= 0.42E-03 mag=     -0.080
       N       E                     dE             d eps       ncg     rms          rms(c)
DAV:   1    -0.329608293586E+02   -0.17633E-01   -0.11519E-02  2360   0.953E-01    0.541E-02
RMM:   2    -0.329617990352E+02   -0.96968E-03   -0.42775E-03  1535   0.283E-01
   1637 T=   698. E= -.26352303E+02 F= -.32961799E+02 E0= -.32921173E+02  EK= 0.23466E+01 SP= 0.43E+01 SK= 0.11E-04 mag=     -0.213
       N       E                     dE             d eps       ncg     rms          rms(c)
DAV:   1    -0.329792240287E+02   -0.18395E-01   -0.12354E-02  2584   0.102E+00    0.660E-02
RMM:   2    -0.329805166896E+02   -0.12927E-02   -0.43469E-03  1519   0.259E-01
   1638 T=   707. E= -.26347509E+02 F= -.32980517E+02 E0= -.32939880E+02  EK= 0.23749E+01 SP= 0.43E+01 SK= 0.65E-03 mag=     -0.200
       N       E                     dE             d eps       ncg     rms          rms(c)
DAV:   1    -0.330008786858E+02   -0.21655E-01   -0.11854E-02  2416   0.987E-01    0.596E-02
RMM:   2    -0.330017671318E+02   -0.88845E-03   -0.43751E-03  1529   0.288E-01
   1639 T=   718. E= -.26343600E+02 F= -.33001767E+02 E0= -.32960506E+02  EK= 0.24118E+01 SP= 0.42E+01 SK= 0.21E-02 mag=     -0.028
       N       E                     dE             d eps       ncg     rms          rms(c)
DAV:   1    -0.330217752268E+02   -0.20897E-01   -0.15551E-02  2672   0.102E+00    0.662E-02
RMM:   2    -0.330229184735E+02   -0.11432E-02   -0.47747E-03  1531   0.279E-01
   1640 T=   731. E= -.26338598E+02 F= -.33022918E+02 E0= -.32981725E+02  EK= 0.24561E+01 SP= 0.42E+01 SK= 0.39E-02 mag=      0.216
       N       E                     dE             d eps       ncg     rms          rms(c)
DAV:   1    -0.330425937439E+02   -0.20819E-01   -0.12088E-02  2304   0.100E+00    0.832E-02
RMM:   2    -0.330444619938E+02   -0.18682E-02   -0.52679E-03  1539   0.293E-01    0.653E-02
RMM:   3    -0.330455895850E+02   -0.11276E-02   -0.21513E-03  1421   0.125E-01
   1641 T=   746. E= -.26335234E+02 F= -.33045590E+02 E0= -.33004455E+02  EK= 0.25059E+01 SP= 0.42E+01 SK= 0.59E-02 mag=      0.162
       N       E                     dE             d eps       ncg     rms          rms(c)
DAV:   1    -0.330692460426E+02   -0.24784E-01   -0.20040E-02  2536   0.102E+00    0.740E-02
RMM:   2    -0.330703528169E+02   -0.11068E-02   -0.37297E-03  1444   0.267E-01
   1642 T=   763. E= -.26330666E+02 F= -.33070353E+02 E0= -.33028493E+02  EK= 0.25638E+01 SP= 0.42E+01 SK= 0.76E-02 mag=     -0.135
       N       E                     dE             d eps       ncg     rms          rms(c)
DAV:   1    -0.330899478345E+02   -0.20702E-01   -0.32264E-02  2896   0.110E+00    0.106E-01
RMM:   2    -0.330924943481E+02   -0.25465E-02   -0.52939E-03  1520   0.251E-01    0.818E-02
RMM:   3    -0.330944934533E+02   -0.19991E-02   -0.26617E-03  1406   0.112E-01    0.573E-02
RMM:   4    -0.330956456603E+02   -0.11522E-02   -0.17310E-03  1395   0.808E-02
   1643 T=   781. E= -.26326925E+02 F= -.33095646E+02 E0= -.33053569E+02  EK= 0.26250E+01 SP= 0.41E+01 SK= 0.88E-02 mag=     -0.067
       N       E                     dE             d eps       ncg     rms          rms(c)
DAV:   1    -0.331172215583E+02   -0.22728E-01   -0.18994E-02  2360   0.999E-01    0.113E-01
RMM:   2    -0.331195659854E+02   -0.23444E-02   -0.53476E-03  1424   0.244E-01    0.803E-02
RMM:   3    -0.331209866203E+02   -0.14206E-02   -0.23078E-03  1400   0.106E-01    0.496E-02
RMM:   4    -0.331216649035E+02   -0.67828E-03   -0.11638E-03  1376   0.716E-02
   1644 T=   799. E= -.26326224E+02 F= -.33121665E+02 E0= -.33079141E+02  EK= 0.26861E+01 SP= 0.41E+01 SK= 0.92E-02 mag=      0.095
       N       E                     dE             d eps       ncg     rms          rms(c)
DAV:   1    -0.331467781068E+02   -0.25791E-01   -0.22567E-02  2784   0.110E+00    0.768E-02
RMM:   2    -0.331478022055E+02   -0.10241E-02   -0.35904E-03  1511   0.243E-01
   1645 T=   819. E= -.26322754E+02 F= -.33147802E+02 E0= -.33105314E+02  EK= 0.27511E+01 SP= 0.41E+01 SK= 0.88E-02 mag=      0.215
       N       E                     dE             d eps       ncg     rms          rms(c)
DAV:   1    -0.331742486431E+02   -0.27471E-01   -0.16925E-02  2744   0.107E+00    0.615E-02
RMM:   2    -0.331753447016E+02   -0.10961E-02   -0.39239E-03  1542   0.267E-01
   1646 T=   838. E= -.26320744E+02 F= -.33175345E+02 E0= -.33132391E+02  EK= 0.28152E+01 SP= 0.40E+01 SK= 0.77E-02 mag=      0.202
       N       E                     dE             d eps       ncg     rms          rms(c)
DAV:   1    -0.332025045133E+02   -0.28256E-01   -0.11590E-02  2464   0.111E+00    0.402E-02
RMM:   2    -0.332033692102E+02   -0.86470E-03   -0.37891E-03  1530   0.274E-01
   1647 T=   856. E= -.26318152E+02 F= -.33203369E+02 E0= -.33159802E+02  EK= 0.28779E+01 SP= 0.40E+01 SK= 0.59E-02 mag=      0.036
       N       E                     dE             d eps       ncg     rms          rms(c)
DAV:   1    -0.332295224795E+02   -0.27018E-01   -0.15126E-02  2552   0.113E+00    0.495E-02
RMM:   2    -0.332305561121E+02   -0.10336E-02   -0.44559E-03  1530   0.291E-01
   1648 T=   874. E= -.26312912E+02 F= -.33230556E+02 E0= -.33186956E+02  EK= 0.29380E+01 SP= 0.40E+01 SK= 0.38E-02 mag=     -0.204
       N       E                     dE             d eps       ncg     rms          rms(c)
DAV:   1    -0.332547496821E+02   -0.25227E-01   -0.11567E-02  2440   0.112E+00    0.764E-02
RMM:   2    -0.332565342890E+02   -0.17846E-02   -0.50698E-03  1526   0.306E-01    0.608E-02
RMM:   3    -0.332576296575E+02   -0.10954E-02   -0.21537E-03  1404   0.125E-01
   1649 T=   890. E= -.26309192E+02 F= -.33257630E+02 E0= -.33213944E+02  EK= 0.29902E+01 SP= 0.40E+01 SK= 0.19E-02 mag=     -0.152
       N       E                     dE             d eps       ncg     rms          rms(c)
DAV:   1    -0.332833357265E+02   -0.26801E-01   -0.17833E-02  2672   0.111E+00    0.552E-02
RMM:   2    -0.332844501715E+02   -0.11144E-02   -0.34019E-03  1489   0.276E-01
   1650 T=   903. E= -.26303278E+02 F= -.33284450E+02 E0= -.33240168E+02  EK= 0.30364E+01 SP= 0.39E+01 SK= 0.45E-03 mag=      0.129
       N       E                     dE             d eps       ncg     rms          rms(c)
DAV:   1    -0.333056470601E+02   -0.22311E-01   -0.29426E-02  2944   0.122E+00    0.917E-02
RMM:   2    -0.333078604371E+02   -0.22134E-02   -0.53431E-03  1529   0.270E-01    0.732E-02
RMM:   3    -0.333093339732E+02   -0.14735E-02   -0.20281E-03  1421   0.114E-01    0.516E-02
RMM:   4    -0.333102431903E+02   -0.90922E-03   -0.11991E-03  1382   0.799E-02
   1651 T=   914. E= -.26298576E+02 F= -.33310243E+02 E0= -.33265819E+02  EK= 0.30708E+01 SP= 0.39E+01 SK= 0.12E-04 mag=      0.059
       N       E                     dE             d eps       ncg     rms          rms(c)
DAV:   1    -0.333315930466E+02   -0.22259E-01   -0.14739E-02  2416   0.109E+00    0.886E-02
RMM:   2    -0.333334905821E+02   -0.18975E-02   -0.44843E-03  1462   0.263E-01    0.667E-02
RMM:   3    -0.333343796660E+02   -0.88908E-03   -0.15666E-03  1402   0.104E-01
   1652 T=   920. E= -.26295781E+02 F= -.33334380E+02 E0= -.33289813E+02  EK= 0.30909E+01 SP= 0.39E+01 SK= 0.90E-03 mag=     -0.128
       N       E                     dE             d eps       ncg     rms          rms(c)
DAV:   1    -0.333554097174E+02   -0.21919E-01   -0.34422E-02  2768   0.115E+00    0.715E-02
RMM:   2    -0.333566577803E+02   -0.12481E-02   -0.45563E-03  1518   0.290E-01
   1653 T=   922. E= -.26290594E+02 F= -.33356658E+02 E0= -.33312252E+02  EK= 0.31000E+01 SP= 0.40E+01 SK= 0.33E-02 mag=     -0.274
       N       E                     dE             d eps       ncg     rms          rms(c)
DAV:   1    -0.333763363827E+02   -0.20927E-01   -0.22926E-02  2624   0.118E+00    0.665E-02
RMM:   2    -0.333776165511E+02   -0.12802E-02   -0.47093E-03  1552   0.287E-01
   1654 T=   921. E= -.26287053E+02 F= -.33377617E+02 E0= -.33332988E+02  EK= 0.30945E+01 SP= 0.40E+01 SK= 0.73E-02 mag=     -0.246
       N       E                     dE             d eps       ncg     rms          rms(c)
DAV:   1    -0.333962276267E+02   -0.19891E-01   -0.13918E-02  2504   0.112E+00    0.367E-02
RMM:   2    -0.333971302829E+02   -0.90266E-03   -0.42462E-03  1532   0.295E-01
   1655 T=   916. E= -.26282092E+02 F= -.33397130E+02 E0= -.33352103E+02  EK= 0.30776E+01 SP= 0.40E+01 SK= 0.13E-01 mag=     -0.037
       N       E                     dE             d eps       ncg     rms          rms(c)
DAV:   1    -0.334119206275E+02   -0.15693E-01   -0.17259E-02  2624   0.125E+00    0.554E-02
RMM:   2    -0.334130733390E+02   -0.11527E-02   -0.47249E-03  1518   0.283E-01
   1656 T=   907. E= -.26274527E+02 F= -.33413073E+02 E0= -.33368398E+02  EK= 0.30492E+01 SP= 0.41E+01 SK= 0.19E-01 mag=      0.231
       N       E                     dE             d eps       ncg     rms          rms(c)
DAV:   1    -0.334245014149E+02   -0.12581E-01   -0.11166E-02  2432   0.109E+00    0.811E-02
RMM:   2    -0.334261993940E+02   -0.16980E-02   -0.46317E-03  1521   0.306E-01    0.621E-02
RMM:   3    -0.334271295798E+02   -0.93019E-03   -0.17309E-03  1405   0.123E-01
   1657 T=   895. E= -.26269463E+02 F= -.33427130E+02 E0= -.33382755E+02  EK= 0.30069E+01 SP= 0.41E+01 SK= 0.26E-01 mag=      0.120
       N       E                     dE             d eps       ncg     rms          rms(c)
DAV:   1    -0.334375439418E+02   -0.11345E-01   -0.19589E-02  2576   0.110E+00    0.726E-02
RMM:   2    -0.334389979904E+02   -0.14540E-02   -0.39824E-03  1480   0.292E-01    0.542E-02
RMM:   3    -0.334393917153E+02   -0.39372E-03   -0.97262E-04  1270   0.104E-01
   1658 T=   879. E= -.26264188E+02 F= -.33439392E+02 E0= -.33394895E+02  EK= 0.29553E+01 SP= 0.42E+01 SK= 0.33E-01 mag=     -0.120
       N       E                     dE             d eps       ncg     rms          rms(c)
DAV:   1    -0.334467098695E+02   -0.77119E-02   -0.34399E-02  2504   0.110E+00    0.716E-02
RMM:   2    -0.334480779925E+02   -0.13681E-02   -0.49753E-03  1537   0.283E-01    0.539E-02
RMM:   3    -0.334486947622E+02   -0.61677E-03   -0.13061E-03  1490   0.119E-01
   1659 T=   862. E= -.26258199E+02 F= -.33448695E+02 E0= -.33404586E+02  EK= 0.28956E+01 SP= 0.43E+01 SK= 0.39E-01 mag=     -0.153
       N       E                     dE             d eps       ncg     rms          rms(c)
DAV:   1    -0.334558894634E+02   -0.78115E-02   -0.12986E-02  2408   0.110E+00    0.331E-02
RMM:   2    -0.334565539834E+02   -0.66452E-03   -0.35514E-03  1524   0.268E-01
   1660 T=   843. E= -.26251126E+02 F= -.33456554E+02 E0= -.33412300E+02  EK= 0.28317E+01 SP= 0.43E+01 SK= 0.43E-01 mag=      0.012
       N       E                     dE             d eps       ncg     rms          rms(c)
DAV:   1    -0.334597148208E+02   -0.38254E-02   -0.17867E-02  2904   0.110E+00    0.592E-02
RMM:   2    -0.334607977818E+02   -0.10830E-02   -0.45174E-03  1529   0.265E-01
   1661 T=   822. E= -.26243634E+02 F= -.33460798E+02 E0= -.33417117E+02  EK= 0.27627E+01 SP= 0.44E+01 SK= 0.46E-01 mag=      0.195
       N       E                     dE             d eps       ncg     rms          rms(c)
DAV:   1    -0.334626552058E+02   -0.29404E-02   -0.10947E-02  2160   0.109E+00    0.638E-02
RMM:   2    -0.334637102578E+02   -0.10551E-02   -0.43492E-03  1518   0.297E-01
   1662 T=   800. E= -.26238489E+02 F= -.33463710E+02 E0= -.33420458E+02  EK= 0.26902E+01 SP= 0.45E+01 SK= 0.48E-01 mag=      0.238
       N       E                     dE             d eps       ncg     rms          rms(c)
DAV:   1    -0.334647614168E+02   -0.21062E-02   -0.13785E-02  2704   0.110E+00    0.340E-02
RMM:   2    -0.334655481751E+02   -0.78676E-03   -0.40588E-03  1532   0.268E-01
   1663 T=   779. E= -.26232647E+02 F= -.33465548E+02 E0= -.33422311E+02  EK= 0.26195E+01 SP= 0.46E+01 SK= 0.47E-01 mag=      0.107
       N       E                     dE             d eps       ncg     rms          rms(c)
DAV:   1    -0.334642710844E+02    0.49033E-03   -0.97293E-03  2128   0.101E+00    0.420E-02
RMM:   2    -0.334650953408E+02   -0.82426E-03   -0.43294E-03  1522   0.295E-01
   1664 T=   759. E= -.26225202E+02 F= -.33465095E+02 E0= -.33422165E+02  EK= 0.25517E+01 SP= 0.46E+01 SK= 0.44E-01 mag=     -0.119
       N       E                     dE             d eps       ncg     rms          rms(c)
DAV:   1    -0.334612323260E+02    0.30388E-02   -0.12134E-02  2488   0.106E+00    0.678E-02
RMM:   2    -0.334624788620E+02   -0.12465E-02   -0.41223E-03  1497   0.269E-01
   1665 T=   740. E= -.26216772E+02 F= -.33462479E+02 E0= -.33420254E+02  EK= 0.24878E+01 SP= 0.47E+01 SK= 0.39E-01 mag=     -0.263
       N       E                     dE             d eps       ncg     rms          rms(c)
DAV:   1    -0.334585910248E+02    0.26413E-02   -0.10743E-02  2456   0.103E+00    0.551E-02
RMM:   2    -0.334596834128E+02   -0.10924E-02   -0.45925E-03  1520   0.294E-01
   1666 T=   723. E= -.26209700E+02 F= -.33459683E+02 E0= -.33417713E+02  EK= 0.24285E+01 SP= 0.48E+01 SK= 0.33E-01 mag=     -0.212
       N       E                     dE             d eps       ncg     rms          rms(c)
DAV:   1    -0.334552711947E+02    0.33198E-02   -0.12089E-02  2352   0.101E+00    0.382E-02
RMM:   2    -0.334560593989E+02   -0.78820E-03   -0.44263E-03  1536   0.289E-01
   1667 T=   707. E= -.26203180E+02 F= -.33456059E+02 E0= -.33414106E+02  EK= 0.23751E+01 SP= 0.49E+01 SK= 0.26E-01 mag=      0.013
       N       E                     dE             d eps       ncg     rms          rms(c)
DAV:   1    -0.334488209978E+02    0.64502E-02   -0.10796E-02  2400   0.975E-01    0.694E-02
RMM:   2    -0.334500610387E+02   -0.12400E-02   -0.45490E-03  1529   0.280E-01
   1668 T=   693. E= -.26195376E+02 F= -.33450061E+02 E0= -.33408687E+02  EK= 0.23286E+01 SP= 0.49E+01 SK= 0.19E-01 mag=      0.250
       N       E                     dE             d eps       ncg     rms          rms(c)
DAV:   1    -0.334421580277E+02    0.66630E-02   -0.13719E-02  2464   0.101E+00    0.797E-02
RMM:   2    -0.334438526308E+02   -0.16946E-02   -0.49390E-03  1512   0.281E-01    0.630E-02
RMM:   3    -0.334450362817E+02   -0.11837E-02   -0.21260E-03  1430   0.117E-01
   1669 T=   681. E= -.26190042E+02 F= -.33445036E+02 E0= -.33403933E+02  EK= 0.22890E+01 SP= 0.50E+01 SK= 0.13E-01 mag=      0.082
       N       E                     dE             d eps       ncg     rms          rms(c)
DAV:   1    -0.334362922484E+02    0.75604E-02   -0.14971E-02  2400   0.932E-01    0.880E-02
RMM:   2    -0.334380909808E+02   -0.17987E-02   -0.33125E-03  1417   0.230E-01    0.687E-02
RMM:   3    -0.334388580623E+02   -0.76708E-03   -0.96453E-04  1333   0.844E-02
   1670 T=   671. E= -.26185586E+02 F= -.33438858E+02 E0= -.33398011E+02  EK= 0.22564E+01 SP= 0.50E+01 SK= 0.73E-02 mag=     -0.127
       N       E                     dE             d eps       ncg     rms          rms(c)
DAV:   1    -0.334314408229E+02    0.66502E-02   -0.38350E-02  2184   0.955E-01    0.663E-02
RMM:   2    -0.334324846790E+02   -0.10439E-02   -0.47585E-03  1536   0.276E-01
   1671 T=   665. E= -.26179457E+02 F= -.33432485E+02 E0= -.33391948E+02  EK= 0.22345E+01 SP= 0.50E+01 SK= 0.31E-02 mag=     -0.222
       N       E                     dE             d eps       ncg     rms          rms(c)
DAV:   1    -0.334255326868E+02    0.59081E-02   -0.24472E-02  2488   0.983E-01    0.503E-02
RMM:   2    -0.334263308314E+02   -0.79814E-03   -0.40518E-03  1523   0.264E-01
   1672 T=   661. E= -.26174053E+02 F= -.33426331E+02 E0= -.33385798E+02  EK= 0.22216E+01 SP= 0.50E+01 SK= 0.59E-03 mag=     -0.134
       N       E                     dE             d eps       ncg     rms          rms(c)
DAV:   1    -0.334188726504E+02    0.66600E-02   -0.11166E-02  2408   0.924E-01    0.424E-02
RMM:   2    -0.334195049142E+02   -0.63226E-03   -0.33562E-03  1527   0.264E-01
   1673 T=   659. E= -.26170120E+02 F= -.33419505E+02 E0= -.33379031E+02  EK= 0.22162E+01 SP= 0.50E+01 SK= 0.56E-04 mag=      0.073
       N       E                     dE             d eps       ncg     rms          rms(c)
DAV:   1    -0.334101230687E+02    0.87496E-02   -0.11217E-02  2272   0.994E-01    0.667E-02
RMM:   2    -0.334112595715E+02   -0.11365E-02   -0.42404E-03  1527   0.257E-01
   1674 T=   661. E= -.26164605E+02 F= -.33411260E+02 E0= -.33371223E+02  EK= 0.22205E+01 SP= 0.50E+01 SK= 0.15E-02 mag=      0.242
       N       E                     dE             d eps       ncg     rms          rms(c)
DAV:   1    -0.334021918470E+02    0.79312E-02   -0.89562E-03  2344   0.924E-01    0.669E-02
RMM:   2    -0.334034153029E+02   -0.12235E-02   -0.37106E-03  1501   0.255E-01
   1675 T=   665. E= -.26158381E+02 F= -.33403415E+02 E0= -.33363609E+02  EK= 0.22356E+01 SP= 0.50E+01 SK= 0.50E-02 mag=      0.179
       N       E                     dE             d eps       ncg     rms          rms(c)
DAV:   1    -0.333960405727E+02    0.61513E-02   -0.12142E-02  2560   0.101E+00    0.418E-02
RMM:   2    -0.333966769311E+02   -0.63636E-03   -0.36995E-03  1518   0.266E-01
   1676 T=   673. E= -.26153111E+02 F= -.33396677E+02 E0= -.33356543E+02  EK= 0.22603E+01 SP= 0.50E+01 SK= 0.10E-01 mag=     -0.064
       N       E                     dE             d eps       ncg     rms          rms(c)
DAV:   1    -0.333852445455E+02    0.10796E-01   -0.15765E-02  2312   0.922E-01    0.806E-02
RMM:   2    -0.333868854087E+02   -0.16409E-02   -0.51053E-03  1525   0.282E-01    0.621E-02
RMM:   3    -0.333879842186E+02   -0.10988E-02   -0.18975E-03  1467   0.119E-01
   1677 T=   682. E= -.26148283E+02 F= -.33387984E+02 E0= -.33348104E+02  EK= 0.22920E+01 SP= 0.49E+01 SK= 0.16E-01 mag=     -0.089
       N       E                     dE             d eps       ncg     rms          rms(c)
DAV:   1    -0.333785350786E+02    0.83503E-02   -0.13683E-02  2464   0.953E-01    0.552E-02
RMM:   2    -0.333793436481E+02   -0.80857E-03   -0.28101E-03  1509   0.223E-01
   1678 T=   694. E= -.26143697E+02 F= -.33379344E+02 E0= -.33339352E+02  EK= 0.23324E+01 SP= 0.49E+01 SK= 0.24E-01 mag=      0.048
       N       E                     dE             d eps       ncg     rms          rms(c)
DAV:   1    -0.333678183361E+02    0.10717E-01   -0.20763E-02  2576   0.104E+00    0.738E-02
RMM:   2    -0.333691346124E+02   -0.13163E-02   -0.40986E-03  1529   0.246E-01
   1679 T=   708. E= -.26138114E+02 F= -.33369135E+02 E0= -.33329173E+02  EK= 0.23808E+01 SP= 0.48E+01 SK= 0.31E-01 mag=      0.170
       N       E                     dE             d eps       ncg     rms          rms(c)
DAV:   1    -0.333579607053E+02    0.98576E-02   -0.90844E-03  1912   0.934E-01    0.552E-02
RMM:   2    -0.333589383164E+02   -0.97761E-03   -0.49707E-03  1551   0.287E-01
   1680 T=   725. E= -.26133981E+02 F= -.33358938E+02 E0= -.33319045E+02  EK= 0.24357E+01 SP= 0.48E+01 SK= 0.38E-01 mag=      0.172
       N       E                     dE             d eps       ncg     rms          rms(c)
DAV:   1    -0.333459986313E+02    0.11962E-01   -0.18952E-02  2624   0.113E+00    0.569E-02
RMM:   2    -0.333471316709E+02   -0.11330E-02   -0.46772E-03  1538   0.280E-01
   1681 T=   743. E= -.26128938E+02 F= -.33347132E+02 E0= -.33307099E+02  EK= 0.24972E+01 SP= 0.47E+01 SK= 0.44E-01 mag=      0.056
       N       E                     dE             d eps       ncg     rms          rms(c)
DAV:   1    -0.333329224839E+02    0.13076E-01   -0.14281E-02  2304   0.971E-01    0.580E-02
RMM:   2    -0.333340932038E+02   -0.11707E-02   -0.54676E-03  1529   0.312E-01
   1682 T=   763. E= -.26123559E+02 F= -.33334093E+02 E0= -.33293865E+02  EK= 0.25639E+01 SP= 0.46E+01 SK= 0.49E-01 mag=     -0.106
       N       E                     dE             d eps       ncg     rms          rms(c)
DAV:   1    -0.333178208610E+02    0.15102E-01   -0.18278E-02  2496   0.109E+00    0.608E-02
RMM:   2    -0.333191094773E+02   -0.12886E-02   -0.52175E-03  1533   0.295E-01
   1683 T=   784. E= -.26117400E+02 F= -.33319109E+02 E0= -.33279049E+02  EK= 0.26344E+01 SP= 0.45E+01 SK= 0.52E-01 mag=     -0.194
       N       E                     dE             d eps       ncg     rms          rms(c)
DAV:   1    -0.333009734858E+02    0.16847E-01   -0.15376E-02  2512   0.104E+00    0.725E-02
RMM:   2    -0.333025483333E+02   -0.15748E-02   -0.58302E-03  1566   0.308E-01    0.541E-02
RMM:   3    -0.333031167504E+02   -0.56842E-03   -0.16685E-03  1488   0.122E-01
   1684 T=   805. E= -.26113343E+02 F= -.33303117E+02 E0= -.33262911E+02  EK= 0.27054E+01 SP= 0.44E+01 SK= 0.52E-01 mag=     -0.081
       N       E                     dE             d eps       ncg     rms          rms(c)
DAV:   1    -0.332838169804E+02    0.18731E-01   -0.24886E-02  2568   0.107E+00    0.620E-02
RMM:   2    -0.332851539545E+02   -0.13370E-02   -0.39666E-03  1435   0.263E-01
   1685 T=   827. E= -.26107485E+02 F= -.33285154E+02 E0= -.33244826E+02  EK= 0.27779E+01 SP= 0.43E+01 SK= 0.51E-01 mag=      0.171
       N       E                     dE             d eps       ncg     rms          rms(c)
DAV:   1    -0.332597858126E+02    0.24031E-01   -0.36897E-02  2912   0.119E+00    0.115E-01
RMM:   2    -0.332626063955E+02   -0.28206E-02   -0.56645E-03  1554   0.269E-01    0.864E-02
RMM:   3    -0.332650714073E+02   -0.24650E-02   -0.31995E-03  1401   0.125E-01    0.565E-02
RMM:   4    -0.332662151510E+02   -0.11437E-02   -0.20416E-03  1396   0.884E-02
   1686 T=   847. E= -.26103992E+02 F= -.33266215E+02 E0= -.33225643E+02  EK= 0.28470E+01 SP= 0.43E+01 SK= 0.47E-01 mag=      0.037
       N       E                     dE             d eps       ncg     rms          rms(c)
DAV:   1    -0.332378335389E+02    0.27238E-01   -0.20371E-02  2504   0.105E+00    0.119E-01
RMM:   2    -0.332409073221E+02   -0.30738E-02   -0.61413E-03  1428   0.261E-01    0.901E-02
RMM:   3    -0.332433847595E+02   -0.24774E-02   -0.35109E-03  1400   0.113E-01    0.573E-02
RMM:   4    -0.332445716858E+02   -0.11869E-02   -0.19987E-03  1393   0.856E-02
   1687 T=   866. E= -.26102722E+02 F= -.33244572E+02 E0= -.33203913E+02  EK= 0.29089E+01 SP= 0.42E+01 SK= 0.42E-01 mag=     -0.067
       N       E                     dE             d eps       ncg     rms          rms(c)
DAV:   1    -0.332200354424E+02    0.23349E-01   -0.24982E-02  2760   0.118E+00    0.637E-02
RMM:   2    -0.332209687678E+02   -0.93333E-03   -0.35507E-03  1471   0.247E-01
   1688 T=   883. E= -.26098845E+02 F= -.33220969E+02 E0= -.33180181E+02  EK= 0.29673E+01 SP= 0.41E+01 SK= 0.35E-01 mag=     -0.066
       N       E                     dE             d eps       ncg     rms          rms(c)
DAV:   1    -0.331951235359E+02    0.24912E-01   -0.20688E-02  2816   0.113E+00    0.491E-02
RMM:   2    -0.331961424909E+02   -0.10190E-02   -0.41795E-03  1546   0.267E-01
   1689 T=   898. E= -.26095619E+02 F= -.33196142E+02 E0= -.33155343E+02  EK= 0.30175E+01 SP= 0.41E+01 SK= 0.28E-01 mag=      0.037
       N       E                     dE             d eps       ncg     rms          rms(c)
DAV:   1    -0.331688986256E+02    0.26225E-01   -0.13243E-02  2288   0.116E+00    0.478E-02
RMM:   2    -0.331699634259E+02   -0.10648E-02   -0.44616E-03  1545   0.302E-01
   1690 T=   910. E= -.26091715E+02 F= -.33169963E+02 E0= -.33129274E+02  EK= 0.30591E+01 SP= 0.40E+01 SK= 0.20E-01 mag=      0.138
       N       E                     dE             d eps       ncg     rms          rms(c)
DAV:   1    -0.331420398933E+02    0.26859E-01   -0.20872E-02  2920   0.121E+00    0.555E-02
RMM:   2    -0.331431262712E+02   -0.10864E-02   -0.47371E-03  1541   0.296E-01
   1691 T=   920. E= -.26086767E+02 F= -.33143126E+02 E0= -.33102468E+02  EK= 0.30914E+01 SP= 0.40E+01 SK= 0.14E-01 mag=      0.155
       N       E                     dE             d eps       ncg     rms          rms(c)
DAV:   1    -0.331148491316E+02    0.27191E-01   -0.14724E-02  2536   0.113E+00    0.477E-02
RMM:   2    -0.331160825134E+02   -0.12334E-02   -0.52942E-03  1571   0.312E-01
   1692 T=   926. E= -.26082169E+02 F= -.33116083E+02 E0= -.33075425E+02  EK= 0.31121E+01 SP= 0.39E+01 SK= 0.78E-02 mag=      0.053
       N       E                     dE             d eps       ncg     rms          rms(c)
DAV:   1    -0.330883835116E+02    0.26466E-01   -0.19821E-02  2800   0.119E+00    0.476E-02
RMM:   2    -0.330894633869E+02   -0.10799E-02   -0.46004E-03  1563   0.288E-01
   1693 T=   929. E= -.26077582E+02 F= -.33089463E+02 E0= -.33048951E+02  EK= 0.31213E+01 SP= 0.39E+01 SK= 0.35E-02 mag=     -0.109
       N       E                     dE             d eps       ncg     rms          rms(c)
DAV:   1    -0.330614655589E+02    0.26918E-01   -0.18260E-02  2832   0.113E+00    0.576E-02
RMM:   2    -0.330628804174E+02   -0.14149E-02   -0.53137E-03  1569   0.302E-01    0.434E-02
RMM:   3    -0.330634583216E+02   -0.57790E-03   -0.16936E-03  1463   0.117E-01
   1694 T=   928. E= -.26074311E+02 F= -.33063458E+02 E0= -.33023212E+02  EK= 0.31175E+01 SP= 0.39E+01 SK= 0.92E-03 mag=     -0.086
       N       E                     dE             d eps       ncg     rms          rms(c)
DAV:   1    -0.330376793625E+02    0.25201E-01   -0.18324E-02  2536   0.111E+00    0.487E-02
RMM:   2    -0.330388065383E+02   -0.11272E-02   -0.39830E-03  1553   0.274E-01
   1695 T=   924. E= -.26067394E+02 F= -.33038807E+02 E0= -.32998665E+02  EK= 0.31065E+01 SP= 0.39E+01 SK= 0.26E-05 mag=      0.058
       N       E                     dE             d eps       ncg     rms          rms(c)
DAV:   1    -0.330140097116E+02    0.23670E-01   -0.29638E-02  3008   0.125E+00    0.631E-02
RMM:   2    -0.330154434999E+02   -0.14338E-02   -0.45554E-03  1549   0.248E-01    0.481E-02
RMM:   3    -0.330160898250E+02   -0.64633E-03   -0.12962E-03  1402   0.101E-01
   1696 T=   918. E= -.26061275E+02 F= -.33016090E+02 E0= -.32976297E+02  EK= 0.30846E+01 SP= 0.39E+01 SK= 0.67E-03 mag=      0.066
       N       E                     dE             d eps       ncg     rms          rms(c)
DAV:   1    -0.329945271396E+02    0.20916E-01   -0.14370E-02  2400   0.104E+00    0.610E-02
RMM:   2    -0.329957430540E+02   -0.12159E-02   -0.34478E-03  1504   0.250E-01
   1697 T=   908. E= -.26056075E+02 F= -.32995743E+02 E0= -.32956168E+02  EK= 0.30531E+01 SP= 0.39E+01 SK= 0.27E-02 mag=     -0.019
       N       E                     dE             d eps       ncg     rms          rms(c)
DAV:   1    -0.329765193121E+02    0.18008E-01   -0.30739E-02  2896   0.121E+00    0.754E-02
RMM:   2    -0.329781435355E+02   -0.16242E-02   -0.46906E-03  1569   0.257E-01    0.530E-02
RMM:   3    -0.329789782888E+02   -0.83475E-03   -0.17049E-03  1419   0.113E-01
   1698 T=   897. E= -.26050953E+02 F= -.32978978E+02 E0= -.32939694E+02  EK= 0.30152E+01 SP= 0.39E+01 SK= 0.56E-02 mag=     -0.020
       N       E                     dE             d eps       ncg     rms          rms(c)
DAV:   1    -0.329637355757E+02    0.14408E-01   -0.12750E-02  1920   0.103E+00    0.749E-02
RMM:   2    -0.329652504930E+02   -0.15149E-02   -0.36457E-03  1549   0.277E-01    0.513E-02
RMM:   3    -0.329656907160E+02   -0.44022E-03   -0.11539E-03  1340   0.111E-01
   1699 T=   884. E= -.26047071E+02 F= -.32965691E+02 E0= -.32926699E+02  EK= 0.29709E+01 SP= 0.39E+01 SK= 0.92E-02 mag=     -0.032
       N       E                     dE             d eps       ncg     rms          rms(c)
DAV:   1    -0.329549895351E+02    0.10261E-01   -0.30037E-02  2696   0.111E+00    0.416E-02
RMM:   2    -0.329559218914E+02   -0.93236E-03   -0.42694E-03  1581   0.276E-01
   1700 T=   870. E= -.26040836E+02 F= -.32955922E+02 E0= -.32917206E+02  EK= 0.29254E+01 SP= 0.40E+01 SK= 0.13E-01 mag=     -0.019
       N       E                     dE             d eps       ncg     rms          rms(c)
DAV:   1    -0.329491161063E+02    0.58734E-02   -0.23024E-02  2784   0.111E+00    0.347E-02
RMM:   2    -0.329499731144E+02   -0.85701E-03   -0.42151E-03  1551   0.257E-01
   1701 T=   856. E= -.26037310E+02 F= -.32949973E+02 E0= -.32911576E+02  EK= 0.28753E+01 SP= 0.40E+01 SK= 0.16E-01 mag=      0.019
       N       E                     dE             d eps       ncg     rms          rms(c)
DAV:   1    -0.329468587362E+02    0.22574E-02   -0.13546E-02  2368   0.106E+00    0.317E-02
RMM:   2    -0.329477024246E+02   -0.84369E-03   -0.41493E-03  1557   0.286E-01
   1702 T=   841. E= -.26033452E+02 F= -.32947702E+02 E0= -.32909603E+02  EK= 0.28252E+01 SP= 0.41E+01 SK= 0.19E-01 mag=      0.056
       N       E                     dE             d eps       ncg     rms          rms(c)
DAV:   1    -0.329480136136E+02   -0.11549E-02   -0.18046E-02  2856   0.113E+00    0.360E-02
RMM:   2    -0.329488942447E+02   -0.88063E-03   -0.42459E-03  1544   0.274E-01
   1703 T=   826. E= -.26028485E+02 F= -.32948894E+02 E0= -.32911068E+02  EK= 0.27770E+01 SP= 0.41E+01 SK= 0.21E-01 mag=      0.055
       N       E                     dE             d eps       ncg     rms          rms(c)
DAV:   1    -0.329528695040E+02   -0.48559E-02   -0.99874E-03  2368   0.105E+00    0.295E-02
RMM:   2    -0.329536545504E+02   -0.78505E-03   -0.38255E-03  1542   0.281E-01
   1704 T=   813. E= -.26023954E+02 F= -.32953655E+02 E0= -.32916046E+02  EK= 0.27307E+01 SP= 0.42E+01 SK= 0.23E-01 mag=      0.010
       N       E                     dE             d eps       ncg     rms          rms(c)
DAV:   1    -0.329608291727E+02   -0.79597E-02   -0.15365E-02  2744   0.112E+00    0.300E-02
RMM:   2    -0.329615613106E+02   -0.73214E-03   -0.38094E-03  1527   0.268E-01
   1705 T=   800. E= -.26019252E+02 F= -.32961561E+02 E0= -.32924190E+02  EK= 0.26875E+01 SP= 0.42E+01 SK= 0.23E-01 mag=     -0.048
       N       E                     dE             d eps       ncg     rms          rms(c)
DAV:   1    -0.329707998798E+02   -0.99707E-02   -0.11192E-02  2552   0.105E+00    0.346E-02
RMM:   2    -0.329716258264E+02   -0.82595E-03   -0.43919E-03  1536   0.287E-01
   1706 T=   788. E= -.26014930E+02 F= -.32971626E+02 E0= -.32934525E+02  EK= 0.26470E+01 SP= 0.43E+01 SK= 0.23E-01 mag=     -0.080
       N       E                     dE             d eps       ncg     rms          rms(c)
DAV:   1    -0.329830343924E+02   -0.12235E-01   -0.14961E-02  2656   0.110E+00    0.371E-02
RMM:   2    -0.329839112315E+02   -0.87684E-03   -0.42028E-03  1535   0.277E-01
   1707 T=   777. E= -.26010474E+02 F= -.32983911E+02 E0= -.32947023E+02  EK= 0.26106E+01 SP= 0.43E+01 SK= 0.21E-01 mag=     -0.056
       N       E                     dE             d eps       ncg     rms          rms(c)
DAV:   1    -0.329973384172E+02   -0.14304E-01   -0.11373E-02  2584   0.106E+00    0.307E-02
RMM:   2    -0.329980763650E+02   -0.73795E-03   -0.43542E-03  1532   0.299E-01
   1708 T=   767. E= -.26005821E+02 F= -.32998076E+02 E0= -.32961287E+02  EK= 0.25789E+01 SP= 0.44E+01 SK= 0.20E-01 mag=      0.015
       N       E                     dE             d eps       ncg     rms          rms(c)
DAV:   1    -0.330118644451E+02   -0.14526E-01   -0.12794E-02  2496   0.110E+00    0.373E-02
RMM:   2    -0.330127152326E+02   -0.85079E-03   -0.45203E-03  1525   0.299E-01
   1709 T=   759. E= -.25999745E+02 F= -.33012715E+02 E0= -.32976186E+02  EK= 0.25522E+01 SP= 0.44E+01 SK= 0.17E-01 mag=      0.082
       N       E                     dE             d eps       ncg     rms          rms(c)
DAV:   1    -0.330271132256E+02   -0.15249E-01   -0.10359E-02  2448   0.109E+00    0.429E-02
RMM:   2    -0.330280058814E+02   -0.89266E-03   -0.43501E-03  1530   0.298E-01
   1710 T=   753. E= -.25993038E+02 F= -.33028006E+02 E0= -.32991749E+02  EK= 0.25304E+01 SP= 0.45E+01 SK= 0.15E-01 mag=      0.102
       N       E                     dE             d eps       ncg     rms          rms(c)
DAV:   1    -0.330428505719E+02   -0.15737E-01   -0.11654E-02  2496   0.111E+00    0.388E-02
RMM:   2    -0.330437030073E+02   -0.85244E-03   -0.42939E-03  1521   0.299E-01
   1711 T=   748. E= -.25986833E+02 F= -.33043703E+02 E0= -.33007577E+02  EK= 0.25125E+01 SP= 0.45E+01 SK= 0.12E-01 mag=      0.050
       N       E                     dE             d eps       ncg     rms          rms(c)
DAV:   1    -0.330583114826E+02   -0.15461E-01   -0.11318E-02  2480   0.108E+00    0.338E-02
RMM:   2    -0.330590392390E+02   -0.72776E-03   -0.42020E-03  1520   0.297E-01
   1712 T=   743. E= -.25980878E+02 F= -.33059039E+02 E0= -.33023044E+02  EK= 0.24983E+01 SP= 0.46E+01 SK= 0.96E-02 mag=     -0.049
       N       E                     dE             d eps       ncg     rms          rms(c)
DAV:   1    -0.330718361582E+02   -0.13525E-01   -0.14188E-02  2656   0.109E+00    0.491E-02
RMM:   2    -0.330729106209E+02   -0.10745E-02   -0.47084E-03  1551   0.288E-01
   1713 T=   740. E= -.25974112E+02 F= -.33072911E+02 E0= -.33037298E+02  EK= 0.24880E+01 SP= 0.46E+01 SK= 0.72E-02 mag=     -0.109
       N       E                     dE             d eps       ncg     rms          rms(c)
DAV:   1    -0.330854017089E+02   -0.13566E-01   -0.14183E-02  2600   0.110E+00    0.455E-02
RMM:   2    -0.330863172907E+02   -0.91558E-03   -0.46332E-03  1558   0.305E-01
   1714 T=   738. E= -.25968110E+02 F= -.33086317E+02 E0= -.33050842E+02  EK= 0.24812E+01 SP= 0.46E+01 SK= 0.50E-02 mag=     -0.085
       N       E                     dE             d eps       ncg     rms          rms(c)
DAV:   1    -0.330971317808E+02   -0.11730E-01   -0.15412E-02  2544   0.109E+00    0.388E-02
RMM:   2    -0.330980633805E+02   -0.93160E-03   -0.49010E-03  1562   0.307E-01
   1715 T=   737. E= -.25961865E+02 F= -.33098063E+02 E0= -.33062691E+02  EK= 0.24777E+01 SP= 0.47E+01 SK= 0.32E-02 mag=      0.010
       N       E                     dE             d eps       ncg     rms          rms(c)
DAV:   1    -0.331067349546E+02   -0.96032E-02   -0.12200E-02  2264   0.107E+00    0.442E-02
RMM:   2    -0.331076872267E+02   -0.95227E-03   -0.47429E-03  1551   0.305E-01
   1716 T=   737. E= -.25955176E+02 F= -.33107687E+02 E0= -.33072636E+02  EK= 0.24773E+01 SP= 0.47E+01 SK= 0.18E-02 mag=      0.111
       N       E                     dE             d eps       ncg     rms          rms(c)
DAV:   1    -0.331138289129E+02   -0.70940E-02   -0.13465E-02  2520   0.109E+00    0.596E-02
RMM:   2    -0.331151057271E+02   -0.12768E-02   -0.47976E-03  1539   0.301E-01
   1717 T=   738. E= -.25947937E+02 F= -.33115106E+02 E0= -.33080414E+02  EK= 0.24801E+01 SP= 0.47E+01 SK= 0.80E-03 mag=      0.116
       N       E                     dE             d eps       ncg     rms          rms(c)
DAV:   1    -0.331207132061E+02   -0.68843E-02   -0.14848E-02  2672   0.107E+00    0.386E-02
RMM:   2    -0.331215552287E+02   -0.84202E-03   -0.45293E-03  1542   0.293E-01
   1718 T=   739. E= -.25942627E+02 F= -.33121555E+02 E0= -.33086820E+02  EK= 0.24847E+01 SP= 0.47E+01 SK= 0.20E-03 mag=      0.019
       N       E                     dE             d eps       ncg     rms          rms(c)
DAV:   1    -0.331234265460E+02   -0.27133E-02   -0.17409E-02  2552   0.105E+00    0.482E-02
RMM:   2    -0.331245100208E+02   -0.10835E-02   -0.48617E-03  1529   0.297E-01
   1719 T=   741. E= -.25936861E+02 F= -.33124510E+02 E0= -.33090005E+02  EK= 0.24909E+01 SP= 0.47E+01 SK= 0.49E-06 mag=     -0.096
       N       E                     dE             d eps       ncg     rms          rms(c)
DAV:   1    -0.331234911755E+02   -0.64630E-04   -0.14987E-02  2480   0.108E+00    0.653E-02
RMM:   2    -0.331248347938E+02   -0.13436E-02   -0.47336E-03  1537   0.285E-01
   1720 T=   744. E= -.25931301E+02 F= -.33124835E+02 E0= -.33090667E+02  EK= 0.24989E+01 SP= 0.47E+01 SK= 0.15E-03 mag=     -0.142
       N       E                     dE             d eps       ncg     rms          rms(c)
DAV:   1    -0.331220591901E+02    0.14320E-02   -0.12631E-02  2608   0.106E+00    0.540E-02
RMM:   2    -0.331233229174E+02   -0.12637E-02   -0.53175E-03  1590   0.303E-01
   1721 T=   746. E= -.25926397E+02 F= -.33123323E+02 E0= -.33089180E+02  EK= 0.25087E+01 SP= 0.47E+01 SK= 0.62E-03 mag=     -0.068
       N       E                     dE             d eps       ncg     rms          rms(c)
DAV:   1    -0.331181809762E+02    0.38782E-02   -0.17220E-02  2576   0.105E+00    0.419E-02
RMM:   2    -0.331191591748E+02   -0.97820E-03   -0.50466E-03  1559   0.298E-01
   1722 T=   750. E= -.25921809E+02 F= -.33119159E+02 E0= -.33085017E+02  EK= 0.25197E+01 SP= 0.47E+01 SK= 0.14E-02 mag=      0.076
       N       E                     dE             d eps       ncg     rms          rms(c)
DAV:   1    -0.331088045156E+02    0.93765E-02   -0.17895E-02  2640   0.104E+00    0.803E-02
RMM:   2    -0.331107425192E+02   -0.19380E-02   -0.58108E-03  1548   0.295E-01    0.612E-02
RMM:   3    -0.331119829928E+02   -0.12405E-02   -0.25716E-03  1420   0.123E-01
   1723 T=   753. E= -.25918240E+02 F= -.33111983E+02 E0= -.33078008E+02  EK= 0.25306E+01 SP= 0.47E+01 SK= 0.23E-02 mag=      0.041
       N       E                     dE             d eps       ncg     rms          rms(c)
DAV:   1    -0.331008693694E+02    0.98731E-02   -0.22575E-02  2592   0.103E+00    0.611E-02
RMM:   2    -0.331021242819E+02   -0.12549E-02   -0.34139E-03  1444   0.245E-01
   1724 T=   757. E= -.25912798E+02 F= -.33102124E+02 E0= -.33068140E+02  EK= 0.25445E+01 SP= 0.46E+01 SK= 0.34E-02 mag=     -0.093
       N       E                     dE             d eps       ncg     rms          rms(c)
DAV:   1    -0.330862481233E+02    0.14621E-01   -0.31318E-02  2792   0.111E+00    0.911E-02
RMM:   2    -0.330883892402E+02   -0.21411E-02   -0.49083E-03  1554   0.253E-01    0.682E-02
RMM:   3    -0.330897330127E+02   -0.13438E-02   -0.19886E-03  1403   0.108E-01
   1725 T=   761. E= -.25908389E+02 F= -.33089733E+02 E0= -.33055798E+02  EK= 0.25583E+01 SP= 0.46E+01 SK= 0.45E-02 mag=     -0.030
       N       E                     dE             d eps       ncg     rms          rms(c)
DAV:   1    -0.330723241720E+02    0.16065E-01   -0.23687E-02  2440   0.989E-01    0.866E-02
RMM:   2    -0.330743364209E+02   -0.20122E-02   -0.44477E-03  1459   0.250E-01    0.631E-02
RMM:   3    -0.330750286306E+02   -0.69221E-03   -0.11377E-03  1361   0.998E-02
   1726 T=   765. E= -.25906217E+02 F= -.33075029E+02 E0= -.33041007E+02  EK= 0.25707E+01 SP= 0.46E+01 SK= 0.57E-02 mag=      0.028
       N       E                     dE             d eps       ncg     rms          rms(c)
DAV:   1    -0.330570369225E+02    0.17299E-01   -0.46853E-02  2512   0.106E+00    0.537E-02
RMM:   2    -0.330580271927E+02   -0.99027E-03   -0.47555E-03  1535   0.293E-01
   1727 T=   769. E= -.25902024E+02 F= -.33058027E+02 E0= -.33023942E+02  EK= 0.25857E+01 SP= 0.46E+01 SK= 0.69E-02 mag=      0.055
       N       E                     dE             d eps       ncg     rms          rms(c)
DAV:   1    -0.330375583260E+02    0.19479E-01   -0.31428E-02  2672   0.111E+00    0.410E-02
RMM:   2    -0.330385025907E+02   -0.94426E-03   -0.48261E-03  1543   0.279E-01
   1728 T=   774. E= -.25898692E+02 F= -.33038503E+02 E0= -.33004313E+02  EK= 0.26000E+01 SP= 0.45E+01 SK= 0.81E-02 mag=      0.033
       N       E                     dE             d eps       ncg     rms          rms(c)
DAV:   1    -0.330159495775E+02    0.21609E-01   -0.14179E-02  2504   0.102E+00    0.371E-02
RMM:   2    -0.330168391309E+02   -0.88955E-03   -0.44761E-03  1543   0.300E-01
   1729 T=   778. E= -.25894754E+02 F= -.33016839E+02 E0= -.32982527E+02  EK= 0.26151E+01 SP= 0.45E+01 SK= 0.91E-02 mag=     -0.019
       N       E                     dE             d eps       ncg     rms          rms(c)
DAV:   1    -0.329917543697E+02    0.24195E-01   -0.18125E-02  2688   0.115E+00    0.440E-02
RMM:   2    -0.329927641700E+02   -0.10098E-02   -0.44034E-03  1544   0.272E-01
   1730 T=   783. E= -.25890035E+02 F= -.32992764E+02 E0= -.32958387E+02  EK= 0.26305E+01 SP= 0.45E+01 SK= 0.99E-02 mag=     -0.061
       N       E                     dE             d eps       ncg     rms          rms(c)
DAV:   1    -0.329659064098E+02    0.25848E-01   -0.10423E-02  2360   0.102E+00    0.396E-02
RMM:   2    -0.329668837704E+02   -0.97736E-03   -0.41648E-03  1539   0.292E-01
   1731 T=   787. E= -.25885354E+02 F= -.32966884E+02 E0= -.32932392E+02  EK= 0.26456E+01 SP= 0.44E+01 SK= 0.11E-01 mag=     -0.055
       N       E                     dE             d eps       ncg     rms          rms(c)
DAV:   1    -0.329385603619E+02    0.27346E-01   -0.16511E-02  2616   0.113E+00    0.356E-02
RMM:   2    -0.329394135556E+02   -0.85319E-03   -0.41747E-03  1536   0.266E-01
   1732 T=   792. E= -.25880564E+02 F= -.32939414E+02 E0= -.32904760E+02  EK= 0.26605E+01 SP= 0.44E+01 SK= 0.11E-01 mag=     -0.001
       N       E                     dE             d eps       ncg     rms          rms(c)
DAV:   1    -0.329088504035E+02    0.29710E-01   -0.12613E-02  2352   0.103E+00    0.419E-02
RMM:   2    -0.329099505885E+02   -0.11002E-02   -0.51608E-03  1564   0.304E-01
   1733 T=   796. E= -.25875966E+02 F= -.32909951E+02 E0= -.32875191E+02  EK= 0.26741E+01 SP= 0.43E+01 SK= 0.11E-01 mag=      0.060
       N       E                     dE             d eps       ncg     rms          rms(c)
DAV:   1    -0.328778940679E+02    0.30956E-01   -0.18288E-02  2848   0.112E+00    0.525E-02
RMM:   2    -0.328791011908E+02   -0.12071E-02   -0.45593E-03  1534   0.278E-01
   1734 T=   799. E= -.25871432E+02 F= -.32879101E+02 E0= -.32844256E+02  EK= 0.26869E+01 SP= 0.43E+01 SK= 0.12E-01 mag=      0.058
       N       E                     dE             d eps       ncg     rms          rms(c)
DAV:   1    -0.328466249666E+02    0.31269E-01   -0.14658E-02  2472   0.107E+00    0.395E-02
RMM:   2    -0.328475459232E+02   -0.92096E-03   -0.46825E-03  1542   0.310E-01
   1735 T=   803. E= -.25867598E+02 F= -.32847546E+02 E0= -.32812542E+02  EK= 0.26984E+01 SP= 0.43E+01 SK= 0.12E-01 mag=     -0.002
       N       E                     dE             d eps       ncg     rms          rms(c)
DAV:   1    -0.328126329787E+02    0.33992E-01   -0.20465E-02  2776   0.111E+00    0.590E-02
RMM:   2    -0.328140006630E+02   -0.13677E-02   -0.55622E-03  1564   0.296E-01    0.417E-02
RMM:   3    -0.328144608060E+02   -0.46014E-03   -0.15277E-03  1483   0.114E-01
   1736 T=   806. E= -.25863708E+02 F= -.32814461E+02 E0= -.32779356E+02  EK= 0.27084E+01 SP= 0.42E+01 SK= 0.11E-01 mag=     -0.021
       N       E                     dE             d eps       ncg     rms          rms(c)
DAV:   1    -0.327798733341E+02    0.34127E-01   -0.16039E-02  2472   0.106E+00    0.486E-02
RMM:   2    -0.327808036963E+02   -0.93036E-03   -0.35573E-03  1528   0.277E-01
   1737 T=   809. E= -.25858011E+02 F= -.32780804E+02 E0= -.32745572E+02  EK= 0.27192E+01 SP= 0.42E+01 SK= 0.11E-01 mag=     -0.003
       N       E                     dE             d eps       ncg     rms          rms(c)
DAV:   1    -0.327453971247E+02    0.34476E-01   -0.25559E-02  3048   0.121E+00    0.509E-02
RMM:   2    -0.327464489470E+02   -0.10518E-02   -0.41598E-03  1563   0.252E-01
   1738 T=   812. E= -.25852740E+02 F= -.32746449E+02 E0= -.32711142E+02  EK= 0.27283E+01 SP= 0.42E+01 SK= 0.10E-01 mag=      0.020
       N       E                     dE             d eps       ncg     rms          rms(c)
DAV:   1    -0.327113271265E+02    0.34070E-01   -0.10577E-02  2000   0.104E+00    0.394E-02
RMM:   2    -0.327122750961E+02   -0.94797E-03   -0.52363E-03  1558   0.314E-01
   1739 T=   814. E= -.25849636E+02 F= -.32712275E+02 E0= -.32676865E+02  EK= 0.27346E+01 SP= 0.41E+01 SK= 0.99E-02 mag=      0.027
       N       E                     dE             d eps       ncg     rms          rms(c)
DAV:   1    -0.326771911066E+02    0.34136E-01   -0.23837E-02  3096   0.119E+00    0.464E-02
RMM:   2    -0.326781964684E+02   -0.10054E-02   -0.48008E-03  1564   0.282E-01
   1740 T=   815. E= -.25845762E+02 F= -.32678196E+02 E0= -.32642720E+02  EK= 0.27406E+01 SP= 0.41E+01 SK= 0.92E-02 mag=      0.015
       N       E                     dE             d eps       ncg     rms          rms(c)
DAV:   1    -0.326436904903E+02    0.33501E-01   -0.16008E-02  2648   0.108E+00    0.451E-02
RMM:   2    -0.326448243772E+02   -0.11339E-02   -0.60384E-03  1576   0.337E-01
   1741 T=   817. E= -.25841893E+02 F= -.32644824E+02 E0= -.32609264E+02  EK= 0.27461E+01 SP= 0.40E+01 SK= 0.85E-02 mag=     -0.008
       N       E                     dE             d eps       ncg     rms          rms(c)
DAV:   1    -0.326110799603E+02    0.32611E-01   -0.19686E-02  2784   0.113E+00    0.502E-02
RMM:   2    -0.326120934661E+02   -0.10135E-02   -0.49166E-03  1541   0.295E-01
   1742 T=   819. E= -.25837562E+02 F= -.32612093E+02 E0= -.32576490E+02  EK= 0.27514E+01 SP= 0.40E+01 SK= 0.78E-02 mag=     -0.021
       N       E                     dE             d eps       ncg     rms          rms(c)
DAV:   1    -0.325797889666E+02    0.31291E-01   -0.14526E-02  2688   0.112E+00    0.457E-02
RMM:   2    -0.325807773720E+02   -0.98841E-03   -0.50509E-03  1545   0.312E-01
   1743 T=   820. E= -.25833839E+02 F= -.32580777E+02 E0= -.32545129E+02  EK= 0.27559E+01 SP= 0.40E+01 SK= 0.70E-02 mag=     -0.016
       N       E                     dE             d eps       ncg     rms          rms(c)
DAV:   1    -0.325496994586E+02    0.30090E-01   -0.18699E-02  2832   0.115E+00    0.587E-02
RMM:   2    -0.325508283940E+02   -0.11289E-02   -0.49942E-03  1548   0.298E-01
   1744 T=   821. E= -.25829682E+02 F= -.32550828E+02 E0= -.32515179E+02  EK= 0.27606E+01 SP= 0.40E+01 SK= 0.63E-02 mag=     -0.002
       N       E                     dE             d eps       ncg     rms          rms(c)
DAV:   1    -0.325221049823E+02    0.27594E-01   -0.15728E-02  2568   0.115E+00    0.479E-02
RMM:   2    -0.325231773685E+02   -0.10724E-02   -0.57742E-03  1630   0.321E-01
   1745 T=   823. E= -.25825987E+02 F= -.32523177E+02 E0= -.32487529E+02  EK= 0.27653E+01 SP= 0.39E+01 SK= 0.55E-02 mag=      0.012
       N       E                     dE             d eps       ncg     rms          rms(c)
DAV:   1    -0.324968532155E+02    0.25252E-01   -0.19574E-02  2800   0.112E+00    0.585E-02
RMM:   2    -0.324979413757E+02   -0.10882E-02   -0.50427E-03  1561   0.301E-01
   1746 T=   824. E= -.25822068E+02 F= -.32497941E+02 E0= -.32462335E+02  EK= 0.27708E+01 SP= 0.39E+01 SK= 0.47E-02 mag=      0.017
       N       E                     dE             d eps       ncg     rms          rms(c)
DAV:   1    -0.324743304696E+02    0.22523E-01   -0.17411E-02  2656   0.116E+00    0.505E-02
RMM:   2    -0.324754484156E+02   -0.11179E-02   -0.51887E-03  1558   0.310E-01
   1747 T=   826. E= -.25818099E+02 F= -.32475448E+02 E0= -.32439886E+02  EK= 0.27770E+01 SP= 0.39E+01 SK= 0.40E-02 mag=      0.013
       N       E                     dE             d eps       ncg     rms          rms(c)
DAV:   1    -0.324550129920E+02    0.19317E-01   -0.17157E-02  2736   0.113E+00    0.583E-02
RMM:   2    -0.324561627373E+02   -0.11497E-02   -0.51535E-03  1561   0.313E-01
   1748 T=   829. E= -.25813591E+02 F= -.32456163E+02 E0= -.32420686E+02  EK= 0.27848E+01 SP= 0.39E+01 SK= 0.32E-02 mag=      0.001
       N       E                     dE             d eps       ncg     rms          rms(c)
DAV:   1    -0.324394456572E+02    0.15567E-01   -0.18077E-02  2624   0.118E+00    0.537E-02
RMM:   2    -0.324406648959E+02   -0.12192E-02   -0.60066E-03  1595   0.332E-01
   1749 T=   831. E= -.25808957E+02 F= -.32440665E+02 E0= -.32405309E+02  EK= 0.27941E+01 SP= 0.38E+01 SK= 0.25E-02 mag=     -0.014
       N       E                     dE             d eps       ncg     rms          rms(c)
DAV:   1    -0.324271650268E+02    0.12281E-01   -0.20005E-02  2672   0.113E+00    0.646E-02
RMM:   2    -0.324285501241E+02   -0.13851E-02   -0.58272E-03  1572   0.322E-01    0.451E-02
RMM:   3    -0.324290413158E+02   -0.49119E-03   -0.16268E-03  1476   0.121E-01
   1750 T=   834. E= -.25805177E+02 F= -.32429041E+02 E0= -.32393779E+02  EK= 0.28038E+01 SP= 0.38E+01 SK= 0.18E-02 mag=     -0.012
       N       E                     dE             d eps       ncg     rms          rms(c)
DAV:   1    -0.324195535079E+02    0.89966E-02   -0.22736E-02  2448   0.111E+00    0.620E-02
RMM:   2    -0.324208240687E+02   -0.12706E-02   -0.41106E-03  1471   0.284E-01
   1751 T=   838. E= -.25798966E+02 F= -.32420824E+02 E0= -.32385690E+02  EK= 0.28164E+01 SP= 0.38E+01 SK= 0.12E-02 mag=      0.007
       N       E                     dE             d eps       ncg     rms          rms(c)
DAV:   1    -0.324157524210E+02    0.38011E-02   -0.32521E-02  3016   0.125E+00    0.596E-02
RMM:   2    -0.324171211697E+02   -0.13687E-02   -0.52724E-03  1605   0.279E-01    0.433E-02
RMM:   3    -0.324177419357E+02   -0.62077E-03   -0.14389E-03  1408   0.111E-01
   1752 T=   842. E= -.25794741E+02 F= -.32417742E+02 E0= -.32382739E+02  EK= 0.28289E+01 SP= 0.38E+01 SK= 0.63E-03 mag=      0.010
       N       E                     dE             d eps       ncg     rms          rms(c)
DAV:   1    -0.324170022776E+02    0.11889E-03   -0.20844E-02  2312   0.108E+00    0.620E-02
RMM:   2    -0.324182495870E+02   -0.12473E-02   -0.48850E-03  1492   0.262E-01
   1753 T=   845. E= -.25790513E+02 F= -.32418250E+02 E0= -.32383368E+02  EK= 0.28414E+01 SP= 0.38E+01 SK= 0.23E-03 mag=     -0.004
       N       E                     dE             d eps       ncg     rms          rms(c)
DAV:   1    -0.324207558659E+02   -0.37536E-02   -0.33739E-02  2992   0.125E+00    0.797E-02
RMM:   2    -0.324226405497E+02   -0.18847E-02   -0.55289E-03  1583   0.272E-01    0.579E-02
RMM:   3    -0.324237366832E+02   -0.10961E-02   -0.20484E-03  1401   0.116E-01
   1754 T=   849. E= -.25786744E+02 F= -.32423737E+02 E0= -.32388991E+02  EK= 0.28545E+01 SP= 0.38E+01 SK= 0.19E-04 mag=     -0.010
       N       E                     dE             d eps       ncg     rms          rms(c)
DAV:   1    -0.324308599685E+02   -0.82194E-02   -0.26543E-02  2432   0.106E+00    0.869E-02
RMM:   2    -0.324326978906E+02   -0.18379E-02   -0.45016E-03  1536   0.289E-01    0.607E-02
RMM:   3    -0.324333578678E+02   -0.65998E-03   -0.14025E-03  1379   0.109E-01
   1755 T=   853. E= -.25783861E+02 F= -.32433358E+02 E0= -.32398656E+02  EK= 0.28665E+01 SP= 0.38E+01 SK= 0.54E-04 mag=      0.002
       N       E                     dE             d eps       ncg     rms          rms(c)
DAV:   1    -0.324468199134E+02   -0.14122E-01   -0.48231E-02  2712   0.116E+00    0.525E-02
RMM:   2    -0.324477396507E+02   -0.91974E-03   -0.50398E-03  1572   0.299E-01
   1756 T=   857. E= -.25779093E+02 F= -.32447740E+02 E0= -.32413093E+02  EK= 0.28805E+01 SP= 0.38E+01 SK= 0.39E-03 mag=      0.020
       N       E                     dE             d eps       ncg     rms          rms(c)
DAV:   1    -0.324653593407E+02   -0.18539E-01   -0.35555E-02  2880   0.116E+00    0.406E-02
RMM:   2    -0.324662049552E+02   -0.84561E-03   -0.48969E-03  1563   0.287E-01
   1757 T=   860. E= -.25776604E+02 F= -.32466205E+02 E0= -.32431563E+02  EK= 0.28911E+01 SP= 0.38E+01 SK= 0.11E-02 mag=      0.027
       N       E                     dE             d eps       ncg     rms          rms(c)
DAV:   1    -0.324877878500E+02   -0.22429E-01   -0.14969E-02  2616   0.110E+00    0.360E-02
RMM:   2    -0.324886032009E+02   -0.81535E-03   -0.48134E-03  1580   0.310E-01
   1758 T=   863. E= -.25773262E+02 F= -.32488603E+02 E0= -.32453901E+02  EK= 0.29011E+01 SP= 0.38E+01 SK= 0.22E-02 mag=      0.013
       N       E                     dE             d eps       ncg     rms          rms(c)
DAV:   1    -0.325138615923E+02   -0.26074E-01   -0.21036E-02  2664   0.121E+00    0.415E-02
RMM:   2    -0.325147628105E+02   -0.90122E-03   -0.48239E-03  1589   0.289E-01
   1759 T=   866. E= -.25768281E+02 F= -.32514763E+02 E0= -.32479996E+02  EK= 0.29108E+01 SP= 0.38E+01 SK= 0.38E-02 mag=     -0.014
       N       E                     dE             d eps       ncg     rms          rms(c)
DAV:   1    -0.325436717776E+02   -0.29810E-01   -0.11774E-02  2368   0.108E+00    0.349E-02
RMM:   2    -0.325445052471E+02   -0.83347E-03   -0.43106E-03  1568   0.298E-01
   1760 T=   868. E= -.25763766E+02 F= -.32544505E+02 E0= -.32509595E+02  EK= 0.29176E+01 SP= 0.39E+01 SK= 0.60E-02 mag=     -0.033
       N       E                     dE             d eps       ncg     rms          rms(c)
DAV:   1    -0.325767734089E+02   -0.33102E-01   -0.16668E-02  2424   0.117E+00    0.336E-02
RMM:   2    -0.325775261009E+02   -0.75269E-03   -0.46001E-03  1579   0.289E-01
   1761 T=   870. E= -.25758542E+02 F= -.32577526E+02 E0= -.32542365E+02  EK= 0.29223E+01 SP= 0.39E+01 SK= 0.86E-02 mag=     -0.028
       N       E                     dE             d eps       ncg     rms          rms(c)
DAV:   1    -0.326120466059E+02   -0.35273E-01   -0.16622E-02  2552   0.110E+00    0.359E-02
RMM:   2    -0.326129737204E+02   -0.92711E-03   -0.50281E-03  1597   0.300E-01
   1762 T=   870. E= -.25752855E+02 F= -.32612974E+02 E0= -.32577545E+02  EK= 0.29235E+01 SP= 0.39E+01 SK= 0.12E-01 mag=      0.003
       N       E                     dE             d eps       ncg     rms          rms(c)
DAV:   1    -0.326502283538E+02   -0.38182E-01   -0.18501E-02  2624   0.113E+00    0.430E-02
RMM:   2    -0.326512024127E+02   -0.97406E-03   -0.48396E-03  1577   0.295E-01
   1763 T=   869. E= -.25747616E+02 F= -.32651202E+02 E0= -.32615468E+02  EK= 0.29207E+01 SP= 0.40E+01 SK= 0.16E-01 mag=      0.036
       N       E                     dE             d eps       ncg     rms          rms(c)
DAV:   1    -0.326908558743E+02   -0.40628E-01   -0.14163E-02  2392   0.112E+00    0.335E-02
RMM:   2    -0.326916838941E+02   -0.82802E-03   -0.53033E-03  1611   0.313E-01
   1764 T=   867. E= -.25742604E+02 F= -.32691684E+02 E0= -.32655474E+02  EK= 0.29139E+01 SP= 0.40E+01 SK= 0.20E-01 mag=      0.046
       N       E                     dE             d eps       ncg     rms          rms(c)
DAV:   1    -0.327323480029E+02   -0.41492E-01   -0.18996E-02  2728   0.112E+00    0.462E-02
RMM:   2    -0.327333391516E+02   -0.99115E-03   -0.50004E-03  1573   0.293E-01
   1765 T=   864. E= -.25737265E+02 F= -.32733339E+02 E0= -.32696655E+02  EK= 0.29027E+01 SP= 0.41E+01 SK= 0.24E-01 mag=      0.019
       N       E                     dE             d eps       ncg     rms          rms(c)
DAV:   1    -0.327756952484E+02   -0.43347E-01   -0.14716E-02  2600   0.110E+00    0.443E-02
RMM:   2    -0.327766279827E+02   -0.93273E-03   -0.45850E-03  1557   0.290E-01
   1766 T=   859. E= -.25732847E+02 F= -.32776628E+02 E0= -.32739445E+02  EK= 0.28868E+01 SP= 0.41E+01 SK= 0.29E-01 mag=     -0.034
       N       E                     dE             d eps       ncg     rms          rms(c)
DAV:   1    -0.328201456223E+02   -0.44450E-01   -0.14256E-02  2512   0.110E+00    0.404E-02
RMM:   2    -0.328210238945E+02   -0.87827E-03   -0.50846E-03  1603   0.291E-01
   1767 T=   853. E= -.25728077E+02 F= -.32821024E+02 E0= -.32783231E+02  EK= 0.28675E+01 SP= 0.42E+01 SK= 0.33E-01 mag=     -0.071
       N       E                     dE             d eps       ncg     rms          rms(c)
DAV:   1    -0.328648297454E+02   -0.44684E-01   -0.15906E-02  2592   0.108E+00    0.418E-02
RMM:   2    -0.328657505863E+02   -0.92084E-03   -0.48174E-03  1542   0.294E-01
   1768 T=   846. E= -.25723113E+02 F= -.32865751E+02 E0= -.32827266E+02  EK= 0.28445E+01 SP= 0.43E+01 SK= 0.37E-01 mag=     -0.059
       N       E                     dE             d eps       ncg     rms          rms(c)
DAV:   1    -0.329096537982E+02   -0.44824E-01   -0.14724E-02  2664   0.108E+00    0.512E-02
RMM:   2    -0.329107179965E+02   -0.10642E-02   -0.46373E-03  1535   0.277E-01
   1769 T=   839. E= -.25718270E+02 F= -.32910718E+02 E0= -.32871572E+02  EK= 0.28183E+01 SP= 0.43E+01 SK= 0.41E-01 mag=      0.004
       N       E                     dE             d eps       ncg     rms          rms(c)
DAV:   1    -0.329553905226E+02   -0.45737E-01   -0.14575E-02  2576   0.107E+00    0.446E-02
RMM:   2    -0.329561910180E+02   -0.80050E-03   -0.45140E-03  1553   0.293E-01
   1770 T=   830. E= -.25713721E+02 F= -.32956191E+02 E0= -.32916305E+02  EK= 0.27897E+01 SP= 0.44E+01 SK= 0.44E-01 mag=      0.082
       N       E                     dE             d eps       ncg     rms          rms(c)
DAV:   1    -0.329993988963E+02   -0.44008E-01   -0.16199E-02  2688   0.105E+00    0.552E-02
RMM:   2    -0.330005026536E+02   -0.11038E-02   -0.51806E-03  1565   0.285E-01
   1771 T=   821. E= -.25708689E+02 F= -.33000503E+02 E0= -.32959845E+02  EK= 0.27586E+01 SP= 0.45E+01 SK= 0.47E-01 mag=      0.113
       N       E                     dE             d eps       ncg     rms          rms(c)
DAV:   1    -0.330433754784E+02   -0.43977E-01   -0.13941E-02  2520   0.105E+00    0.502E-02
RMM:   2    -0.330444032606E+02   -0.10278E-02   -0.44632E-03  1542   0.280E-01
   1772 T=   811. E= -.25704098E+02 F= -.33044403E+02 E0= -.33002954E+02  EK= 0.27259E+01 SP= 0.46E+01 SK= 0.48E-01 mag=      0.062
       N       E                     dE             d eps       ncg     rms          rms(c)
DAV:   1    -0.330866300639E+02   -0.43255E-01   -0.13360E-02  2552   0.107E+00    0.415E-02
RMM:   2    -0.330874940868E+02   -0.86402E-03   -0.47270E-03  1571   0.281E-01
   1773 T=   801. E= -.25699177E+02 F= -.33087494E+02 E0= -.33045257E+02  EK= 0.26927E+01 SP= 0.46E+01 SK= 0.49E-01 mag=     -0.045
       N       E                     dE             d eps       ncg     rms          rms(c)
DAV:   1    -0.331277107179E+02   -0.41081E-01   -0.14511E-02  2584   0.105E+00    0.533E-02
RMM:   2    -0.331287447753E+02   -0.10341E-02   -0.53383E-03  1587   0.292E-01
   1774 T=   791. E= -.25693790E+02 F= -.33128745E+02 E0= -.33085727E+02  EK= 0.26591E+01 SP= 0.47E+01 SK= 0.49E-01 mag=     -0.144
       N       E                     dE             d eps       ncg     rms          rms(c)
DAV:   1    -0.331669502147E+02   -0.39239E-01   -0.15672E-02  2688   0.103E+00    0.633E-02
RMM:   2    -0.331682921404E+02   -0.13419E-02   -0.49375E-03  1557   0.279E-01
   1775 T=   781. E= -.25688717E+02 F= -.33168292E+02 E0= -.33124537E+02  EK= 0.26251E+01 SP= 0.48E+01 SK= 0.47E-01 mag=     -0.137
       N       E                     dE             d eps       ncg     rms          rms(c)
DAV:   1    -0.332063182152E+02   -0.39368E-01   -0.14752E-02  2600   0.104E+00    0.526E-02
RMM:   2    -0.332071191783E+02   -0.80096E-03   -0.45250E-03  1549   0.284E-01
   1776 T=   771. E= -.25684722E+02 F= -.33207119E+02 E0= -.33162505E+02  EK= 0.25919E+01 SP= 0.49E+01 SK= 0.45E-01 mag=     -0.018
       N       E                     dE             d eps       ncg     rms          rms(c)
DAV:   1    -0.332415965158E+02   -0.35278E-01   -0.15894E-02  2592   0.102E+00    0.633E-02
RMM:   2    -0.332426884795E+02   -0.10920E-02   -0.50507E-03  1539   0.288E-01
   1777 T=   762. E= -.25679223E+02 F= -.33242688E+02 E0= -.33197407E+02  EK= 0.25602E+01 SP= 0.50E+01 SK= 0.42E-01 mag=      0.149
       N       E                     dE             d eps       ncg     rms          rms(c)
DAV:   1    -0.332746097683E+02   -0.33013E-01   -0.12174E-02  2264   0.102E+00    0.669E-02
RMM:   2    -0.332760023398E+02   -0.13926E-02   -0.45643E-03  1527   0.275E-01    0.522E-02
RMM:   3    -0.332767137950E+02   -0.71146E-03   -0.15460E-03  1458   0.112E-01
   1778 T=   753. E= -.25675135E+02 F= -.33276714E+02 E0= -.33230820E+02  EK= 0.25294E+01 SP= 0.50E+01 SK= 0.38E-01 mag=      0.106
       N       E                     dE             d eps       ncg     rms          rms(c)
DAV:   1    -0.333068208866E+02   -0.30819E-01   -0.18080E-02  2472   0.100E+00    0.706E-02
RMM:   2    -0.333080798386E+02   -0.12590E-02   -0.34556E-03  1440   0.252E-01
   1779 T=   745. E= -.25669005E+02 F= -.33308080E+02 E0= -.33261406E+02  EK= 0.25024E+01 SP= 0.51E+01 SK= 0.33E-01 mag=     -0.102
       N       E                     dE             d eps       ncg     rms          rms(c)
DAV:   1    -0.333330431570E+02   -0.26222E-01   -0.26692E-02  2712   0.107E+00    0.945E-02
RMM:   2    -0.333351207044E+02   -0.20775E-02   -0.47732E-03  1540   0.243E-01    0.717E-02
RMM:   3    -0.333366671569E+02   -0.15465E-02   -0.20651E-03  1404   0.107E-01    0.495E-02
RMM:   4    -0.333374937149E+02   -0.82656E-03   -0.13733E-03  1385   0.740E-02
   1780 T=   737. E= -.25664782E+02 F= -.33337494E+02 E0= -.33290179E+02  EK= 0.24765E+01 SP= 0.52E+01 SK= 0.29E-01 mag=     -0.080
       N       E                     dE             d eps       ncg     rms          rms(c)
DAV:   1    -0.333586970430E+02   -0.22030E-01   -0.20545E-02  2360   0.929E-01    0.107E-01
RMM:   2    -0.333611174818E+02   -0.24204E-02   -0.56997E-03  1417   0.225E-01    0.780E-02
RMM:   3    -0.333628050739E+02   -0.16876E-02   -0.26946E-03  1400   0.101E-01    0.490E-02
RMM:   4    -0.333635263694E+02   -0.72130E-03   -0.16295E-03  1399   0.733E-02
   1781 T=   729. E= -.25663453E+02 F= -.33363526E+02 E0= -.33315536E+02  EK= 0.24497E+01 SP= 0.52E+01 SK= 0.24E-01 mag=      0.050
       N       E                     dE             d eps       ncg     rms          rms(c)
DAV:   1    -0.333853609044E+02   -0.22556E-01   -0.14078E-02  2696   0.103E+00    0.598E-02
RMM:   2    -0.333861307301E+02   -0.76983E-03   -0.28533E-03  1497   0.219E-01
   1782 T=   723. E= -.25659390E+02 F= -.33386131E+02 E0= -.33337851E+02  EK= 0.24282E+01 SP= 0.53E+01 SK= 0.19E-01 mag=      0.171
       N       E                     dE             d eps       ncg     rms          rms(c)
DAV:   1    -0.334052936601E+02   -0.19933E-01   -0.14487E-02  2784   0.975E-01    0.569E-02
RMM:   2    -0.334062236468E+02   -0.92999E-03   -0.34138E-03  1518   0.233E-01
   1783 T=   717. E= -.25655841E+02 F= -.33406224E+02 E0= -.33357559E+02  EK= 0.24098E+01 SP= 0.53E+01 SK= 0.14E-01 mag=      0.195
       N       E                     dE             d eps       ncg     rms          rms(c)
DAV:   1    -0.334232222858E+02   -0.17929E-01   -0.85443E-03  2240   0.966E-01    0.352E-02
RMM:   2    -0.334238893917E+02   -0.66711E-03   -0.32704E-03  1522   0.244E-01
   1784 T=   713. E= -.25652618E+02 F= -.33423889E+02 E0= -.33374563E+02  EK= 0.23950E+01 SP= 0.54E+01 SK= 0.99E-02 mag=      0.087
       N       E                     dE             d eps       ncg     rms          rms(c)
DAV:   1    -0.334374833199E+02   -0.14261E-01   -0.11232E-02  2400   0.102E+00    0.344E-02
RMM:   2    -0.334381247724E+02   -0.64145E-03   -0.37435E-03  1520   0.254E-01
   1785 T=   710. E= -.25647540E+02 F= -.33438125E+02 E0= -.33388415E+02  EK= 0.23853E+01 SP= 0.54E+01 SK= 0.63E-02 mag=     -0.106
       N       E                     dE             d eps       ncg     rms          rms(c)
DAV:   1    -0.334473581468E+02   -0.98748E-02   -0.11241E-02  2392   0.968E-01    0.556E-02
RMM:   2    -0.334484080615E+02   -0.10499E-02   -0.40235E-03  1525   0.273E-01
   1786 T=   708. E= -.25641209E+02 F= -.33448408E+02 E0= -.33398913E+02  EK= 0.23797E+01 SP= 0.54E+01 SK= 0.34E-02 mag=     -0.260
       N       E                     dE             d eps       ncg     rms          rms(c)
DAV:   1    -0.334553698874E+02   -0.80117E-02   -0.13718E-02  2736   0.102E+00    0.530E-02
RMM:   2    -0.334562977334E+02   -0.92785E-03   -0.38516E-03  1532   0.259E-01
   1787 T=   707. E= -.25635572E+02 F= -.33456298E+02 E0= -.33406556E+02  EK= 0.23777E+01 SP= 0.54E+01 SK= 0.14E-02 mag=     -0.274
       N       E                     dE             d eps       ncg     rms          rms(c)
DAV:   1    -0.334607364082E+02   -0.53665E-02   -0.10313E-02  2352   0.953E-01    0.343E-02
RMM:   2    -0.334614613350E+02   -0.72493E-03   -0.38473E-03  1532   0.272E-01
   1788 T=   708. E= -.25630690E+02 F= -.33461461E+02 E0= -.33411063E+02  EK= 0.23791E+01 SP= 0.55E+01 SK= 0.27E-03 mag=     -0.107
       N       E                     dE             d eps       ncg     rms          rms(c)
DAV:   1    -0.334619377117E+02   -0.12013E-02   -0.11042E-02  2520   0.999E-01    0.463E-02
RMM:   2    -0.334628155921E+02   -0.87788E-03   -0.42295E-03  1531   0.258E-01
   1789 T=   709. E= -.25625163E+02 F= -.33462816E+02 E0= -.33412419E+02  EK= 0.23841E+01 SP= 0.55E+01 SK= 0.19E-04 mag=      0.177
       N       E                     dE             d eps       ncg     rms          rms(c)
DAV:   1    -0.334589865789E+02    0.29511E-02   -0.10775E-02  2344   0.974E-01    0.709E-02
RMM:   2    -0.334604262066E+02   -0.14396E-02   -0.43539E-03  1530   0.277E-01    0.578E-02
RMM:   3    -0.334615067525E+02   -0.10805E-02   -0.20542E-03  1405   0.116E-01
   1790 T=   712. E= -.25620935E+02 F= -.33461507E+02 E0= -.33411500E+02  EK= 0.23917E+01 SP= 0.54E+01 SK= 0.61E-03 mag=      0.189
       N       E                     dE             d eps       ncg     rms          rms(c)
DAV:   1    -0.334567885960E+02    0.36376E-02   -0.18635E-02  2520   0.965E-01    0.578E-02
RMM:   2    -0.334578641665E+02   -0.10756E-02   -0.36467E-03  1453   0.253E-01
   1791 T=   716. E= -.25615173E+02 F= -.33457864E+02 E0= -.33407298E+02  EK= 0.24052E+01 SP= 0.54E+01 SK= 0.20E-02 mag=     -0.057
       N       E                     dE             d eps       ncg     rms          rms(c)
DAV:   1    -0.334473300702E+02    0.94585E-02   -0.28201E-02  2872   0.107E+00    0.886E-02
RMM:   2    -0.334491937965E+02   -0.18637E-02   -0.43528E-03  1531   0.235E-01    0.683E-02
RMM:   3    -0.334504668168E+02   -0.12730E-02   -0.17513E-03  1422   0.101E-01
   1792 T=   720. E= -.25609734E+02 F= -.33450467E+02 E0= -.33400506E+02  EK= 0.24209E+01 SP= 0.54E+01 SK= 0.40E-02 mag=     -0.232
       N       E                     dE             d eps       ncg     rms          rms(c)
DAV:   1    -0.334400123282E+02    0.91815E-02   -0.17176E-02  2256   0.939E-01    0.799E-02
RMM:   2    -0.334412497517E+02   -0.12374E-02   -0.38088E-03  1423   0.231E-01
   1793 T=   726. E= -.25606338E+02 F= -.33441250E+02 E0= -.33391131E+02  EK= 0.24388E+01 SP= 0.54E+01 SK= 0.65E-02 mag=     -0.237
       N       E                     dE             d eps       ncg     rms          rms(c)
DAV:   1    -0.334275166740E+02    0.12496E-01   -0.27309E-02  2904   0.107E+00    0.872E-02
RMM:   2    -0.334293439653E+02   -0.18273E-02   -0.43728E-03  1541   0.242E-01    0.629E-02
RMM:   3    -0.334305100464E+02   -0.11661E-02   -0.20849E-03  1403   0.110E-01
   1794 T=   732. E= -.25603792E+02 F= -.33430510E+02 E0= -.33380168E+02  EK= 0.24602E+01 SP= 0.54E+01 SK= 0.94E-02 mag=     -0.017
       N       E                     dE             d eps       ncg     rms          rms(c)
DAV:   1    -0.334130061932E+02    0.16338E-01   -0.20008E-02  2104   0.955E-01    0.110E-01
RMM:   2    -0.334152076608E+02   -0.22015E-02   -0.42130E-03  1550   0.268E-01    0.769E-02
RMM:   3    -0.334162230764E+02   -0.10154E-02   -0.13810E-03  1399   0.114E-01
   1795 T=   739. E= -.25600224E+02 F= -.33416223E+02 E0= -.33366406E+02  EK= 0.24845E+01 SP= 0.53E+01 SK= 0.12E-01 mag=      0.180
       N       E                     dE             d eps       ncg     rms          rms(c)
DAV:   1    -0.333997168701E+02    0.15491E-01   -0.34715E-02  2680   0.101E+00    0.633E-02
RMM:   2    -0.334007489955E+02   -0.10321E-02   -0.38684E-03  1536   0.258E-01
   1796 T=   748. E= -.25595226E+02 F= -.33400749E+02 E0= -.33351248E+02  EK= 0.25141E+01 SP= 0.53E+01 SK= 0.15E-01 mag=      0.245
       N       E                     dE             d eps       ncg     rms          rms(c)
DAV:   1    -0.333836324947E+02    0.16084E-01   -0.24383E-02  2672   0.104E+00    0.419E-02
RMM:   2    -0.333844252745E+02   -0.79278E-03   -0.37893E-03  1535   0.252E-01
   1797 T=   757. E= -.25592522E+02 F= -.33384425E+02 E0= -.33334872E+02  EK= 0.25451E+01 SP= 0.52E+01 SK= 0.18E-01 mag=      0.126
       N       E                     dE             d eps       ncg     rms          rms(c)
DAV:   1    -0.333652803443E+02    0.18352E-01   -0.12809E-02  2464   0.986E-01    0.453E-02
RMM:   2    -0.333661792902E+02   -0.89895E-03   -0.40128E-03  1577   0.281E-01
   1798 T=   768. E= -.25588352E+02 F= -.33366179E+02 E0= -.33316953E+02  EK= 0.25796E+01 SP= 0.52E+01 SK= 0.21E-01 mag=     -0.123
       N       E                     dE             d eps       ncg     rms          rms(c)
DAV:   1    -0.333443596835E+02    0.20921E-01   -0.17312E-02  2552   0.109E+00    0.740E-02
RMM:   2    -0.333458095388E+02   -0.14499E-02   -0.43810E-03  1548   0.264E-01    0.573E-02
RMM:   3    -0.333464436756E+02   -0.63414E-03   -0.13330E-03  1429   0.105E-01
   1799 T=   779. E= -.25583472E+02 F= -.33346444E+02 E0= -.33298025E+02  EK= 0.26166E+01 SP= 0.51E+01 SK= 0.22E-01 mag=     -0.166
       N       E                     dE             d eps       ncg     rms          rms(c)
DAV:   1    -0.333259994805E+02    0.19810E-01   -0.14311E-02  2520   0.973E-01    0.595E-02
RMM:   2    -0.333269274352E+02   -0.92795E-03   -0.28005E-03  1451   0.234E-01
   1800 T=   790. E= -.25578867E+02 F= -.33326927E+02 E0= -.33278520E+02  EK= 0.26561E+01 SP= 0.51E+01 SK= 0.23E-01 mag=     -0.001
       N       E                     dE             d eps       ncg     rms          rms(c)
DAV:   1    -0.333040513111E+02    0.21948E-01   -0.25126E-02  2976   0.111E+00    0.784E-02
RMM:   2    -0.333054053406E+02   -0.13540E-02   -0.37963E-03  1538   0.231E-01    0.551E-02
RMM:   3    -0.333061728616E+02   -0.76752E-03   -0.12711E-03  1457   0.991E-02
   1801 T=   802. E= -.25573836E+02 F= -.33306173E+02 E0= -.33258369E+02  EK= 0.26963E+01 SP= 0.50E+01 SK= 0.24E-01 mag=      0.132
       N       E                     dE             d eps       ncg     rms          rms(c)
DAV:   1    -0.332845166948E+02    0.20889E-01   -0.11361E-02  2000   0.975E-01    0.764E-02
RMM:   2    -0.332857455679E+02   -0.12289E-02   -0.46566E-03  1551   0.266E-01
   1802 T=   814. E= -.25569566E+02 F= -.33285746E+02 E0= -.33238445E+02  EK= 0.27368E+01 SP= 0.50E+01 SK= 0.23E-01 mag=      0.163
       N       E                     dE             d eps       ncg     rms          rms(c)
DAV:   1    -0.332638209564E+02    0.20696E-01   -0.26665E-02  3040   0.116E+00    0.739E-02
RMM:   2    -0.332652342315E+02   -0.14133E-02   -0.45049E-03  1585   0.239E-01    0.498E-02
RMM:   3    -0.332657830577E+02   -0.54883E-03   -0.12884E-03  1429   0.102E-01
   1803 T=   826. E= -.25566225E+02 F= -.33265783E+02 E0= -.33218819E+02  EK= 0.27764E+01 SP= 0.49E+01 SK= 0.22E-01 mag=      0.038
       N       E                     dE             d eps       ncg     rms          rms(c)
DAV:   1    -0.332440444021E+02    0.21190E-01   -0.16606E-02  2264   0.994E-01    0.958E-02
RMM:   2    -0.332454527819E+02   -0.14084E-02   -0.36977E-03  1523   0.269E-01    0.632E-02
RMM:   3    -0.332458782769E+02   -0.42549E-03   -0.12256E-03  1347   0.106E-01
   1804 T=   837. E= -.25563894E+02 F= -.33245878E+02 E0= -.33199529E+02  EK= 0.28136E+01 SP= 0.48E+01 SK= 0.20E-01 mag=     -0.106
       N       E                     dE             d eps       ncg     rms          rms(c)
DAV:   1    -0.332260795038E+02    0.19373E-01   -0.30476E-02  2864   0.109E+00    0.624E-02
RMM:   2    -0.332270184292E+02   -0.93893E-03   -0.36014E-03  1539   0.260E-01
   1805 T=   848. E= -.25559676E+02 F= -.33227018E+02 E0= -.33181264E+02  EK= 0.28512E+01 SP= 0.48E+01 SK= 0.17E-01 mag=     -0.166
       N       E                     dE             d eps       ncg     rms          rms(c)
DAV:   1    -0.332086263702E+02    0.17453E-01   -0.18717E-02  2928   0.110E+00    0.497E-02
RMM:   2    -0.332094805675E+02   -0.85420E-03   -0.39079E-03  1548   0.247E-01
   1806 T=   858. E= -.25558430E+02 F= -.33209481E+02 E0= -.33164137E+02  EK= 0.28835E+01 SP= 0.48E+01 SK= 0.14E-01 mag=     -0.100
       N       E                     dE             d eps       ncg     rms          rms(c)
DAV:   1    -0.331920221975E+02    0.16604E-01   -0.12643E-02  2248   0.104E+00    0.461E-02
RMM:   2    -0.331929268171E+02   -0.90462E-03   -0.38821E-03  1548   0.279E-01
   1807 T=   867. E= -.25555930E+02 F= -.33192927E+02 E0= -.33148084E+02  EK= 0.29134E+01 SP= 0.47E+01 SK= 0.11E-01 mag=      0.066
       N       E                     dE             d eps       ncg     rms          rms(c)
DAV:   1    -0.331757073175E+02    0.16315E-01   -0.18626E-02  2992   0.116E+00    0.553E-02
RMM:   2    -0.331769215242E+02   -0.12142E-02   -0.40228E-03  1545   0.258E-01
   1808 T=   875. E= -.25551371E+02 F= -.33176922E+02 E0= -.33132872E+02  EK= 0.29403E+01 SP= 0.47E+01 SK= 0.78E-02 mag=      0.188
       N       E                     dE             d eps       ncg     rms          rms(c)
DAV:   1    -0.331621179412E+02    0.13589E-01   -0.10818E-02  2440   0.106E+00    0.463E-02
RMM:   2    -0.331631803445E+02   -0.10624E-02   -0.40849E-03  1535   0.292E-01
   1809 T=   881. E= -.25547743E+02 F= -.33163180E+02 E0= -.33119636E+02  EK= 0.29621E+01 SP= 0.46E+01 SK= 0.50E-02 mag=      0.175
       N       E                     dE             d eps       ncg     rms          rms(c)
DAV:   1    -0.331502586181E+02    0.11859E-01   -0.17501E-02  2736   0.114E+00    0.370E-02
RMM:   2    -0.331512095705E+02   -0.95095E-03   -0.42827E-03  1571   0.274E-01
   1810 T=   886. E= -.25543544E+02 F= -.33151210E+02 E0= -.33107983E+02  EK= 0.29789E+01 SP= 0.46E+01 SK= 0.26E-02 mag=      0.018
       N       E                     dE             d eps       ncg     rms          rms(c)
DAV:   1    -0.331386994215E+02    0.11559E-01   -0.13700E-02  2552   0.108E+00    0.514E-02
RMM:   2    -0.331398997021E+02   -0.12003E-02   -0.47690E-03  1543   0.297E-01
   1811 T=   889. E= -.25538695E+02 F= -.33139900E+02 E0= -.33097362E+02  EK= 0.29893E+01 SP= 0.46E+01 SK= 0.99E-03 mag=     -0.191
       N       E                     dE             d eps       ncg     rms          rms(c)
DAV:   1    -0.331284019849E+02    0.10297E-01   -0.17347E-02  2616   0.113E+00    0.681E-02
RMM:   2    -0.331300284379E+02   -0.16265E-02   -0.47742E-03  1540   0.279E-01    0.526E-02
RMM:   3    -0.331309730937E+02   -0.94466E-03   -0.21326E-03  1424   0.118E-01
   1812 T=   890. E= -.25535292E+02 F= -.33130973E+02 E0= -.33088952E+02  EK= 0.29923E+01 SP= 0.46E+01 SK= 0.12E-03 mag=     -0.086
       N       E                     dE             d eps       ncg     rms          rms(c)
DAV:   1    -0.331215178318E+02    0.85106E-02   -0.15486E-02  2472   0.109E+00    0.708E-02
RMM:   2    -0.331228916292E+02   -0.13738E-02   -0.33878E-03  1519   0.269E-01    0.511E-02
RMM:   3    -0.331234326957E+02   -0.54107E-03   -0.10763E-03  1318   0.990E-02
   1813 T=   889. E= -.25531757E+02 F= -.33123433E+02 E0= -.33081827E+02  EK= 0.29886E+01 SP= 0.46E+01 SK= 0.91E-04 mag=      0.092
       N       E                     dE             d eps       ncg     rms          rms(c)
DAV:   1    -0.331154994517E+02    0.73922E-02   -0.25658E-02  2744   0.110E+00    0.647E-02
RMM:   2    -0.331165473324E+02   -0.10479E-02   -0.38945E-03  1540   0.244E-01
   1814 T=   887. E= -.25526047E+02 F= -.33116547E+02 E0= -.33075545E+02  EK= 0.29794E+01 SP= 0.46E+01 SK= 0.87E-03 mag=      0.183
       N       E                     dE             d eps       ncg     rms          rms(c)
DAV:   1    -0.331108386638E+02    0.46608E-02   -0.15410E-02  2504   0.116E+00    0.418E-02
RMM:   2    -0.331118176651E+02   -0.97900E-03   -0.47892E-03  1569   0.277E-01
   1815 T=   881. E= -.25522674E+02 F= -.33111818E+02 E0= -.33071124E+02  EK= 0.29622E+01 SP= 0.46E+01 SK= 0.24E-02 mag=      0.119
       N       E                     dE             d eps       ncg     rms          rms(c)
DAV:   1    -0.331067462649E+02    0.40924E-02   -0.14861E-02  2536   0.111E+00    0.397E-02
RMM:   2    -0.331075982692E+02   -0.85200E-03   -0.38733E-03  1560   0.288E-01
   1816 T=   875. E= -.25518435E+02 F= -.33107598E+02 E0= -.33067294E+02  EK= 0.29391E+01 SP= 0.46E+01 SK= 0.44E-02 mag=     -0.057
       N       E                     dE             d eps       ncg     rms          rms(c)
DAV:   1    -0.331020942112E+02    0.46521E-02   -0.16127E-02  2872   0.115E+00    0.548E-02
RMM:   2    -0.331033823488E+02   -0.12881E-02   -0.49274E-03  1555   0.287E-01
   1817 T=   866. E= -.25512932E+02 F= -.33103382E+02 E0= -.33063770E+02  EK= 0.29108E+01 SP= 0.47E+01 SK= 0.68E-02 mag=     -0.215
       N       E                     dE             d eps       ncg     rms          rms(c)
DAV:   1    -0.330993243864E+02    0.27698E-02   -0.10707E-02  2304   0.106E+00    0.570E-02
RMM:   2    -0.331005782170E+02   -0.12538E-02   -0.43974E-03  1529   0.288E-01
   1818 T=   856. E= -.25507729E+02 F= -.33100578E+02 E0= -.33061432E+02  EK= 0.28779E+01 SP= 0.47E+01 SK= 0.93E-02 mag=     -0.191
       N       E                     dE             d eps       ncg     rms          rms(c)
DAV:   1    -0.330979252402E+02    0.13991E-02   -0.14297E-02  2784   0.115E+00    0.291E-02
RMM:   2    -0.330987285709E+02   -0.80333E-03   -0.39968E-03  1532   0.280E-01
   1819 T=   845. E= -.25502822E+02 F= -.33098729E+02 E0= -.33059701E+02  EK= 0.28412E+01 SP= 0.47E+01 SK= 0.12E-01 mag=      0.002
       N       E                     dE             d eps       ncg     rms          rms(c)
DAV:   1    -0.330938539806E+02    0.40713E-02   -0.11429E-02  2480   0.105E+00    0.585E-02
RMM:   2    -0.330952128384E+02   -0.13589E-02   -0.54148E-03  1569   0.303E-01    0.440E-02
RMM:   3    -0.330957740296E+02   -0.56119E-03   -0.15267E-03  1456   0.119E-01
   1820 T=   833. E= -.25498353E+02 F= -.33095774E+02 E0= -.33057289E+02  EK= 0.27995E+01 SP= 0.48E+01 SK= 0.14E-01 mag=      0.074
       N       E                     dE             d eps       ncg     rms          rms(c)
DAV:   1    -0.330926573728E+02    0.25555E-02   -0.15554E-02  2552   0.105E+00    0.362E-02
RMM:   2    -0.330933814023E+02   -0.72403E-03   -0.29116E-03  1539   0.251E-01
   1821 T=   821. E= -.25492129E+02 F= -.33093381E+02 E0= -.33055156E+02  EK= 0.27580E+01 SP= 0.48E+01 SK= 0.15E-01 mag=      0.022
       N       E                     dE             d eps       ncg     rms          rms(c)
DAV:   1    -0.330891778147E+02    0.34796E-02   -0.18723E-02  2928   0.112E+00    0.411E-02
RMM:   2    -0.330899994203E+02   -0.82161E-03   -0.36164E-03  1554   0.231E-01
   1822 T=   808. E= -.25486382E+02 F= -.33089999E+02 E0= -.33052177E+02  EK= 0.27139E+01 SP= 0.49E+01 SK= 0.16E-01 mag=     -0.083
       N       E                     dE             d eps       ncg     rms          rms(c)
DAV:   1    -0.330850236741E+02    0.41541E-02   -0.70834E-03  1888   0.989E-01    0.429E-02
RMM:   2    -0.330859943425E+02   -0.97067E-03   -0.44791E-03  1556   0.279E-01
   1823 T=   794. E= -.25482263E+02 F= -.33085994E+02 E0= -.33048645E+02  EK= 0.26677E+01 SP= 0.49E+01 SK= 0.16E-01 mag=     -0.132
       N       E                     dE             d eps       ncg     rms          rms(c)
DAV:   1    -0.330808446414E+02    0.41790E-02   -0.16043E-02  2960   0.113E+00    0.355E-02
RMM:   2    -0.330817988027E+02   -0.95416E-03   -0.52141E-03  1579   0.268E-01
   1824 T=   780. E= -.25478110E+02 F= -.33081799E+02 E0= -.33044710E+02  EK= 0.26227E+01 SP= 0.50E+01 SK= 0.15E-01 mag=     -0.084
       N       E                     dE             d eps       ncg     rms          rms(c)
DAV:   1    -0.330758067507E+02    0.50379E-02   -0.10712E-02  2136   0.970E-01    0.317E-02
RMM:   2    -0.330766618364E+02   -0.85509E-03   -0.44501E-03  1543   0.294E-01
   1825 T=   768. E= -.25473061E+02 F= -.33076662E+02 E0= -.33039839E+02  EK= 0.25799E+01 SP= 0.50E+01 SK= 0.14E-01 mag=      0.032
       N       E                     dE             d eps       ncg     rms          rms(c)
DAV:   1    -0.330694629184E+02    0.63438E-02   -0.11859E-02  2744   0.108E+00    0.415E-02
RMM:   2    -0.330703434337E+02   -0.88052E-03   -0.42803E-03  1556   0.255E-01
   1826 T=   756. E= -.25467243E+02 F= -.33070343E+02 E0= -.33033948E+02  EK= 0.25399E+01 SP= 0.51E+01 SK= 0.12E-01 mag=      0.120
       N       E                     dE             d eps       ncg     rms          rms(c)
DAV:   1    -0.330621475998E+02    0.73153E-02   -0.10060E-02  2400   0.100E+00    0.398E-02
RMM:   2    -0.330630201531E+02   -0.87255E-03   -0.42172E-03  1532   0.281E-01
   1827 T=   744. E= -.25462431E+02 F= -.33063020E+02 E0= -.33026882E+02  EK= 0.25020E+01 SP= 0.51E+01 SK= 0.95E-02 mag=      0.120
       N       E                     dE             d eps       ncg     rms          rms(c)
DAV:   1    -0.330539328212E+02    0.82148E-02   -0.12465E-02  2592   0.106E+00    0.402E-02
RMM:   2    -0.330548062751E+02   -0.87345E-03   -0.42725E-03  1523   0.269E-01
   1828 T=   734. E= -.25457887E+02 F= -.33054806E+02 E0= -.33018826E+02  EK= 0.24677E+01 SP= 0.51E+01 SK= 0.70E-02 mag=      0.025
       N       E                     dE             d eps       ncg     rms          rms(c)
DAV:   1    -0.330447348501E+02    0.91980E-02   -0.76637E-03  2152   0.988E-01    0.398E-02
RMM:   2    -0.330455360101E+02   -0.80116E-03   -0.43992E-03  1534   0.292E-01
   1829 T=   726. E= -.25452630E+02 F= -.33045536E+02 E0= -.33009846E+02  EK= 0.24384E+01 SP= 0.51E+01 SK= 0.46E-02 mag=     -0.109
       N       E                     dE             d eps       ncg     rms          rms(c)
DAV:   1    -0.330336268362E+02    0.11108E-01   -0.12785E-02  2680   0.105E+00    0.552E-02
RMM:   2    -0.330347802264E+02   -0.11534E-02   -0.45188E-03  1525   0.266E-01
   1830 T=   718. E= -.25446413E+02 F= -.33034780E+02 E0= -.32999450E+02  EK= 0.24144E+01 SP= 0.52E+01 SK= 0.25E-02 mag=     -0.171
       N       E                     dE             d eps       ncg     rms          rms(c)
DAV:   1    -0.330231433631E+02    0.10483E-01   -0.10176E-02  2288   0.986E-01    0.491E-02
RMM:   2    -0.330240848531E+02   -0.94149E-03   -0.44027E-03  1536   0.282E-01
   1831 T=   713. E= -.25441930E+02 F= -.33024085E+02 E0= -.32988765E+02  EK= 0.23950E+01 SP= 0.52E+01 SK= 0.93E-03 mag=     -0.107
       N       E                     dE             d eps       ncg     rms          rms(c)
DAV:   1    -0.330116081829E+02    0.11535E-01   -0.10609E-02  2528   0.102E+00    0.391E-02
RMM:   2    -0.330123631039E+02   -0.75492E-03   -0.42081E-03  1529   0.270E-01
   1832 T=   708. E= -.25437434E+02 F= -.33012363E+02 E0= -.32977139E+02  EK= 0.23811E+01 SP= 0.52E+01 SK= 0.10E-03 mag=      0.053
       N       E                     dE             d eps       ncg     rms          rms(c)
DAV:   1    -0.329975558712E+02    0.14052E-01   -0.93458E-03  2312   0.985E-01    0.581E-02
RMM:   2    -0.329987518983E+02   -0.11960E-02   -0.48546E-03  1533   0.280E-01
   1833 T=   706. E= -.25431729E+02 F= -.32998752E+02 E0= -.32963848E+02  EK= 0.23732E+01 SP= 0.52E+01 SK= 0.12E-03 mag=      0.191
       N       E                     dE             d eps       ncg     rms          rms(c)
DAV:   1    -0.329836688492E+02    0.13887E-01   -0.12600E-02  2488   0.105E+00    0.637E-02
RMM:   2    -0.329849453072E+02   -0.12765E-02   -0.44665E-03  1521   0.281E-01
   1834 T=   706. E= -.25426197E+02 F= -.32984945E+02 E0= -.32950114E+02  EK= 0.23719E+01 SP= 0.52E+01 SK= 0.10E-02 mag=      0.129
       N       E                     dE             d eps       ncg     rms          rms(c)
DAV:   1    -0.329705740360E+02    0.13095E-01   -0.12560E-02  2552   0.100E+00    0.400E-02
RMM:   2    -0.329714278157E+02   -0.85378E-03   -0.47977E-03  1534   0.301E-01
   1835 T=   707. E= -.25421852E+02 F= -.32971428E+02 E0= -.32936470E+02  EK= 0.23766E+01 SP= 0.52E+01 SK= 0.29E-02 mag=     -0.085
       N       E                     dE             d eps       ncg     rms          rms(c)
DAV:   1    -0.329531558806E+02    0.17418E-01   -0.22345E-02  2536   0.104E+00    0.836E-02
RMM:   2    -0.329551236157E+02   -0.19677E-02   -0.58621E-03  1532   0.307E-01    0.628E-02
RMM:   3    -0.329564432963E+02   -0.13197E-02   -0.24466E-03  1461   0.123E-01
   1836 T=   710. E= -.25417609E+02 F= -.32956443E+02 E0= -.32921637E+02  EK= 0.23866E+01 SP= 0.51E+01 SK= 0.55E-02 mag=     -0.088
       N       E                     dE             d eps       ncg     rms          rms(c)
DAV:   1    -0.329411144899E+02    0.14009E-01   -0.13519E-02  2432   0.992E-01    0.515E-02
RMM:   2    -0.329419213090E+02   -0.80682E-03   -0.29894E-03  1454   0.239E-01
   1837 T=   715. E= -.25413140E+02 F= -.32941921E+02 E0= -.32906955E+02  EK= 0.24040E+01 SP= 0.51E+01 SK= 0.89E-02 mag=      0.070
       N       E                     dE             d eps       ncg     rms          rms(c)
DAV:   1    -0.329241232195E+02    0.16991E-01   -0.26007E-02  2784   0.108E+00    0.786E-02
RMM:   2    -0.329257510886E+02   -0.16279E-02   -0.44180E-03  1535   0.246E-01    0.580E-02
RMM:   3    -0.329267825893E+02   -0.10315E-02   -0.16565E-03  1408   0.102E-01
   1838 T=   722. E= -.25408938E+02 F= -.32926783E+02 E0= -.32891865E+02  EK= 0.24271E+01 SP= 0.51E+01 SK= 0.13E-01 mag=      0.077
       N       E                     dE             d eps       ncg     rms          rms(c)
DAV:   1    -0.329111499720E+02    0.14601E-01   -0.12723E-02  2072   0.969E-01    0.675E-02
RMM:   2    -0.329120450846E+02   -0.89511E-03   -0.35307E-03  1482   0.243E-01
   1839 T=   731. E= -.25406167E+02 F= -.32912045E+02 E0= -.32876956E+02  EK= 0.24554E+01 SP= 0.50E+01 SK= 0.17E-01 mag=     -0.037
       N       E                     dE             d eps       ncg     rms          rms(c)
DAV:   1    -0.328947132769E+02    0.16437E-01   -0.25107E-02  2872   0.108E+00    0.789E-02
RMM:   2    -0.328962772672E+02   -0.15640E-02   -0.46937E-03  1547   0.248E-01    0.560E-02
RMM:   3    -0.328973003550E+02   -0.10231E-02   -0.19682E-03  1415   0.106E-01
   1840 T=   741. E= -.25403428E+02 F= -.32897300E+02 E0= -.32862108E+02  EK= 0.24895E+01 SP= 0.50E+01 SK= 0.21E-01 mag=     -0.051
       N       E                     dE             d eps       ncg     rms          rms(c)
DAV:   1    -0.328815769562E+02    0.14700E-01   -0.16558E-02  2296   0.984E-01    0.883E-02
RMM:   2    -0.328825608641E+02   -0.98391E-03   -0.35368E-03  1491   0.251E-01
   1841 T=   753. E= -.25399658E+02 F= -.32882561E+02 E0= -.32847189E+02  EK= 0.25298E+01 SP= 0.49E+01 SK= 0.24E-01 mag=      0.012
       N       E                     dE             d eps       ncg     rms          rms(c)
DAV:   1    -0.328662361714E+02    0.15341E-01   -0.27546E-02  2824   0.112E+00    0.863E-02
RMM:   2    -0.328678458686E+02   -0.16097E-02   -0.45368E-03  1558   0.247E-01    0.597E-02
RMM:   3    -0.328685460078E+02   -0.70014E-03   -0.12568E-03  1389   0.999E-02
   1842 T=   766. E= -.25395856E+02 F= -.32868546E+02 E0= -.32832997E+02  EK= 0.25756E+01 SP= 0.49E+01 SK= 0.27E-01 mag=      0.027
       N       E                     dE             d eps       ncg     rms          rms(c)
DAV:   1    -0.328547549596E+02    0.13091E-01   -0.20081E-02  2376   0.102E+00    0.103E-01
RMM:   2    -0.328558618299E+02   -0.11069E-02   -0.42842E-03  1528   0.266E-01
   1843 T=   781. E= -.25392814E+02 F= -.32855862E+02 E0= -.32820089E+02  EK= 0.26256E+01 SP= 0.48E+01 SK= 0.29E-01 mag=      0.006
       N       E                     dE             d eps       ncg     rms          rms(c)
DAV:   1    -0.328410424383E+02    0.13713E-01   -0.36154E-02  2864   0.113E+00    0.938E-02
RMM:   2    -0.328429774582E+02   -0.19350E-02   -0.54715E-03  1544   0.277E-01    0.640E-02
RMM:   3    -0.328439047358E+02   -0.92728E-03   -0.17154E-03  1478   0.112E-01
   1844 T=   797. E= -.25389721E+02 F= -.32843905E+02 E0= -.32807874E+02  EK= 0.26792E+01 SP= 0.47E+01 SK= 0.30E-01 mag=      0.003
       N       E                     dE             d eps       ncg     rms          rms(c)
DAV:   1    -0.328316162728E+02    0.11361E-01   -0.19547E-02  2552   0.103E+00    0.118E-01
RMM:   2    -0.328329246621E+02   -0.13084E-02   -0.46378E-03  1433   0.272E-01
   1845 T=   814. E= -.25386362E+02 F= -.32832925E+02 E0= -.32796576E+02  EK= 0.27355E+01 SP= 0.47E+01 SK= 0.30E-01 mag=     -0.001
       N       E                     dE             d eps       ncg     rms          rms(c)
DAV:   1    -0.328206952588E+02    0.10921E-01   -0.37622E-02  2864   0.118E+00    0.103E-01
RMM:   2    -0.328225859507E+02   -0.18907E-02   -0.50958E-03  1560   0.273E-01    0.678E-02
RMM:   3    -0.328233367707E+02   -0.75082E-03   -0.14582E-03  1447   0.106E-01
   1846 T=   831. E= -.25383027E+02 F= -.32823337E+02 E0= -.32786689E+02  EK= 0.27933E+01 SP= 0.46E+01 SK= 0.28E-01 mag=     -0.017
       N       E                     dE             d eps       ncg     rms          rms(c)
DAV:   1    -0.328141285261E+02    0.84574E-02   -0.20212E-02  2496   0.107E+00    0.129E-01
RMM:   2    -0.328156581289E+02   -0.15296E-02   -0.51618E-03  1530   0.297E-01    0.786E-02
RMM:   3    -0.328161256338E+02   -0.46750E-03   -0.15442E-03  1383   0.123E-01
   1847 T=   848. E= -.25381678E+02 F= -.32816126E+02 E0= -.32779082E+02  EK= 0.28501E+01 SP= 0.46E+01 SK= 0.25E-01 mag=     -0.001
       N       E                     dE             d eps       ncg     rms          rms(c)
DAV:   1    -0.328095142105E+02    0.61439E-02   -0.37288E-02  2648   0.110E+00    0.721E-02
RMM:   2    -0.328104422023E+02   -0.92799E-03   -0.50509E-03  1590   0.304E-01
   1848 T=   865. E= -.25377857E+02 F= -.32810442E+02 E0= -.32773033E+02  EK= 0.29079E+01 SP= 0.45E+01 SK= 0.21E-01 mag=      0.027
       N       E                     dE             d eps       ncg     rms          rms(c)
DAV:   1    -0.328059873874E+02    0.35268E-02   -0.28966E-02  2744   0.116E+00    0.655E-02
RMM:   2    -0.328069414871E+02   -0.95410E-03   -0.45736E-03  1563   0.286E-01
   1849 T=   881. E= -.25375665E+02 F= -.32806941E+02 E0= -.32769143E+02  EK= 0.29616E+01 SP= 0.45E+01 SK= 0.17E-01 mag=      0.045
       N       E                     dE             d eps       ncg     rms          rms(c)
DAV:   1    -0.328052254608E+02    0.76193E-03   -0.12395E-02  2504   0.108E+00    0.449E-02
RMM:   2    -0.328060702145E+02   -0.84475E-03   -0.40421E-03  1564   0.299E-01
   1850 T=   896. E= -.25372317E+02 F= -.32806070E+02 E0= -.32767795E+02  EK= 0.30125E+01 SP= 0.44E+01 SK= 0.12E-01 mag=      0.030
       N       E                     dE             d eps       ncg     rms          rms(c)
DAV:   1    -0.328068048421E+02   -0.15794E-02   -0.19862E-02  2600   0.123E+00    0.571E-02
RMM:   2    -0.328077355402E+02   -0.93070E-03   -0.45497E-03  1557   0.290E-01
   1851 T=   910. E= -.25366809E+02 F= -.32807736E+02 E0= -.32769017E+02  EK= 0.30599E+01 SP= 0.44E+01 SK= 0.73E-02 mag=     -0.012
       N       E                     dE             d eps       ncg     rms          rms(c)
DAV:   1    -0.328112006139E+02   -0.43958E-02   -0.10358E-02  2480   0.108E+00    0.484E-02
RMM:   2    -0.328123459545E+02   -0.11453E-02   -0.45443E-03  1559   0.303E-01
   1852 T=   922. E= -.25362007E+02 F= -.32812346E+02 E0= -.32773232E+02  EK= 0.30996E+01 SP= 0.43E+01 SK= 0.35E-02 mag=     -0.049
       N       E                     dE             d eps       ncg     rms          rms(c)
DAV:   1    -0.328196476431E+02   -0.84470E-02   -0.17537E-02  2768   0.121E+00    0.512E-02
RMM:   2    -0.328205395341E+02   -0.89189E-03   -0.44710E-03  1570   0.291E-01
   1853 T=   932. E= -.25357638E+02 F= -.32820540E+02 E0= -.32780890E+02  EK= 0.31310E+01 SP= 0.43E+01 SK= 0.90E-03 mag=     -0.051
       N       E                     dE             d eps       ncg     rms          rms(c)
DAV:   1    -0.328301633635E+02   -0.10516E-01   -0.17017E-02  2624   0.110E+00    0.432E-02
RMM:   2    -0.328312804266E+02   -0.11171E-02   -0.50943E-03  1590   0.314E-01
   1854 T=   938. E= -.25352881E+02 F= -.32831280E+02 E0= -.32791136E+02  EK= 0.31529E+01 SP= 0.43E+01 SK= 0.63E-06 mag=     -0.009
       N       E                     dE             d eps       ncg     rms          rms(c)
DAV:   1    -0.328442136453E+02   -0.14050E-01   -0.17326E-02  2632   0.116E+00    0.553E-02
RMM:   2    -0.328454573554E+02   -0.12437E-02   -0.50555E-03  1598   0.293E-01
   1855 T=   942. E= -.25347892E+02 F= -.32845457E+02 E0= -.32804899E+02  EK= 0.31650E+01 SP= 0.43E+01 SK= 0.11E-02 mag=      0.049
       N       E                     dE             d eps       ncg     rms          rms(c)
DAV:   1    -0.328623942782E+02   -0.18181E-01   -0.16275E-02  2648   0.113E+00    0.488E-02
RMM:   2    -0.328634484897E+02   -0.10542E-02   -0.50971E-03  1592   0.324E-01
   1856 T=   942. E= -.25343556E+02 F= -.32863448E+02 E0= -.32822355E+02  EK= 0.31664E+01 SP= 0.43E+01 SK= 0.42E-02 mag=      0.084
       N       E                     dE             d eps       ncg     rms          rms(c)
DAV:   1    -0.328829661382E+02   -0.20572E-01   -0.19298E-02  2752   0.116E+00    0.552E-02
RMM:   2    -0.328841773860E+02   -0.12112E-02   -0.53539E-03  1590   0.305E-01
   1857 T=   939. E= -.25338794E+02 F= -.32884177E+02 E0= -.32842566E+02  EK= 0.31571E+01 SP= 0.44E+01 SK= 0.94E-02 mag=      0.056
       N       E                     dE             d eps       ncg     rms          rms(c)
DAV:   1    -0.329068425609E+02   -0.23876E-01   -0.16827E-02  2736   0.113E+00    0.526E-02
RMM:   2    -0.329080822857E+02   -0.12397E-02   -0.50829E-03  1599   0.301E-01
   1858 T=   934. E= -.25334145E+02 F= -.32908082E+02 E0= -.32866004E+02  EK= 0.31376E+01 SP= 0.44E+01 SK= 0.16E-01 mag=     -0.027
       N       E                     dE             d eps       ncg     rms          rms(c)
DAV:   1    -0.329341693560E+02   -0.27327E-01   -0.18318E-02  2760   0.114E+00    0.577E-02
RMM:   2    -0.329353912206E+02   -0.12219E-02   -0.48569E-03  1587   0.294E-01
   1859 T=   925. E= -.25329779E+02 F= -.32935391E+02 E0= -.32892853E+02  EK= 0.31087E+01 SP= 0.45E+01 SK= 0.25E-01 mag=     -0.098
       N       E                     dE             d eps       ncg     rms          rms(c)
DAV:   1    -0.329645186543E+02   -0.30349E-01   -0.17896E-02  2752   0.111E+00    0.548E-02
RMM:   2    -0.329657422110E+02   -0.12236E-02   -0.61346E-03  1645   0.312E-01
   1860 T=   914. E= -.25325722E+02 F= -.32965742E+02 E0= -.32922606E+02  EK= 0.30712E+01 SP= 0.45E+01 SK= 0.34E-01 mag=     -0.105
       N       E                     dE             d eps       ncg     rms          rms(c)
DAV:   1    -0.329963460269E+02   -0.31827E-01   -0.22010E-02  2784   0.111E+00    0.638E-02
RMM:   2    -0.329977558557E+02   -0.14098E-02   -0.54903E-03  1601   0.299E-01    0.443E-02
RMM:   3    -0.329982270470E+02   -0.47119E-03   -0.14792E-03  1465   0.113E-01
   1861 T=   900. E= -.25322366E+02 F= -.32998227E+02 E0= -.32954530E+02  EK= 0.30255E+01 SP= 0.46E+01 SK= 0.44E-01 mag=     -0.010
       N       E                     dE             d eps       ncg     rms          rms(c)
DAV:   1    -0.330314222572E+02   -0.33666E-01   -0.19411E-02  2560   0.109E+00    0.607E-02
RMM:   2    -0.330325832627E+02   -0.11610E-02   -0.37163E-03  1529   0.263E-01
   1862 T=   886. E= -.25315973E+02 F= -.33032583E+02 E0= -.32988355E+02  EK= 0.29767E+01 SP= 0.47E+01 SK= 0.53E-01 mag=      0.093
       N       E                     dE             d eps       ncg     rms          rms(c)
DAV:   1    -0.330678850321E+02   -0.36463E-01   -0.31644E-02  3048   0.117E+00    0.518E-02
RMM:   2    -0.330690547498E+02   -0.11697E-02   -0.45013E-03  1592   0.261E-01
   1863 T=   870. E= -.25310594E+02 F= -.33069055E+02 E0= -.33024275E+02  EK= 0.29227E+01 SP= 0.48E+01 SK= 0.61E-01 mag=      0.125
       N       E                     dE             d eps       ncg     rms          rms(c)
DAV:   1    -0.331067074217E+02   -0.38822E-01   -0.13808E-02  2320   0.101E+00    0.409E-02
RMM:   2    -0.331075609561E+02   -0.85353E-03   -0.40121E-03  1568   0.282E-01
   1864 T=   852. E= -.25308012E+02 F= -.33107561E+02 E0= -.33062089E+02  EK= 0.28636E+01 SP= 0.49E+01 SK= 0.69E-01 mag=      0.056
       N       E                     dE             d eps       ncg     rms          rms(c)
DAV:   1    -0.331458897463E+02   -0.39182E-01   -0.21433E-02  2840   0.114E+00    0.403E-02
RMM:   2    -0.331467895929E+02   -0.89985E-03   -0.42568E-03  1579   0.268E-01
   1865 T=   834. E= -.25303784E+02 F= -.33146790E+02 E0= -.33100647E+02  EK= 0.28043E+01 SP= 0.50E+01 SK= 0.74E-01 mag=     -0.063
       N       E                     dE             d eps       ncg     rms          rms(c)
DAV:   1    -0.331853227371E+02   -0.39433E-01   -0.12105E-02  2552   0.103E+00    0.480E-02
RMM:   2    -0.331864392994E+02   -0.11166E-02   -0.51584E-03  1597   0.299E-01
   1866 T=   817. E= -.25298452E+02 F= -.33186439E+02 E0= -.33139750E+02  EK= 0.27458E+01 SP= 0.51E+01 SK= 0.77E-01 mag=     -0.153
       N       E                     dE             d eps       ncg     rms          rms(c)
DAV:   1    -0.332259403913E+02   -0.40618E-01   -0.15980E-02  2608   0.107E+00    0.440E-02
RMM:   2    -0.332268479694E+02   -0.90758E-03   -0.40209E-03  1559   0.270E-01
   1867 T=   800. E= -.25293241E+02 F= -.33226848E+02 E0= -.33179458E+02  EK= 0.26886E+01 SP= 0.52E+01 SK= 0.78E-01 mag=     -0.141
       N       E                     dE             d eps       ncg     rms          rms(c)
DAV:   1    -0.332668125883E+02   -0.40872E-01   -0.11609E-02  2248   0.102E+00    0.360E-02
RMM:   2    -0.332675742166E+02   -0.76163E-03   -0.40159E-03  1542   0.272E-01
   1868 T=   783. E= -.25289117E+02 F= -.33267574E+02 E0= -.33219300E+02  EK= 0.26328E+01 SP= 0.53E+01 SK= 0.77E-01 mag=     -0.025
       N       E                     dE             d eps       ncg     rms          rms(c)
DAV:   1    -0.333063993991E+02   -0.39587E-01   -0.14762E-02  2712   0.105E+00    0.467E-02
RMM:   2    -0.333073711320E+02   -0.97173E-03   -0.42952E-03  1533   0.267E-01
   1869 T=   768. E= -.25284109E+02 F= -.33307371E+02 E0= -.33258417E+02  EK= 0.25803E+01 SP= 0.54E+01 SK= 0.74E-01 mag=      0.123
       N       E                     dE             d eps       ncg     rms          rms(c)
DAV:   1    -0.333457511788E+02   -0.39352E-01   -0.13264E-02  2440   0.997E-01    0.501E-02
RMM:   2    -0.333466460838E+02   -0.89491E-03   -0.40485E-03  1541   0.277E-01
   1870 T=   753. E= -.25279188E+02 F= -.33346646E+02 E0= -.33297133E+02  EK= 0.25316E+01 SP= 0.55E+01 SK= 0.69E-01 mag=      0.220
       N       E                     dE             d eps       ncg     rms          rms(c)
DAV:   1    -0.333840181574E+02   -0.38267E-01   -0.13959E-02  2600   0.102E+00    0.502E-02
RMM:   2    -0.333849981990E+02   -0.98004E-03   -0.43393E-03  1558   0.273E-01
   1871 T=   740. E= -.25274150E+02 F= -.33384998E+02 E0= -.33334673E+02  EK= 0.24875E+01 SP= 0.56E+01 SK= 0.63E-01 mag=      0.183
       N       E                     dE             d eps       ncg     rms          rms(c)
DAV:   1    -0.334214010122E+02   -0.37383E-01   -0.12295E-02  2592   0.100E+00    0.432E-02
RMM:   2    -0.334221866874E+02   -0.78568E-03   -0.44579E-03  1573   0.272E-01
   1872 T=   728. E= -.25269591E+02 F= -.33422187E+02 E0= -.33370775E+02  EK= 0.24476E+01 SP= 0.56E+01 SK= 0.56E-01 mag=      0.013
       N       E                     dE             d eps       ncg     rms          rms(c)
DAV:   1    -0.334561042425E+02   -0.34703E-01   -0.12114E-02  2480   0.992E-01    0.488E-02
RMM:   2    -0.334570032215E+02   -0.89898E-03   -0.41873E-03  1543   0.275E-01
   1873 T=   718. E= -.25264233E+02 F= -.33457003E+02 E0= -.33405107E+02  EK= 0.24129E+01 SP= 0.57E+01 SK= 0.48E-01 mag=     -0.210
       N       E                     dE             d eps       ncg     rms          rms(c)
DAV:   1    -0.334885501278E+02   -0.32446E-01   -0.12338E-02  2536   0.102E+00    0.655E-02
RMM:   2    -0.334896911801E+02   -0.11411E-02   -0.40761E-03  1531   0.263E-01
   1874 T=   709. E= -.25258329E+02 F= -.33489691E+02 E0= -.33437617E+02  EK= 0.23836E+01 SP= 0.58E+01 SK= 0.39E-01 mag=     -0.352
       N       E                     dE             d eps       ncg     rms          rms(c)
DAV:   1    -0.335200518225E+02   -0.31502E-01   -0.11932E-02  2448   0.998E-01    0.592E-02
RMM:   2    -0.335210981135E+02   -0.10463E-02   -0.40866E-03  1534   0.276E-01
   1875 T=   702. E= -.25253047E+02 F= -.33521098E+02 E0= -.33467994E+02  EK= 0.23597E+01 SP= 0.59E+01 SK= 0.31E-01 mag=     -0.265
       N       E                     dE             d eps       ncg     rms          rms(c)
DAV:   1    -0.335497878595E+02   -0.29736E-01   -0.12231E-02  2600   0.101E+00    0.355E-02
RMM:   2    -0.335504666909E+02   -0.67883E-03   -0.44131E-03  1553   0.276E-01
   1876 T=   697. E= -.25248377E+02 F= -.33550467E+02 E0= -.33495996E+02  EK= 0.23409E+01 SP= 0.59E+01 SK= 0.24E-01 mag=      0.036
       N       E                     dE             d eps       ncg     rms          rms(c)
DAV:   1    -0.335732683064E+02   -0.23480E-01   -0.14797E-02  2632   0.987E-01    0.710E-02
RMM:   2    -0.335746120206E+02   -0.13437E-02   -0.47304E-03  1527   0.275E-01
   1877 T=   692. E= -.25241682E+02 F= -.33574612E+02 E0= -.33520643E+02  EK= 0.23267E+01 SP= 0.60E+01 SK= 0.17E-01 mag=      0.375
       N       E                     dE             d eps       ncg     rms          rms(c)
DAV:   1    -0.335951631066E+02   -0.21895E-01   -0.13850E-02  2496   0.102E+00    0.839E-02
RMM:   2    -0.335966299545E+02   -0.14668E-02   -0.44282E-03  1524   0.278E-01    0.673E-02
RMM:   3    -0.335974032811E+02   -0.77333E-03   -0.12581E-03  1494   0.113E-01
   1878 T=   689. E= -.25237743E+02 F= -.33597403E+02 E0= -.33543080E+02  EK= 0.23164E+01 SP= 0.60E+01 SK= 0.11E-01 mag=      0.247
       N       E                     dE             d eps       ncg     rms          rms(c)
DAV:   1    -0.336158659239E+02   -0.19236E-01   -0.20430E-02  2512   0.962E-01    0.730E-02
RMM:   2    -0.336171968056E+02   -0.13309E-02   -0.43324E-03  1453   0.251E-01
   1879 T=   688. E= -.25232895E+02 F= -.33617197E+02 E0= -.33561227E+02  EK= 0.23120E+01 SP= 0.61E+01 SK= 0.64E-02 mag=     -0.260
       N       E                     dE             d eps       ncg     rms          rms(c)
DAV:   1    -0.336248483560E+02   -0.89824E-02   -0.31891E-02  2840   0.109E+00    0.139E-01
RMM:   2    -0.336282480798E+02   -0.33997E-02   -0.58992E-03  1531   0.265E-01    0.109E-01
RMM:   3    -0.336311087347E+02   -0.28607E-02   -0.28105E-03  1431   0.123E-01    0.805E-02
RMM:   4    -0.336331998423E+02   -0.20911E-02   -0.21072E-03  1407   0.982E-02    0.465E-02
RMM:   5    -0.336341432427E+02   -0.94340E-03   -0.16542E-03  1415   0.814E-02
   1880 T=   688. E= -.25229874E+02 F= -.33634143E+02 E0= -.33577375E+02  EK= 0.23109E+01 SP= 0.61E+01 SK= 0.29E-02 mag=     -0.156
       N       E                     dE             d eps       ncg     rms          rms(c)
DAV:   1    -0.336389465525E+02   -0.57467E-02   -0.25595E-02  2456   0.936E-01    0.138E-01
RMM:   2    -0.336425251538E+02   -0.35786E-02   -0.73979E-03  1464   0.248E-01    0.103E-01
RMM:   3    -0.336450955942E+02   -0.25704E-02   -0.35094E-03  1400   0.111E-01    0.694E-02
RMM:   4    -0.336464859671E+02   -0.13904E-02   -0.20376E-03  1405   0.859E-02    0.323E-02
RMM:   5    -0.336467812573E+02   -0.29529E-03   -0.56020E-04  1247   0.538E-02
   1881 T=   688. E= -.25229408E+02 F= -.33646781E+02 E0= -.33589472E+02  EK= 0.23110E+01 SP= 0.61E+01 SK= 0.82E-03 mag=      0.163
       N       E                     dE             d eps       ncg     rms          rms(c)
DAV:   1    -0.336512196021E+02   -0.47336E-02   -0.12095E-02  2272   0.961E-01    0.906E-02
RMM:   2    -0.336528759888E+02   -0.16564E-02   -0.44839E-03  1496   0.245E-01    0.683E-02
RMM:   3    -0.336543228840E+02   -0.14469E-02   -0.22840E-03  1401   0.121E-01    0.502E-02
RMM:   4    -0.336549670189E+02   -0.64413E-03   -0.87869E-04  1354   0.763E-02
   1882 T=   689. E= -.25227598E+02 F= -.33654967E+02 E0= -.33597637E+02  EK= 0.23160E+01 SP= 0.61E+01 SK= 0.11E-04 mag=      0.216
       N       E                     dE             d eps       ncg     rms          rms(c)
DAV:   1    -0.336592143160E+02   -0.48914E-02   -0.89375E-03  2384   0.994E-01    0.440E-02
RMM:   2    -0.336597322083E+02   -0.51789E-03   -0.23169E-03  1506   0.218E-01
   1883 T=   693. E= -.25223094E+02 F= -.33659732E+02 E0= -.33601454E+02  EK= 0.23282E+01 SP= 0.61E+01 SK= 0.46E-03 mag=      0.003
       N       E                     dE             d eps       ncg     rms          rms(c)
DAV:   1    -0.336586151877E+02    0.59913E-03   -0.11507E-02  2736   0.992E-01    0.485E-02
RMM:   2    -0.336593838469E+02   -0.76866E-03   -0.35107E-03  1527   0.237E-01
   1884 T=   698. E= -.25216963E+02 F= -.33659384E+02 E0= -.33601705E+02  EK= 0.23447E+01 SP= 0.61E+01 SK= 0.21E-02 mag=     -0.347
       N       E                     dE             d eps       ncg     rms          rms(c)
DAV:   1    -0.336530872763E+02    0.55279E-02   -0.10002E-02  2280   0.101E+00    0.766E-02
RMM:   2    -0.336543037676E+02   -0.12165E-02   -0.38156E-03  1513   0.263E-01
   1885 T=   703. E= -.25211739E+02 F= -.33654304E+02 E0= -.33598196E+02  EK= 0.23631E+01 SP= 0.61E+01 SK= 0.46E-02 mag=     -0.591
       N       E                     dE             d eps       ncg     rms          rms(c)
DAV:   1    -0.336456438345E+02    0.74434E-02   -0.12336E-02  2568   0.104E+00    0.736E-02
RMM:   2    -0.336468000791E+02   -0.11562E-02   -0.40425E-03  1540   0.272E-01
   1886 T=   710. E= -.25207087E+02 F= -.33646800E+02 E0= -.33590069E+02  EK= 0.23857E+01 SP= 0.60E+01 SK= 0.80E-02 mag=     -0.551
       N       E                     dE             d eps       ncg     rms          rms(c)
DAV:   1    -0.336352718442E+02    0.10372E-01   -0.99622E-03  2336   0.100E+00    0.355E-02
RMM:   2    -0.336359332947E+02   -0.66145E-03   -0.41087E-03  1539   0.283E-01
   1887 T=   718. E= -.25202620E+02 F= -.33635933E+02 E0= -.33577243E+02  EK= 0.24117E+01 SP= 0.60E+01 SK= 0.12E-01 mag=     -0.172
       N       E                     dE             d eps       ncg     rms          rms(c)
DAV:   1    -0.336175438765E+02    0.17728E-01   -0.11162E-02  2456   0.103E+00    0.584E-02
RMM:   2    -0.336183787059E+02   -0.83483E-03   -0.41792E-03  1530   0.279E-01
   1888 T=   726. E= -.25195825E+02 F= -.33618379E+02 E0= -.33560707E+02  EK= 0.24399E+01 SP= 0.60E+01 SK= 0.16E-01 mag=      0.424
       N       E                     dE             d eps       ncg     rms          rms(c)
DAV:   1    -0.335903312020E+02    0.27213E-01   -0.14413E-02  2624   0.106E+00    0.121E-01
RMM:   2    -0.335930768229E+02   -0.27456E-02   -0.51063E-03  1501   0.289E-01    0.989E-02
RMM:   3    -0.335954940345E+02   -0.24172E-02   -0.26810E-03  1407   0.132E-01    0.745E-02
RMM:   4    -0.335974097797E+02   -0.19157E-02   -0.19907E-03  1401   0.105E-01    0.461E-02
RMM:   5    -0.335985589237E+02   -0.11491E-02   -0.25120E-03  1439   0.958E-02
   1889 T=   734. E= -.25193665E+02 F= -.33598559E+02 E0= -.33540074E+02  EK= 0.24672E+01 SP= 0.59E+01 SK= 0.20E-01 mag=      0.104
       N       E                     dE             d eps       ncg     rms          rms(c)
DAV:   1    -0.335646233359E+02    0.32786E-01   -0.18865E-02  2464   0.101E+00    0.131E-01
RMM:   2    -0.335675664430E+02   -0.29431E-02   -0.53530E-03  1539   0.254E-01    0.104E-01
RMM:   3    -0.335698558550E+02   -0.22894E-02   -0.24330E-03  1400   0.107E-01    0.788E-02
RMM:   4    -0.335713662109E+02   -0.15104E-02   -0.12039E-03  1379   0.735E-02    0.568E-02
RMM:   5    -0.335729310507E+02   -0.15648E-02   -0.28850E-03  1464   0.897E-02    0.234E-02
RMM:   6    -0.335730552566E+02   -0.12421E-03   -0.24298E-04  1198   0.492E-02
   1890 T=   742. E= -.25192850E+02 F= -.33573055E+02 E0= -.33514822E+02  EK= 0.24930E+01 SP= 0.59E+01 SK= 0.25E-01 mag=     -0.093
       N       E                     dE             d eps       ncg     rms          rms(c)
DAV:   1    -0.335415342571E+02    0.31397E-01   -0.12505E-02  2384   0.105E+00    0.602E-02
RMM:   2    -0.335425927087E+02   -0.10585E-02   -0.46329E-03  1561   0.255E-01
   1891 T=   751. E= -.25188549E+02 F= -.33542593E+02 E0= -.33484848E+02  EK= 0.25224E+01 SP= 0.58E+01 SK= 0.29E-01 mag=     -0.131
       N       E                     dE             d eps       ncg     rms          rms(c)
DAV:   1    -0.335086302580E+02    0.32904E-01   -0.16494E-02  2808   0.106E+00    0.537E-02
RMM:   2    -0.335094704818E+02   -0.84022E-03   -0.37017E-03  1532   0.257E-01
   1892 T=   760. E= -.25184455E+02 F= -.33509470E+02 E0= -.33451971E+02  EK= 0.25535E+01 SP= 0.57E+01 SK= 0.32E-01 mag=     -0.001
       N       E                     dE             d eps       ncg     rms          rms(c)
DAV:   1    -0.334719283334E+02    0.36702E-01   -0.15257E-02  2320   0.106E+00    0.424E-02
RMM:   2    -0.334726362525E+02   -0.70792E-03   -0.40020E-03  1527   0.284E-01
   1893 T=   769. E= -.25180870E+02 F= -.33472636E+02 E0= -.33415976E+02  EK= 0.25843E+01 SP= 0.57E+01 SK= 0.35E-01 mag=      0.221
       N       E                     dE             d eps       ncg     rms          rms(c)
DAV:   1    -0.334302870251E+02    0.41641E-01   -0.13928E-02  2560   0.108E+00    0.620E-02
RMM:   2    -0.334314587698E+02   -0.11717E-02   -0.48417E-03  1525   0.284E-01
   1894 T=   779. E= -.25174448E+02 F= -.33431459E+02 E0= -.33376380E+02  EK= 0.26168E+01 SP= 0.56E+01 SK= 0.37E-01 mag=      0.416
       N       E                     dE             d eps       ncg     rms          rms(c)
DAV:   1    -0.333865528192E+02    0.43734E-01   -0.11856E-02  2360   0.109E+00    0.707E-02
RMM:   2    -0.333880197567E+02   -0.14669E-02   -0.49599E-03  1525   0.309E-01    0.564E-02
RMM:   3    -0.333892337994E+02   -0.12140E-02   -0.26162E-03  1403   0.127E-01
   1895 T=   788. E= -.25169813E+02 F= -.33389234E+02 E0= -.33334341E+02  EK= 0.26491E+01 SP= 0.55E+01 SK= 0.39E-01 mag=      0.219
       N       E                     dE             d eps       ncg     rms          rms(c)
DAV:   1    -0.333417234377E+02    0.46296E-01   -0.17734E-02  2464   0.103E+00    0.786E-02
RMM:   2    -0.333432934150E+02   -0.15700E-02   -0.39727E-03  1465   0.266E-01    0.576E-02
RMM:   3    -0.333439987914E+02   -0.70538E-03   -0.11654E-03  1360   0.101E-01
   1896 T=   798. E= -.25164514E+02 F= -.33343999E+02 E0= -.33289691E+02  EK= 0.26808E+01 SP= 0.55E+01 SK= 0.40E-01 mag=     -0.212
       N       E                     dE             d eps       ncg     rms          rms(c)
DAV:   1    -0.332929160907E+02    0.50377E-01   -0.28579E-02  2552   0.107E+00    0.929E-02
RMM:   2    -0.332947000814E+02   -0.17840E-02   -0.43876E-03  1518   0.260E-01    0.759E-02
RMM:   3    -0.332958247439E+02   -0.11247E-02   -0.14026E-03  1449   0.117E-01
   1897 T=   807. E= -.25158206E+02 F= -.33295825E+02 E0= -.33243651E+02  EK= 0.27117E+01 SP= 0.54E+01 SK= 0.39E-01 mag=     -0.394
       N       E                     dE             d eps       ncg     rms          rms(c)
DAV:   1    -0.332488023544E+02    0.45898E-01   -0.13823E-02  2424   0.105E+00    0.525E-02
RMM:   2    -0.332494867380E+02   -0.68438E-03   -0.35904E-03  1523   0.262E-01
   1898 T=   816. E= -.25153020E+02 F= -.33249487E+02 E0= -.33196937E+02  EK= 0.27435E+01 SP= 0.53E+01 SK= 0.38E-01 mag=     -0.229
       N       E                     dE             d eps       ncg     rms          rms(c)
DAV:   1    -0.332003904203E+02    0.48412E-01   -0.17964E-02  2816   0.112E+00    0.437E-02
RMM:   2    -0.332012552166E+02   -0.86480E-03   -0.44357E-03  1543   0.265E-01
   1899 T=   825. E= -.25146678E+02 F= -.33201255E+02 E0= -.33149508E+02  EK= 0.27741E+01 SP= 0.52E+01 SK= 0.36E-01 mag=      0.213
       N       E                     dE             d eps       ncg     rms          rms(c)
DAV:   1    -0.331477146811E+02    0.52676E-01   -0.12579E-02  2072   0.108E+00    0.107E-01
RMM:   2    -0.331499941855E+02   -0.22795E-02   -0.49479E-03  1543   0.307E-01    0.843E-02
RMM:   3    -0.331519745939E+02   -0.19804E-02   -0.26021E-03  1399   0.136E-01    0.596E-02
RMM:   4    -0.331532219198E+02   -0.12473E-02   -0.15748E-03  1394   0.990E-02
   1900 T=   833. E= -.25143567E+02 F= -.33153222E+02 E0= -.33102811E+02  EK= 0.28001E+01 SP= 0.52E+01 SK= 0.34E-01 mag=      0.060
       N       E                     dE             d eps       ncg     rms          rms(c)
DAV:   1    -0.331027164052E+02    0.49258E-01   -0.24760E-02  2648   0.116E+00    0.950E-02
RMM:   2    -0.331047354346E+02   -0.20190E-02   -0.39710E-03  1470   0.259E-01    0.751E-02
RMM:   3    -0.331057377865E+02   -0.10024E-02   -0.12290E-03  1377   0.998E-02
   1901 T=   841. E= -.25138842E+02 F= -.33105738E+02 E0= -.33056611E+02  EK= 0.28261E+01 SP= 0.51E+01 SK= 0.31E-01 mag=     -0.256
       N       E                     dE             d eps       ncg     rms          rms(c)
DAV:   1    -0.330572111528E+02    0.47524E-01   -0.45407E-02  2584   0.110E+00    0.987E-02
RMM:   2    -0.330590667901E+02   -0.18556E-02   -0.64450E-03  1604   0.325E-01    0.734E-02
RMM:   3    -0.330600358430E+02   -0.96905E-03   -0.16287E-03  1510   0.127E-01
   1902 T=   848. E= -.25133920E+02 F= -.33060036E+02 E0= -.33012331E+02  EK= 0.28512E+01 SP= 0.50E+01 SK= 0.27E-01 mag=     -0.194
       N       E                     dE             d eps       ncg     rms          rms(c)
DAV:   1    -0.330174744053E+02    0.41592E-01   -0.18091E-02  2432   0.112E+00    0.564E-02
RMM:   2    -0.330184526922E+02   -0.97829E-03   -0.44726E-03  1508   0.279E-01
   1903 T=   856. E= -.25129877E+02 F= -.33018453E+02 E0= -.32970627E+02  EK= 0.28757E+01 SP= 0.50E+01 SK= 0.24E-01 mag=      0.183
       N       E                     dE             d eps       ncg     rms          rms(c)
DAV:   1    -0.329722051264E+02    0.45269E-01   -0.42623E-02  2856   0.118E+00    0.117E-01
RMM:   2    -0.329747750656E+02   -0.25699E-02   -0.67565E-03  1538   0.302E-01    0.867E-02
RMM:   3    -0.329769717795E+02   -0.21967E-02   -0.25799E-03  1486   0.129E-01    0.653E-02
RMM:   4    -0.329783629044E+02   -0.13911E-02   -0.18899E-03  1401   0.937E-02    0.299E-02
RMM:   5    -0.329787289074E+02   -0.36600E-03   -0.86110E-04  1357   0.648E-02
   1904 T=   862. E= -.25126215E+02 F= -.32978729E+02 E0= -.32931781E+02  EK= 0.28973E+01 SP= 0.49E+01 SK= 0.20E-01 mag=      0.023
       N       E                     dE             d eps       ncg     rms          rms(c)
DAV:   1    -0.329373122052E+02    0.41051E-01   -0.18465E-02  2504   0.107E+00    0.978E-02
RMM:   2    -0.329391968440E+02   -0.18846E-02   -0.44919E-03  1459   0.249E-01    0.734E-02
RMM:   3    -0.329404068311E+02   -0.12100E-02   -0.16854E-03  1400   0.943E-02
   1905 T=   867. E= -.25123229E+02 F= -.32940407E+02 E0= -.32895075E+02  EK= 0.29145E+01 SP= 0.49E+01 SK= 0.16E-01 mag=     -0.190
       N       E                     dE             d eps       ncg     rms          rms(c)
DAV:   1    -0.329055552546E+02    0.33642E-01   -0.25696E-02  2672   0.109E+00    0.773E-02
RMM:   2    -0.329067348080E+02   -0.11796E-02   -0.41460E-03  1522   0.268E-01
   1906 T=   872. E= -.25119241E+02 F= -.32906735E+02 E0= -.32862371E+02  EK= 0.29315E+01 SP= 0.48E+01 SK= 0.12E-01 mag=     -0.295
       N       E                     dE             d eps       ncg     rms          rms(c)
DAV:   1    -0.328759536054E+02    0.29602E-01   -0.22479E-02  2872   0.113E+00    0.577E-02
RMM:   2    -0.328771042951E+02   -0.11507E-02   -0.44746E-03  1525   0.271E-01
   1907 T=   876. E= -.25117413E+02 F= -.32877104E+02 E0= -.32833120E+02  EK= 0.29442E+01 SP= 0.48E+01 SK= 0.86E-02 mag=     -0.209
       N       E                     dE             d eps       ncg     rms          rms(c)
DAV:   1    -0.328499477568E+02    0.26006E-01   -0.11668E-02  2472   0.108E+00    0.404E-02
RMM:   2    -0.328507171626E+02   -0.76941E-03   -0.39313E-03  1523   0.283E-01
   1908 T=   879. E= -.25114712E+02 F= -.32850717E+02 E0= -.32807177E+02  EK= 0.29542E+01 SP= 0.48E+01 SK= 0.57E-02 mag=      0.038
       N       E                     dE             d eps       ncg     rms          rms(c)
DAV:   1    -0.328243051059E+02    0.25643E-01   -0.16091E-02  2552   0.118E+00    0.636E-02
RMM:   2    -0.328256940872E+02   -0.13890E-02   -0.48684E-03  1513   0.281E-01    0.518E-02
RMM:   3    -0.328263421823E+02   -0.64810E-03   -0.16347E-03  1455   0.112E-01
   1909 T=   881. E= -.25109550E+02 F= -.32826342E+02 E0= -.32783909E+02  EK= 0.29615E+01 SP= 0.48E+01 SK= 0.33E-02 mag=      0.118
       N       E                     dE             d eps       ncg     rms          rms(c)
DAV:   1    -0.328055456531E+02    0.20148E-01   -0.13402E-02  2536   0.107E+00    0.478E-02
RMM:   2    -0.328061858836E+02   -0.64023E-03   -0.26870E-03  1490   0.262E-01
   1910 T=   882. E= -.25104219E+02 F= -.32806186E+02 E0= -.32764070E+02  EK= 0.29659E+01 SP= 0.47E+01 SK= 0.15E-02 mag=      0.023
       N       E                     dE             d eps       ncg     rms          rms(c)
DAV:   1    -0.327867381144E+02    0.18808E-01   -0.21240E-02  3064   0.120E+00    0.506E-02
RMM:   2    -0.327876723378E+02   -0.93422E-03   -0.40829E-03  1530   0.251E-01
   1911 T=   882. E= -.25098331E+02 F= -.32787672E+02 E0= -.32746208E+02  EK= 0.29649E+01 SP= 0.47E+01 SK= 0.39E-03 mag=     -0.142
       N       E                     dE             d eps       ncg     rms          rms(c)
DAV:   1    -0.327700822608E+02    0.16656E-01   -0.65211E-03  1728   0.104E+00    0.627E-02
RMM:   2    -0.327713445260E+02   -0.12623E-02   -0.53282E-03  1545   0.313E-01
   1912 T=   880. E= -.25093808E+02 F= -.32771345E+02 E0= -.32730643E+02  EK= 0.29573E+01 SP= 0.47E+01 SK= 0.15E-05 mag=     -0.210
       N       E                     dE             d eps       ncg     rms          rms(c)
DAV:   1    -0.327570996665E+02    0.12983E-01   -0.19749E-02  3000   0.129E+00    0.495E-02
RMM:   2    -0.327581451770E+02   -0.10455E-02   -0.50109E-03  1579   0.302E-01
   1913 T=   876. E= -.25089666E+02 F= -.32758145E+02 E0= -.32717706E+02  EK= 0.29451E+01 SP= 0.47E+01 SK= 0.27E-03 mag=     -0.127
       N       E                     dE             d eps       ncg     rms          rms(c)
DAV:   1    -0.327452389244E+02    0.11861E-01   -0.14364E-02  2320   0.107E+00    0.358E-02
RMM:   2    -0.327462363488E+02   -0.99742E-03   -0.53980E-03  1556   0.341E-01
   1914 T=   871. E= -.25085131E+02 F= -.32746236E+02 E0= -.32706048E+02  EK= 0.29277E+01 SP= 0.47E+01 SK= 0.11E-02 mag=      0.061
       N       E                     dE             d eps       ncg     rms          rms(c)
DAV:   1    -0.327332930521E+02    0.11946E-01   -0.15241E-02  2736   0.123E+00    0.623E-02
RMM:   2    -0.327345768724E+02   -0.12838E-02   -0.52062E-03  1577   0.304E-01
   1915 T=   865. E= -.25078480E+02 F= -.32734577E+02 E0= -.32695050E+02  EK= 0.29063E+01 SP= 0.47E+01 SK= 0.24E-02 mag=      0.204
       N       E                     dE             d eps       ncg     rms          rms(c)
DAV:   1    -0.327233636419E+02    0.99294E-02   -0.13745E-02  2728   0.114E+00    0.626E-02
RMM:   2    -0.327246834172E+02   -0.13198E-02   -0.52329E-03  1548   0.321E-01
   1916 T=   857. E= -.25073024E+02 F= -.32724683E+02 E0= -.32685527E+02  EK= 0.28799E+01 SP= 0.48E+01 SK= 0.39E-02 mag=      0.192
       N       E                     dE             d eps       ncg     rms          rms(c)
DAV:   1    -0.327152102516E+02    0.81534E-02   -0.14066E-02  2488   0.119E+00    0.383E-02
RMM:   2    -0.327162170669E+02   -0.10068E-02   -0.51786E-03  1570   0.320E-01
   1917 T=   848. E= -.25068002E+02 F= -.32716217E+02 E0= -.32677046E+02  EK= 0.28496E+01 SP= 0.48E+01 SK= 0.56E-02 mag=      0.022
       N       E                     dE             d eps       ncg     rms          rms(c)
DAV:   1    -0.327059213191E+02    0.92889E-02   -0.14322E-02  2552   0.114E+00    0.594E-02
RMM:   2    -0.327071301962E+02   -0.12089E-02   -0.53945E-03  1575   0.317E-01
   1918 T=   838. E= -.25061891E+02 F= -.32707130E+02 E0= -.32668375E+02  EK= 0.28160E+01 SP= 0.48E+01 SK= 0.71E-02 mag=     -0.184
       N       E                     dE             d eps       ncg     rms          rms(c)
DAV:   1    -0.326964319941E+02    0.94893E-02   -0.16269E-02  2672   0.118E+00    0.806E-02
RMM:   2    -0.326982877482E+02   -0.18558E-02   -0.58724E-03  1556   0.320E-01    0.625E-02
RMM:   3    -0.326994170743E+02   -0.11293E-02   -0.22250E-03  1445   0.130E-01
   1919 T=   827. E= -.25057547E+02 F= -.32699417E+02 E0= -.32660946E+02  EK= 0.27790E+01 SP= 0.49E+01 SK= 0.84E-02 mag=     -0.058
       N       E                     dE             d eps       ncg     rms          rms(c)
DAV:   1    -0.326898385357E+02    0.84492E-02   -0.19430E-02  2568   0.111E+00    0.851E-02
RMM:   2    -0.326916215550E+02   -0.17830E-02   -0.39718E-03  1452   0.288E-01    0.648E-02
RMM:   3    -0.326922434178E+02   -0.62186E-03   -0.10241E-03  1279   0.104E-01
   1920 T=   816. E= -.25052675E+02 F= -.32692243E+02 E0= -.32653994E+02  EK= 0.27413E+01 SP= 0.49E+01 SK= 0.93E-02 mag=      0.089
       N       E                     dE             d eps       ncg     rms          rms(c)
DAV:   1    -0.326850609160E+02    0.65606E-02   -0.38020E-02  2704   0.112E+00    0.565E-02
RMM:   2    -0.326860501815E+02   -0.98927E-03   -0.47062E-03  1534   0.282E-01
   1921 T=   805. E= -.25047099E+02 F= -.32686050E+02 E0= -.32647913E+02  EK= 0.27044E+01 SP= 0.49E+01 SK= 0.98E-02 mag=      0.154
       N       E                     dE             d eps       ncg     rms          rms(c)
DAV:   1    -0.326797981718E+02    0.52627E-02   -0.24113E-02  2632   0.113E+00    0.431E-02
RMM:   2    -0.326806709508E+02   -0.87278E-03   -0.47890E-03  1551   0.291E-01
   1922 T=   794. E= -.25042945E+02 F= -.32680671E+02 E0= -.32642603E+02  EK= 0.26670E+01 SP= 0.50E+01 SK= 0.97E-02 mag=      0.088
       N       E                     dE             d eps       ncg     rms          rms(c)
DAV:   1    -0.326753066911E+02    0.44915E-02   -0.15329E-02  2728   0.109E+00    0.402E-02
RMM:   2    -0.326760942854E+02   -0.78759E-03   -0.42822E-03  1553   0.312E-01
   1923 T=   783. E= -.25038451E+02 F= -.32676094E+02 E0= -.32638162E+02  EK= 0.26318E+01 SP= 0.50E+01 SK= 0.92E-02 mag=     -0.063
       N       E                     dE             d eps       ncg     rms          rms(c)
DAV:   1    -0.326710460309E+02    0.42607E-02   -0.14900E-02  2440   0.115E+00    0.557E-02
RMM:   2    -0.326721471139E+02   -0.11011E-02   -0.43987E-03  1566   0.279E-01
   1924 T=   774. E= -.25033179E+02 F= -.32672147E+02 E0= -.32634550E+02  EK= 0.25998E+01 SP= 0.50E+01 SK= 0.83E-02 mag=     -0.162
       N       E                     dE             d eps       ncg     rms          rms(c)
DAV:   1    -0.326695376573E+02    0.15084E-02   -0.10068E-02  2464   0.105E+00    0.467E-02
RMM:   2    -0.326704791872E+02   -0.94153E-03   -0.43252E-03  1568   0.292E-01
   1925 T=   765. E= -.25028466E+02 F= -.32670479E+02 E0= -.32632961E+02  EK= 0.25719E+01 SP= 0.51E+01 SK= 0.71E-02 mag=     -0.129
       N       E                     dE             d eps       ncg     rms          rms(c)
DAV:   1    -0.326697617130E+02   -0.22406E-03   -0.13434E-02  2456   0.109E+00    0.309E-02
RMM:   2    -0.326704612559E+02   -0.69954E-03   -0.38721E-03  1532   0.273E-01
   1926 T=   758. E= -.25023706E+02 F= -.32670461E+02 E0= -.32632943E+02  EK= 0.25489E+01 SP= 0.51E+01 SK= 0.57E-02 mag=      0.016
       N       E                     dE             d eps       ncg     rms          rms(c)
DAV:   1    -0.326701198448E+02   -0.35813E-03   -0.11731E-02  2272   0.103E+00    0.532E-02
RMM:   2    -0.326711990722E+02   -0.10792E-02   -0.46763E-03  1544   0.292E-01
   1927 T=   753. E= -.25018540E+02 F= -.32671199E+02 E0= -.32633958E+02  EK= 0.25305E+01 SP= 0.51E+01 SK= 0.43E-02 mag=      0.166
       N       E                     dE             d eps       ncg     rms          rms(c)
DAV:   1    -0.326728375352E+02   -0.27177E-02   -0.15160E-02  2776   0.108E+00    0.637E-02
RMM:   2    -0.326742092889E+02   -0.13718E-02   -0.47067E-03  1550   0.287E-01    0.487E-02
RMM:   3    -0.326749626596E+02   -0.75337E-03   -0.16776E-03  1448   0.117E-01
   1928 T=   749. E= -.25015024E+02 F= -.32674963E+02 E0= -.32637769E+02  EK= 0.25172E+01 SP= 0.51E+01 SK= 0.29E-02 mag=      0.039
       N       E                     dE             d eps       ncg     rms          rms(c)
DAV:   1    -0.326780841881E+02   -0.38749E-02   -0.13975E-02  2336   0.101E+00    0.802E-02
RMM:   2    -0.326796510781E+02   -0.15669E-02   -0.35063E-03  1468   0.249E-01    0.602E-02
RMM:   3    -0.326803235645E+02   -0.67249E-03   -0.91942E-04  1289   0.917E-02
   1929 T=   747. E= -.25011288E+02 F= -.32680324E+02 E0= -.32643294E+02  EK= 0.25098E+01 SP= 0.52E+01 SK= 0.18E-02 mag=     -0.065
       N       E                     dE             d eps       ncg     rms          rms(c)
DAV:   1    -0.326878223831E+02   -0.81713E-02   -0.27732E-02  2528   0.103E+00    0.475E-02
RMM:   2    -0.326884888151E+02   -0.66643E-03   -0.35211E-03  1540   0.252E-01
   1930 T=   747. E= -.25006500E+02 F= -.32688489E+02 E0= -.32651477E+02  EK= 0.25105E+01 SP= 0.52E+01 SK= 0.91E-03 mag=     -0.084
       N       E                     dE             d eps       ncg     rms          rms(c)
DAV:   1    -0.326982637133E+02   -0.10441E-01   -0.19727E-02  2640   0.107E+00    0.283E-02
RMM:   2    -0.326989101466E+02   -0.64643E-03   -0.38241E-03  1542   0.257E-01
   1931 T=   749. E= -.25002830E+02 F= -.32698910E+02 E0= -.32661893E+02  EK= 0.25163E+01 SP= 0.52E+01 SK= 0.34E-03 mag=     -0.011
       N       E                     dE             d eps       ncg     rms          rms(c)
DAV:   1    -0.327107457928E+02   -0.12482E-01   -0.10081E-02  2288   0.103E+00    0.401E-02
RMM:   2    -0.327115067624E+02   -0.76097E-03   -0.39197E-03  1546   0.289E-01
   1932 T=   752. E= -.24998951E+02 F= -.32711507E+02 E0= -.32674610E+02  EK= 0.25285E+01 SP= 0.52E+01 SK= 0.50E-04 mag=      0.081
       N       E                     dE             d eps       ncg     rms          rms(c)
DAV:   1    -0.327258244192E+02   -0.15079E-01   -0.13670E-02  2448   0.112E+00    0.433E-02
RMM:   2    -0.327266388551E+02   -0.81444E-03   -0.38696E-03  1529   0.267E-01
   1933 T=   758. E= -.24994394E+02 F= -.32726639E+02 E0= -.32689891E+02  EK= 0.25477E+01 SP= 0.52E+01 SK= 0.97E-05 mag=      0.116
       N       E                     dE             d eps       ncg     rms          rms(c)
DAV:   1    -0.327440724580E+02   -0.18248E-01   -0.99391E-03  2448   0.102E+00    0.297E-02
RMM:   2    -0.327447722092E+02   -0.69975E-03   -0.36107E-03  1549   0.275E-01
   1934 T=   766. E= -.24990084E+02 F= -.32744772E+02 E0= -.32708026E+02  EK= 0.25729E+01 SP= 0.52E+01 SK= 0.14E-03 mag=      0.057
       N       E                     dE             d eps       ncg     rms          rms(c)
DAV:   1    -0.327644491784E+02   -0.20377E-01   -0.13577E-02  2480   0.108E+00    0.327E-02
RMM:   2    -0.327651455802E+02   -0.69640E-03   -0.37049E-03  1532   0.267E-01
   1935 T=   775. E= -.24985692E+02 F= -.32765146E+02 E0= -.32728409E+02  EK= 0.26032E+01 SP= 0.52E+01 SK= 0.35E-03 mag=     -0.053
       N       E                     dE             d eps       ncg     rms          rms(c)
DAV:   1    -0.327863345581E+02   -0.21885E-01   -0.11520E-02  2432   0.104E+00    0.427E-02
RMM:   2    -0.327872659075E+02   -0.93135E-03   -0.42289E-03  1552   0.276E-01
   1936 T=   785. E= -.24981394E+02 F= -.32787266E+02 E0= -.32750686E+02  EK= 0.26372E+01 SP= 0.52E+01 SK= 0.54E-03 mag=     -0.121
       N       E                     dE             d eps       ncg     rms          rms(c)
DAV:   1    -0.328112628071E+02   -0.24928E-01   -0.15338E-02  2680   0.110E+00    0.384E-02
RMM:   2    -0.328121353065E+02   -0.87250E-03   -0.43222E-03  1551   0.285E-01
   1937 T=   796. E= -.24977259E+02 F= -.32812135E+02 E0= -.32775580E+02  EK= 0.26752E+01 SP= 0.52E+01 SK= 0.65E-03 mag=     -0.089
       N       E                     dE             d eps       ncg     rms          rms(c)
DAV:   1    -0.328382554180E+02   -0.26993E-01   -0.12615E-02  2544   0.105E+00    0.274E-02
RMM:   2    -0.328390392648E+02   -0.78385E-03   -0.42168E-03  1548   0.290E-01
   1938 T=   808. E= -.24973437E+02 F= -.32839039E+02 E0= -.32802448E+02  EK= 0.27154E+01 SP= 0.51E+01 SK= 0.63E-03 mag=      0.025
       N       E                     dE             d eps       ncg     rms          rms(c)
DAV:   1    -0.328656997461E+02   -0.27444E-01   -0.14481E-02  2544   0.111E+00    0.457E-02
RMM:   2    -0.328668059962E+02   -0.11063E-02   -0.51203E-03  1598   0.288E-01
   1939 T=   820. E= -.24968615E+02 F= -.32866806E+02 E0= -.32830320E+02  EK= 0.27569E+01 SP= 0.51E+01 SK= 0.47E-03 mag=      0.117
       N       E                     dE             d eps       ncg     rms          rms(c)
DAV:   1    -0.328956180157E+02   -0.29918E-01   -0.15751E-02  2616   0.108E+00    0.437E-02
RMM:   2    -0.328966301234E+02   -0.10121E-02   -0.45420E-03  1574   0.291E-01
   1940 T=   833. E= -.24964286E+02 F= -.32896630E+02 E0= -.32860185E+02  EK= 0.27984E+01 SP= 0.51E+01 SK= 0.25E-03 mag=      0.116
       N       E                     dE             d eps       ncg     rms          rms(c)
DAV:   1    -0.329268655893E+02   -0.31248E-01   -0.14008E-02  2592   0.110E+00    0.303E-02
RMM:   2    -0.329277949636E+02   -0.92937E-03   -0.46434E-03  1571   0.287E-01
   1941 T=   845. E= -.24960214E+02 F= -.32927795E+02 E0= -.32891273E+02  EK= 0.28382E+01 SP= 0.51E+01 SK= 0.49E-04 mag=      0.017
       N       E                     dE             d eps       ncg     rms          rms(c)
DAV:   1    -0.329582920095E+02   -0.31426E-01   -0.14666E-02  2608   0.109E+00    0.426E-02
RMM:   2    -0.329593853074E+02   -0.10933E-02   -0.46831E-03  1568   0.283E-01
   1942 T=   855. E= -.24955989E+02 F= -.32959385E+02 E0= -.32922908E+02  EK= 0.28748E+01 SP= 0.51E+01 SK= 0.19E-04 mag=     -0.102
       N       E                     dE             d eps       ncg     rms          rms(c)
DAV:   1    -0.329900879435E+02   -0.31796E-01   -0.14628E-02  2752   0.111E+00    0.518E-02
RMM:   2    -0.329913238391E+02   -0.12359E-02   -0.48231E-03  1570   0.288E-01
   1943 T=   865. E= -.24951823E+02 F= -.32991324E+02 E0= -.32954905E+02  EK= 0.29067E+01 SP= 0.51E+01 SK= 0.33E-03 mag=     -0.144
       N       E                     dE             d eps       ncg     rms          rms(c)
DAV:   1    -0.330226169724E+02   -0.32529E-01   -0.15833E-02  2584   0.111E+00    0.374E-02
RMM:   2    -0.330237305866E+02   -0.11136E-02   -0.49044E-03  1578   0.294E-01
   1944 T=   873. E= -.24947796E+02 F= -.33023731E+02 E0= -.32987225E+02  EK= 0.29330E+01 SP= 0.51E+01 SK= 0.11E-02 mag=     -0.067
       N       E                     dE             d eps       ncg     rms          rms(c)
DAV:   1    -0.330545200499E+02   -0.31903E-01   -0.16442E-02  2816   0.111E+00    0.410E-02
RMM:   2    -0.330556861712E+02   -0.11661E-02   -0.50017E-03  1579   0.295E-01
   1945 T=   879. E= -.24943316E+02 F= -.33055686E+02 E0= -.33019087E+02  EK= 0.29527E+01 SP= 0.52E+01 SK= 0.26E-02 mag=      0.073
       N       E                     dE             d eps       ncg     rms          rms(c)
DAV:   1    -0.330850874495E+02   -0.30567E-01   -0.17381E-02  2784   0.112E+00    0.580E-02
RMM:   2    -0.330865288310E+02   -0.14414E-02   -0.50600E-03  1576   0.284E-01    0.432E-02
RMM:   3    -0.330870840343E+02   -0.55520E-03   -0.16250E-03  1460   0.112E-01
   1946 T=   882. E= -.24940016E+02 F= -.33087084E+02 E0= -.33050483E+02  EK= 0.29634E+01 SP= 0.52E+01 SK= 0.48E-02 mag=      0.054
       N       E                     dE             d eps       ncg     rms          rms(c)
DAV:   1    -0.331161305376E+02   -0.29602E-01   -0.17624E-02  2504   0.109E+00    0.542E-02
RMM:   2    -0.331173470524E+02   -0.12165E-02   -0.32317E-03  1484   0.245E-01
   1947 T=   883. E= -.24934200E+02 F= -.33117347E+02 E0= -.33080639E+02  EK= 0.29679E+01 SP= 0.52E+01 SK= 0.77E-02 mag=     -0.066
       N       E                     dE             d eps       ncg     rms          rms(c)
DAV:   1    -0.331449031745E+02   -0.28773E-01   -0.25429E-02  3120   0.118E+00    0.710E-02
RMM:   2    -0.331464600727E+02   -0.15569E-02   -0.41514E-03  1559   0.231E-01    0.512E-02
RMM:   3    -0.331470900550E+02   -0.62998E-03   -0.12123E-03  1404   0.948E-02
   1948 T=   882. E= -.24929579E+02 F= -.33147090E+02 E0= -.33110308E+02  EK= 0.29631E+01 SP= 0.52E+01 SK= 0.11E-01 mag=     -0.044
       N       E                     dE             d eps       ncg     rms          rms(c)
DAV:   1    -0.331735475733E+02   -0.27088E-01   -0.17213E-02  2136   0.104E+00    0.699E-02
RMM:   2    -0.331751280187E+02   -0.15804E-02   -0.34681E-03  1531   0.246E-01    0.495E-02
RMM:   3    -0.331755012768E+02   -0.37326E-03   -0.99877E-04  1304   0.961E-02
   1949 T=   877. E= -.24927354E+02 F= -.33175501E+02 E0= -.33138568E+02  EK= 0.29473E+01 SP= 0.53E+01 SK= 0.16E-01 mag=      0.014
       N       E                     dE             d eps       ncg     rms          rms(c)
DAV:   1    -0.332011503475E+02   -0.26022E-01   -0.29571E-02  2976   0.111E+00    0.418E-02
RMM:   2    -0.332021287201E+02   -0.97837E-03   -0.40919E-03  1572   0.255E-01
   1950 T=   870. E= -.24923275E+02 F= -.33202129E+02 E0= -.33165035E+02  EK= 0.29249E+01 SP= 0.53E+01 SK= 0.20E-01 mag=      0.063
       N       E                     dE             d eps       ncg     rms          rms(c)
DAV:   1    -0.332260434303E+02   -0.24893E-01   -0.23054E-02  2816   0.113E+00    0.369E-02
RMM:   2    -0.332269863638E+02   -0.94293E-03   -0.41993E-03  1574   0.251E-01
   1951 T=   861. E= -.24920683E+02 F= -.33226986E+02 E0= -.33189741E+02  EK= 0.28935E+01 SP= 0.54E+01 SK= 0.25E-01 mag=      0.061
       N       E                     dE             d eps       ncg     rms          rms(c)
DAV:   1    -0.332488303654E+02   -0.22787E-01   -0.13945E-02  2208   0.107E+00    0.341E-02
RMM:   2    -0.332498830425E+02   -0.10527E-02   -0.45285E-03  1589   0.286E-01
   1952 T=   850. E= -.24916513E+02 F= -.33249883E+02 E0= -.33212448E+02  EK= 0.28569E+01 SP= 0.54E+01 SK= 0.29E-01 mag=      0.009
       N       E                     dE             d eps       ncg     rms          rms(c)
DAV:   1    -0.332701796776E+02   -0.21349E-01   -0.19870E-02  2880   0.115E+00    0.336E-02
RMM:   2    -0.332712143377E+02   -0.10347E-02   -0.45636E-03  1584   0.269E-01
   1953 T=   838. E= -.24911554E+02 F= -.33271214E+02 E0= -.33233576E+02  EK= 0.28160E+01 SP= 0.55E+01 SK= 0.32E-01 mag=     -0.053
       N       E                     dE             d eps       ncg     rms          rms(c)
DAV:   1    -0.332902489748E+02   -0.20069E-01   -0.14027E-02  2440   0.104E+00    0.309E-02
RMM:   2    -0.332912253716E+02   -0.97640E-03   -0.39657E-03  1563   0.273E-01
   1954 T=   824. E= -.24907425E+02 F= -.33291225E+02 E0= -.33253380E+02  EK= 0.27708E+01 SP= 0.56E+01 SK= 0.35E-01 mag=     -0.071
       N       E                     dE             d eps       ncg     rms          rms(c)
DAV:   1    -0.333089097150E+02   -0.18661E-01   -0.17598E-02  2688   0.111E+00    0.337E-02
RMM:   2    -0.333098709988E+02   -0.96128E-03   -0.39526E-03  1558   0.257E-01
   1955 T=   810. E= -.24902890E+02 F= -.33309871E+02 E0= -.33271753E+02  EK= 0.27236E+01 SP= 0.56E+01 SK= 0.36E-01 mag=     -0.031
       N       E                     dE             d eps       ncg     rms          rms(c)
DAV:   1    -0.333261829653E+02   -0.17273E-01   -0.13897E-02  2640   0.105E+00    0.293E-02
RMM:   2    -0.333271368759E+02   -0.95391E-03   -0.42229E-03  1561   0.275E-01
   1956 T=   796. E= -.24898444E+02 F= -.33327137E+02 E0= -.33288727E+02  EK= 0.26754E+01 SP= 0.57E+01 SK= 0.36E-01 mag=      0.040
       N       E                     dE             d eps       ncg     rms          rms(c)
DAV:   1    -0.333421134777E+02   -0.15931E-01   -0.16003E-02  2728   0.106E+00    0.369E-02
RMM:   2    -0.333430812582E+02   -0.96778E-03   -0.39965E-03  1563   0.261E-01
   1957 T=   782. E= -.24894219E+02 F= -.33343081E+02 E0= -.33304407E+02  EK= 0.26271E+01 SP= 0.58E+01 SK= 0.35E-01 mag=      0.074
       N       E                     dE             d eps       ncg     rms          rms(c)
DAV:   1    -0.333572760138E+02   -0.15163E-01   -0.13875E-02  2552   0.102E+00    0.343E-02
RMM:   2    -0.333581966994E+02   -0.92069E-03   -0.39795E-03  1553   0.270E-01
   1958 T=   768. E= -.24890581E+02 F= -.33358197E+02 E0= -.33319200E+02  EK= 0.25802E+01 SP= 0.59E+01 SK= 0.33E-01 mag=      0.048
       N       E                     dE             d eps       ncg     rms          rms(c)
DAV:   1    -0.333711970229E+02   -0.13921E-01   -0.14058E-02  2808   0.104E+00    0.371E-02
RMM:   2    -0.333721990313E+02   -0.10020E-02   -0.44676E-03  1584   0.260E-01
   1959 T=   755. E= -.24886418E+02 F= -.33372199E+02 E0= -.33332851E+02  EK= 0.25363E+01 SP= 0.59E+01 SK= 0.30E-01 mag=     -0.017
       N       E                     dE             d eps       ncg     rms          rms(c)
DAV:   1    -0.333849663237E+02   -0.13769E-01   -0.13016E-02  2464   0.101E+00    0.354E-02
RMM:   2    -0.333858370352E+02   -0.87071E-03   -0.39931E-03  1549   0.271E-01
   1960 T=   743. E= -.24882382E+02 F= -.33385837E+02 E0= -.33346166E+02  EK= 0.24965E+01 SP= 0.60E+01 SK= 0.26E-01 mag=     -0.078
       N       E                     dE             d eps       ncg     rms          rms(c)
DAV:   1    -0.333983060533E+02   -0.13340E-01   -0.13326E-02  2664   0.103E+00    0.431E-02
RMM:   2    -0.333993035980E+02   -0.99754E-03   -0.41772E-03  1557   0.262E-01
   1961 T=   733. E= -.24878000E+02 F= -.33399304E+02 E0= -.33359329E+02  EK= 0.24620E+01 SP= 0.60E+01 SK= 0.22E-01 mag=     -0.082
       N       E                     dE             d eps       ncg     rms          rms(c)
DAV:   1    -0.334121070418E+02   -0.13801E-01   -0.14543E-02  2608   0.101E+00    0.379E-02
RMM:   2    -0.334129907554E+02   -0.88371E-03   -0.40223E-03  1542   0.274E-01
   1962 T=   724. E= -.24873680E+02 F= -.33412991E+02 E0= -.33372639E+02  EK= 0.24335E+01 SP= 0.61E+01 SK= 0.17E-01 mag=     -0.021
       N       E                     dE             d eps       ncg     rms          rms(c)
DAV:   1    -0.334256009755E+02   -0.13494E-01   -0.13207E-02  2592   0.101E+00    0.384E-02
RMM:   2    -0.334265455894E+02   -0.94461E-03   -0.47521E-03  1584   0.269E-01
   1963 T=   717. E= -.24869307E+02 F= -.33426546E+02 E0= -.33385860E+02  EK= 0.24111E+01 SP= 0.61E+01 SK= 0.13E-01 mag=      0.062
       N       E                     dE             d eps       ncg     rms          rms(c)
DAV:   1    -0.334391988340E+02   -0.13598E-01   -0.15003E-02  2536   0.100E+00    0.435E-02
RMM:   2    -0.334401965172E+02   -0.99768E-03   -0.43636E-03  1557   0.279E-01
   1964 T=   713. E= -.24864856E+02 F= -.33440197E+02 E0= -.33399256E+02  EK= 0.23952E+01 SP= 0.62E+01 SK= 0.89E-02 mag=      0.108
       N       E                     dE             d eps       ncg     rms          rms(c)
DAV:   1    -0.334535253852E+02   -0.14327E-01   -0.14113E-02  2672   0.103E+00    0.461E-02
RMM:   2    -0.334545472209E+02   -0.10218E-02   -0.43543E-03  1555   0.276E-01
   1965 T=   710. E= -.24860338E+02 F= -.33454547E+02 E0= -.33413311E+02  EK= 0.23868E+01 SP= 0.62E+01 SK= 0.55E-02 mag=      0.063
       N       E                     dE             d eps       ncg     rms          rms(c)
DAV:   1    -0.334688874224E+02   -0.15362E-01   -0.13139E-02  2400   0.103E+00    0.366E-02
RMM:   2    -0.334696909817E+02   -0.80356E-03   -0.42927E-03  1561   0.294E-01
   1966 T=   710. E= -.24855634E+02 F= -.33469691E+02 E0= -.33428164E+02  EK= 0.23860E+01 SP= 0.62E+01 SK= 0.29E-02 mag=     -0.047
       N       E                     dE             d eps       ncg     rms          rms(c)
DAV:   1    -0.334836351956E+02   -0.14748E-01   -0.14912E-02  2648   0.101E+00    0.572E-02
RMM:   2    -0.334847586765E+02   -0.11235E-02   -0.43052E-03  1544   0.272E-01
   1967 T=   712. E= -.24850299E+02 F= -.33484759E+02 E0= -.33443116E+02  EK= 0.23924E+01 SP= 0.62E+01 SK= 0.11E-02 mag=     -0.123
       N       E                     dE             d eps       ncg     rms          rms(c)
DAV:   1    -0.335002397164E+02   -0.16605E-01   -0.12853E-02  2544   0.103E+00    0.528E-02
RMM:   2    -0.335012524980E+02   -0.10128E-02   -0.46182E-03  1572   0.282E-01
   1968 T=   716. E= -.24845843E+02 F= -.33501252E+02 E0= -.33459411E+02  EK= 0.24058E+01 SP= 0.62E+01 SK= 0.19E-03 mag=     -0.109
       N       E                     dE             d eps       ncg     rms          rms(c)
DAV:   1    -0.335177106105E+02   -0.17471E-01   -0.14744E-02  2512   0.102E+00    0.396E-02
RMM:   2    -0.335185116375E+02   -0.80103E-03   -0.39990E-03  1540   0.271E-01
   1969 T=   722. E= -.24841703E+02 F= -.33518512E+02 E0= -.33476482E+02  EK= 0.24259E+01 SP= 0.63E+01 SK= 0.23E-04 mag=     -0.004
       N       E                     dE             d eps       ncg     rms          rms(c)
DAV:   1    -0.335346814030E+02   -0.16971E-01   -0.12824E-02  2320   0.103E+00    0.493E-02
RMM:   2    -0.335357720389E+02   -0.10906E-02   -0.48971E-03  1576   0.280E-01
   1970 T=   730. E= -.24837129E+02 F= -.33535772E+02 E0= -.33493744E+02  EK= 0.24523E+01 SP= 0.62E+01 SK= 0.47E-03 mag=      0.117
       N       E                     dE             d eps       ncg     rms          rms(c)
DAV:   1    -0.335526020466E+02   -0.17921E-01   -0.15876E-02  2632   0.105E+00    0.604E-02
RMM:   2    -0.335537928138E+02   -0.11908E-02   -0.42966E-03  1558   0.276E-01
   1971 T=   739. E= -.24832479E+02 F= -.33553793E+02 E0= -.33511829E+02  EK= 0.24849E+01 SP= 0.62E+01 SK= 0.13E-02 mag=      0.115
       N       E                     dE             d eps       ncg     rms          rms(c)
DAV:   1    -0.335723080339E+02   -0.19706E-01   -0.15659E-02  2648   0.103E+00    0.340E-02
RMM:   2    -0.335731458322E+02   -0.83780E-03   -0.44223E-03  1553   0.283E-01
   1972 T=   751. E= -.24829180E+02 F= -.33573146E+02 E0= -.33531140E+02  EK= 0.25223E+01 SP= 0.62E+01 SK= 0.24E-02 mag=     -0.004
       N       E                     dE             d eps       ncg     rms          rms(c)
DAV:   1    -0.335899456204E+02   -0.17638E-01   -0.18621E-02  2712   0.102E+00    0.637E-02
RMM:   2    -0.335912422673E+02   -0.12966E-02   -0.46707E-03  1537   0.278E-01
   1973 T=   763. E= -.24824929E+02 F= -.33591242E+02 E0= -.33549418E+02  EK= 0.25636E+01 SP= 0.62E+01 SK= 0.35E-02 mag=     -0.118
       N       E                     dE             d eps       ncg     rms          rms(c)
DAV:   1    -0.336085269276E+02   -0.18581E-01   -0.13499E-02  2512   0.106E+00    0.594E-02
RMM:   2    -0.336096669659E+02   -0.11400E-02   -0.51209E-03  1600   0.283E-01
   1974 T=   776. E= -.24821405E+02 F= -.33609667E+02 E0= -.33568030E+02  EK= 0.26077E+01 SP= 0.62E+01 SK= 0.44E-02 mag=     -0.144
       N       E                     dE             d eps       ncg     rms          rms(c)
DAV:   1    -0.336261766690E+02   -0.17650E-01   -0.17121E-02  2616   0.103E+00    0.495E-02
RMM:   2    -0.336271370181E+02   -0.96035E-03   -0.45549E-03  1552   0.290E-01
   1975 T=   789. E= -.24817796E+02 F= -.33627137E+02 E0= -.33585660E+02  EK= 0.26533E+01 SP= 0.62E+01 SK= 0.49E-02 mag=     -0.055
       N       E                     dE             d eps       ncg     rms          rms(c)
DAV:   1    -0.336418915077E+02   -0.15715E-01   -0.13588E-02  2400   0.107E+00    0.504E-02
RMM:   2    -0.336430298603E+02   -0.11384E-02   -0.48903E-03  1561   0.289E-01
   1976 T=   803. E= -.24813427E+02 F= -.33643030E+02 E0= -.33601826E+02  EK= 0.26993E+01 SP= 0.61E+01 SK= 0.50E-02 mag=      0.090
       N       E                     dE             d eps       ncg     rms          rms(c)
DAV:   1    -0.336558376997E+02   -0.13946E-01   -0.13964E-02  2512   0.107E+00    0.669E-02
RMM:   2    -0.336571833248E+02   -0.13456E-02   -0.47019E-03  1559   0.292E-01
   1977 T=   817. E= -.24808484E+02 F= -.33657183E+02 E0= -.33616361E+02  EK= 0.27444E+01 SP= 0.61E+01 SK= 0.47E-02 mag=      0.124
       N       E                     dE             d eps       ncg     rms          rms(c)
DAV:   1    -0.336689118130E+02   -0.13074E-01   -0.16934E-02  2792   0.110E+00    0.502E-02
RMM:   2    -0.336699085570E+02   -0.99674E-03   -0.50386E-03  1570   0.307E-01
   1978 T=   829. E= -.24804407E+02 F= -.33669909E+02 E0= -.33629360E+02  EK= 0.27862E+01 SP= 0.61E+01 SK= 0.40E-02 mag=      0.037
       N       E                     dE             d eps       ncg     rms          rms(c)
DAV:   1    -0.336772887553E+02   -0.83769E-02   -0.18907E-02  2816   0.107E+00    0.670E-02
RMM:   2    -0.336786832195E+02   -0.13945E-02   -0.52098E-03  1557   0.289E-01    0.448E-02
RMM:   3    -0.336792517003E+02   -0.56848E-03   -0.16495E-03  1497   0.117E-01
   1979 T=   840. E= -.24801224E+02 F= -.33679252E+02 E0= -.33638985E+02  EK= 0.28215E+01 SP= 0.61E+01 SK= 0.31E-02 mag=     -0.032
       N       E                     dE             d eps       ncg     rms          rms(c)
DAV:   1    -0.336838195822E+02   -0.51364E-02   -0.12761E-02  2336   0.106E+00    0.580E-02
RMM:   2    -0.336847031092E+02   -0.88353E-03   -0.28273E-03  1486   0.239E-01
   1980 T=   849. E= -.24796130E+02 F= -.33684703E+02 E0= -.33644723E+02  EK= 0.28517E+01 SP= 0.60E+01 SK= 0.21E-02 mag=     -0.049
       N       E                     dE             d eps       ncg     rms          rms(c)
DAV:   1    -0.336850976024E+02   -0.12780E-02   -0.21214E-02  2888   0.117E+00    0.483E-02
RMM:   2    -0.336859940059E+02   -0.89640E-03   -0.38303E-03  1571   0.240E-01
   1981 T=   855. E= -.24791102E+02 F= -.33685994E+02 E0= -.33646228E+02  EK= 0.28735E+01 SP= 0.60E+01 SK= 0.11E-02 mag=     -0.016
       N       E                     dE             d eps       ncg     rms          rms(c)
DAV:   1    -0.336817688006E+02    0.33288E-02   -0.11412E-02  2200   0.101E+00    0.465E-02
RMM:   2    -0.336827461226E+02   -0.97732E-03   -0.43356E-03  1570   0.282E-01
   1982 T=   858. E= -.24786948E+02 F= -.33682746E+02 E0= -.33643144E+02  EK= 0.28851E+01 SP= 0.60E+01 SK= 0.43E-03 mag=      0.036
       N       E                     dE             d eps       ncg     rms          rms(c)
DAV:   1    -0.336736105180E+02    0.81583E-02   -0.17586E-02  2528   0.116E+00    0.414E-02
RMM:   2    -0.336745287228E+02   -0.91820E-03   -0.43137E-03  1555   0.272E-01
   1983 T=   859. E= -.24782210E+02 F= -.33674529E+02 E0= -.33635030E+02  EK= 0.28872E+01 SP= 0.60E+01 SK= 0.56E-04 mag=      0.072
       N       E                     dE             d eps       ncg     rms          rms(c)
DAV:   1    -0.336592291117E+02    0.14381E-01   -0.10003E-02  2400   0.104E+00    0.484E-02
RMM:   2    -0.336602843471E+02   -0.10552E-02   -0.46959E-03  1566   0.287E-01
   1984 T=   857. E= -.24776859E+02 F= -.33660284E+02 E0= -.33620821E+02  EK= 0.28786E+01 SP= 0.60E+01 SK= 0.33E-04 mag=      0.063
       N       E                     dE             d eps       ncg     rms          rms(c)
DAV:   1    -0.336396682978E+02    0.19561E-01   -0.16371E-02  2504   0.115E+00    0.425E-02
RMM:   2    -0.336405814017E+02   -0.91310E-03   -0.42182E-03  1572   0.276E-01
   1985 T=   851. E= -.24771147E+02 F= -.33640581E+02 E0= -.33601022E+02  EK= 0.28599E+01 SP= 0.60E+01 SK= 0.32E-03 mag=      0.012
       N       E                     dE             d eps       ncg     rms          rms(c)
DAV:   1    -0.336143789824E+02    0.25289E-01   -0.11746E-02  2408   0.105E+00    0.424E-02
RMM:   2    -0.336152986122E+02   -0.91963E-03   -0.43667E-03  1546   0.278E-01
   1986 T=   842. E= -.24766116E+02 F= -.33615299E+02 E0= -.33575612E+02  EK= 0.28305E+01 SP= 0.60E+01 SK= 0.81E-03 mag=     -0.053
       N       E                     dE             d eps       ncg     rms          rms(c)
DAV:   1    -0.335829413145E+02    0.31438E-01   -0.13981E-02  2472   0.111E+00    0.437E-02
RMM:   2    -0.335839422402E+02   -0.10009E-02   -0.46401E-03  1544   0.283E-01
   1987 T=   831. E= -.24759910E+02 F= -.33583942E+02 E0= -.33544147E+02  EK= 0.27926E+01 SP= 0.60E+01 SK= 0.14E-02 mag=     -0.095
       N       E                     dE             d eps       ncg     rms          rms(c)
DAV:   1    -0.335461362831E+02    0.36805E-01   -0.13735E-02  2392   0.107E+00    0.496E-02
RMM:   2    -0.335472390982E+02   -0.11028E-02   -0.48589E-03  1562   0.295E-01
   1988 T=   818. E= -.24753054E+02 F= -.33547239E+02 E0= -.33507273E+02  EK= 0.27476E+01 SP= 0.60E+01 SK= 0.18E-02 mag=     -0.073
       N       E                     dE             d eps       ncg     rms          rms(c)
DAV:   1    -0.335050955379E+02    0.41041E-01   -0.13996E-02  2568   0.110E+00    0.431E-02
RMM:   2    -0.335059913899E+02   -0.89585E-03   -0.48330E-03  1575   0.303E-01
   1989 T=   802. E= -.24747043E+02 F= -.33505991E+02 E0= -.33465737E+02  EK= 0.26960E+01 SP= 0.61E+01 SK= 0.20E-02 mag=      0.011
       N       E                     dE             d eps       ncg     rms          rms(c)
DAV:   1    -0.334581069670E+02    0.46989E-01   -0.13997E-02  2648   0.105E+00    0.539E-02
RMM:   2    -0.334591463044E+02   -0.10393E-02   -0.47401E-03  1537   0.296E-01
   1990 T=   785. E= -.24740944E+02 F= -.33459146E+02 E0= -.33418802E+02  EK= 0.26391E+01 SP= 0.61E+01 SK= 0.19E-02 mag=      0.108
       N       E                     dE             d eps       ncg     rms          rms(c)
DAV:   1    -0.334069156109E+02    0.51191E-01   -0.11900E-02  2376   0.109E+00    0.557E-02
RMM:   2    -0.334080800262E+02   -0.11644E-02   -0.49626E-03  1568   0.292E-01
   1991 T=   768. E= -.24734336E+02 F= -.33408080E+02 E0= -.33367666E+02  EK= 0.25799E+01 SP= 0.61E+01 SK= 0.14E-02 mag=      0.152
       N       E                     dE             d eps       ncg     rms          rms(c)
DAV:   1    -0.333532017322E+02    0.53714E-01   -0.12805E-02  2504   0.107E+00    0.518E-02
RMM:   2    -0.333542047446E+02   -0.10030E-02   -0.48611E-03  1578   0.304E-01
   1992 T=   750. E= -.24727659E+02 F= -.33354205E+02 E0= -.33313539E+02  EK= 0.25209E+01 SP= 0.61E+01 SK= 0.81E-03 mag=      0.087
       N       E                     dE             d eps       ncg     rms          rms(c)
DAV:   1    -0.332968798499E+02    0.56322E-01   -0.14363E-02  2504   0.106E+00    0.497E-02
RMM:   2    -0.332977539545E+02   -0.87410E-03   -0.47663E-03  1552   0.305E-01
   1993 T=   733. E= -.24721413E+02 F= -.33297754E+02 E0= -.33256933E+02  EK= 0.24630E+01 SP= 0.61E+01 SK= 0.23E-03 mag=     -0.066
       N       E                     dE             d eps       ncg     rms          rms(c)
DAV:   1    -0.332369276203E+02    0.59952E-01   -0.15366E-02  2688   0.104E+00    0.747E-02
RMM:   2    -0.332383172417E+02   -0.13896E-02   -0.48449E-03  1526   0.296E-01    0.540E-02
RMM:   3    -0.332389644100E+02   -0.64717E-03   -0.15751E-03  1466   0.116E-01
   1994 T=   716. E= -.24716270E+02 F= -.33238964E+02 E0= -.33198293E+02  EK= 0.24068E+01 SP= 0.61E+01 SK= 0.42E-05 mag=     -0.119
       N       E                     dE             d eps       ncg     rms          rms(c)
DAV:   1    -0.331790534621E+02    0.59264E-01   -0.13005E-02  2440   0.994E-01    0.577E-02
RMM:   2    -0.331798580252E+02   -0.80456E-03   -0.36682E-03  1478   0.252E-01
   1995 T=   701. E= -.24710786E+02 F= -.33179858E+02 E0= -.33138948E+02  EK= 0.23569E+01 SP= 0.61E+01 SK= 0.52E-03 mag=     -0.036
       N       E                     dE             d eps       ncg     rms          rms(c)
DAV:   1    -0.331187973295E+02    0.60256E-01   -0.22694E-02  2840   0.113E+00    0.495E-02
RMM:   2    -0.331197627829E+02   -0.96545E-03   -0.38443E-03  1526   0.244E-01
   1996 T=   688. E= -.24704992E+02 F= -.33119763E+02 E0= -.33079025E+02  EK= 0.23134E+01 SP= 0.61E+01 SK= 0.22E-02 mag=      0.128
       N       E                     dE             d eps       ncg     rms          rms(c)
DAV:   1    -0.330593908254E+02    0.59407E-01   -0.11934E-02  2248   0.934E-01    0.656E-02
RMM:   2    -0.330604266261E+02   -0.10358E-02   -0.34560E-03  1533   0.269E-01
   1997 T=   678. E= -.24700503E+02 F= -.33060427E+02 E0= -.33020061E+02  EK= 0.22770E+01 SP= 0.61E+01 SK= 0.54E-02 mag=      0.218
       N       E                     dE             d eps       ncg     rms          rms(c)
DAV:   1    -0.330030222177E+02    0.56369E-01   -0.14472E-02  2464   0.111E+00    0.481E-02
RMM:   2    -0.330039399752E+02   -0.91776E-03   -0.46681E-03  1568   0.282E-01
   1998 T=   670. E= -.24696265E+02 F= -.33003940E+02 E0= -.32963413E+02  EK= 0.22515E+01 SP= 0.60E+01 SK= 0.10E-01 mag=      0.153
       N       E                     dE             d eps       ncg     rms          rms(c)
DAV:   1    -0.329486254032E+02    0.54397E-01   -0.10836E-02  2392   0.914E-01    0.438E-02
RMM:   2    -0.329495142621E+02   -0.88886E-03   -0.42945E-03  1520   0.291E-01
   1999 T=   666. E= -.24690931E+02 F= -.32949514E+02 E0= -.32909022E+02  EK= 0.22380E+01 SP= 0.60E+01 SK= 0.17E-01 mag=     -0.052
       N       E                     dE             d eps       ncg     rms          rms(c)
DAV:   1    -0.328959998784E+02    0.52626E-01   -0.12964E-02  2504   0.105E+00    0.653E-02
RMM:   2    -0.328971673669E+02   -0.11675E-02   -0.41238E-03  1541   0.267E-01
   2000 T=   666. E= -.24684543E+02 F= -.32897167E+02 E0= -.32857318E+02  EK= 0.22368E+01 SP= 0.59E+01 SK= 0.26E-01 mag=     -0.263
