Na27
1.0
  10.3075830000000011    0.0000000000000000   -3.6442829999999997
  -5.1537929999999976    8.9266290000000001   -3.6442829999999997
   0.0000000000000000    0.0000000000000000   10.9328459999999996
Na
27
direct
   0.0000000000000000    0.0000000000000000    0.0000000000000000 Na
   0.0000000000000000    0.0000000000000000    0.3333333333333333 Na
   0.0000000000000000    0.0000000000000000    0.6666666666666666 Na
   0.0000000000000000    0.3333333333333334    0.0000000000000000 Na
   0.0000000000000000    0.3333333333333334    0.3333333333333333 Na
   0.0000000000000000    0.3333333333333334    0.6666666666666667 Na
   0.0000000000000000    0.6666666666666667    0.0000000000000000 Na
   0.0000000000000000    0.6666666666666667    0.3333333333333334 Na
   0.0000000000000000    0.6666666666666667    0.6666666666666666 Na
   0.3333333333333333    0.0000000000000000    0.0000000000000000 Na
   0.3333333333333333    0.0000000000000000    0.3333333333333333 Na
   0.3333333333333333    0.0000000000000000    0.6666666666666666 Na
   0.3333333333333333    0.3333333333333334    0.0000000000000000 Na
   0.3333333333333333    0.3333333333333334    0.3333333333333334 Na
   0.3333333333333333    0.3333333333333334    0.6666666666666666 Na
   0.3333333333333334    0.6666666666666667    0.0000000000000000 Na
   0.3333333333333334    0.6666666666666667    0.3333333333333334 Na
   0.3333333333333334    0.6666666666666667    0.6666666666666666 Na
   0.6666666666666666    0.0000000000000000    0.0000000000000000 Na
   0.6666666666666666    0.0000000000000000    0.3333333333333333 Na
   0.6666666666666666    0.0000000000000000    0.6666666666666666 Na
   0.6666666666666666    0.3333333333333334    0.0000000000000000 Na
   0.6666666666666666    0.3333333333333334    0.3333333333333334 Na
   0.6666666666666666    0.3333333333333334    0.6666666666666666 Na
   0.6666666666666666    0.6666666666666667    0.0000000000000001 Na
   0.6666666666666666    0.6666666666666667    0.3333333333333334 Na
   0.6666666666666666    0.6666666666666667    0.6666666666666667 Na
