Li32 Ga112
1.0
  13.7837277526286410    0.0000000000000000    5.1753207165990380
   3.5714065317008972   13.3175937126811288    5.2374611093729051
   0.0000000000000000    0.0000000000000000   14.7493819800000008
Li Ga
32 112
direct
   0.2598596850000000    0.0586430100000000    0.0586430100000000 Li
   0.2598596850000000    0.0586430100000000    0.5586430099999999 Li
   0.2598596850000000    0.5586430100000001    0.0586430100000000 Li
   0.2598596850000000    0.5586430100000001    0.5586430099999999 Li
   0.7598596850000000    0.0586430100000000    0.0586430100000000 Li
   0.7598596850000000    0.0586430100000000    0.5586430099999999 Li
   0.7598596849999999    0.5586430100000001    0.0586430100000000 Li
   0.7598596849999999    0.5586430100000001    0.5586430099999999 Li
   0.4444681149999999    0.4426394750000001    0.2389444200000000 Li
   0.4444681149999999    0.4426394750000001    0.7389444199999999 Li
   0.4444681150000000    0.9426394750000000    0.2389444199999999 Li
   0.4444681150000000    0.9426394750000000    0.7389444199999997 Li
   0.9444681149999999    0.4426394750000001    0.2389444200000000 Li
   0.9444681149999999    0.4426394750000001    0.7389444199999999 Li
   0.9444681150000001    0.9426394750000000    0.2389444199999999 Li
   0.9444681150000001    0.9426394750000000    0.7389444199999999 Li
   0.4444681149999999    0.2389444200000000    0.4426394750000000 Li
   0.4444681149999999    0.2389444200000000    0.9426394750000000 Li
   0.4444681150000000    0.7389444199999999    0.4426394749999999 Li
   0.4444681150000000    0.7389444199999999    0.9426394749999999 Li
   0.9444681150000001    0.2389444200000000    0.4426394750000000 Li
   0.9444681150000001    0.2389444200000000    0.9426394750000000 Li
   0.9444681150000001    0.7389444199999999    0.4426394750000000 Li
   0.9444681150000001    0.7389444199999999    0.9426394750000000 Li
   0.2300110250000000    0.4412885500000000    0.4412885500000001 Li
   0.2300110250000000    0.4412885500000000    0.9412885500000000 Li
   0.2300110250000000    0.9412885500000001    0.4412885500000000 Li
   0.2300110250000000    0.9412885500000001    0.9412885499999998 Li
   0.7300110249999999    0.4412885500000000    0.4412885500000001 Li
   0.7300110249999999    0.4412885500000000    0.9412885500000000 Li
   0.7300110249999998    0.9412885500000001    0.4412885500000001 Li
   0.7300110249999998    0.9412885500000001    0.9412885500000001 Li
   0.3551476850000000    0.3491967650000000    0.0919790400000000 Ga
   0.3551476850000000    0.3491967650000000    0.5919790400000000 Ga
   0.3551476850000000    0.8491967650000001    0.0919790400000000 Ga
   0.3551476850000000    0.8491967650000001    0.5919790399999999 Ga
   0.8551476849999999    0.3491967650000000    0.0919790400000001 Ga
   0.8551476849999999    0.3491967650000000    0.5919790400000000 Ga
   0.8551476849999998    0.8491967650000001    0.0919790400000000 Ga
   0.8551476849999998    0.8491967650000001    0.5919790399999999 Ga
   0.3551476850000000    0.0919790400000000    0.3491967650000000 Ga
   0.3551476850000000    0.0919790400000000    0.8491967650000001 Ga
   0.3551476850000000    0.5919790400000000    0.3491967650000000 Ga
   0.3551476850000000    0.5919790400000000    0.8491967650000000 Ga
   0.8551476849999999    0.0919790400000000    0.3491967650000000 Ga
   0.8551476849999999    0.0919790400000000    0.8491967649999999 Ga
   0.8551476849999998    0.5919790400000000    0.3491967650000001 Ga
   0.8551476849999998    0.5919790400000000    0.8491967650000001 Ga
   0.0932968450000000    0.3519856500000000    0.3519856499999999 Ga
   0.0932968450000000    0.3519856500000000    0.8519856500000000 Ga
   0.0932968450000000    0.8519856499999999    0.3519856499999999 Ga
   0.0932968450000000    0.8519856499999999    0.8519856499999998 Ga
   0.5932968450000000    0.3519856500000000    0.3519856500000000 Ga
   0.5932968450000000    0.3519856500000000    0.8519856500000000 Ga
   0.5932968449999999    0.8519856499999999    0.3519856500000000 Ga
   0.5932968449999999    0.8519856499999999    0.8519856499999999 Ga
   0.1473481500000000    0.1496507950000000    0.4053026700000000 Ga
   0.1473481500000000    0.1496507950000000    0.9053026699999999 Ga
   0.1473481500000000    0.6496507949999999    0.4053026700000000 Ga
   0.1473481500000000    0.6496507949999999    0.9053026699999998 Ga
   0.6473481500000000    0.1496507950000000    0.4053026700000000 Ga
   0.6473481500000000    0.1496507950000000    0.9053026700000000 Ga
   0.6473481500000000    0.6496507949999999    0.4053026700000000 Ga
   0.6473481500000000    0.6496507949999999    0.9053026700000001 Ga
   0.1473481500000000    0.4053026700000000    0.1496507950000000 Ga
   0.1473481500000000    0.4053026700000000    0.6496507950000000 Ga
   0.1473481500000000    0.9053026700000000    0.1496507950000000 Ga
   0.1473481500000000    0.9053026700000000    0.6496507949999999 Ga
   0.6473481500000001    0.4053026700000000    0.1496507949999999 Ga
   0.6473481500000001    0.4053026700000000    0.6496507949999999 Ga
   0.6473481499999999    0.9053026700000000    0.1496507950000000 Ga
   0.6473481499999999    0.9053026700000000    0.6496507950000000 Ga
   0.4085024400000000    0.1488535850000000    0.1488535850000000 Ga
   0.4085024400000000    0.1488535850000000    0.6488535850000001 Ga
   0.4085024400000000    0.6488535850000000    0.1488535850000001 Ga
   0.4085024400000000    0.6488535850000000    0.6488535850000000 Ga
   0.9085024400000000    0.1488535850000000    0.1488535850000000 Ga
   0.9085024400000000    0.1488535850000000    0.6488535850000000 Ga
   0.9085024399999999    0.6488535850000000    0.1488535850000001 Ga
   0.9085024399999999    0.6488535850000000    0.6488535850000001 Ga
   0.2433676650000000    0.2447507650000000    0.0873424050000000 Ga
   0.2433676650000000    0.2447507650000000    0.5873424050000000 Ga
   0.2433676649999999    0.7447507649999999    0.0873424050000000 Ga
   0.2433676649999999    0.7447507649999999    0.5873424049999999 Ga
   0.7433676650000000    0.2447507650000000    0.0873424050000000 Ga
   0.7433676650000000    0.2447507650000000    0.5873424049999999 Ga
   0.7433676650000000    0.7447507649999999    0.0873424050000000 Ga
   0.7433676650000000    0.7447507649999999    0.5873424050000000 Ga
   0.2433676650000000    0.0873424050000000    0.2447507650000000 Ga
   0.2433676650000000    0.0873424050000000    0.7447507649999999 Ga
   0.2433676650000000    0.5873424050000000    0.2447507650000000 Ga
   0.2433676650000000    0.5873424050000000    0.7447507649999999 Ga
   0.7433676650000000    0.0873424050000000    0.2447507650000001 Ga
   0.7433676650000000    0.0873424050000000    0.7447507650000000 Ga
   0.7433676650000000    0.5873424050000000    0.2447507650000000 Ga
   0.7433676650000000    0.5873424050000000    0.7447507650000000 Ga
   0.0856869050000000    0.2437374700000000    0.2437374700000000 Ga
   0.0856869050000000    0.2437374700000000    0.7437374700000000 Ga
   0.0856869050000000    0.7437374700000000    0.2437374700000000 Ga
   0.0856869050000000    0.7437374700000000    0.7437374700000000 Ga
   0.5856869050000000    0.2437374700000000    0.2437374700000000 Ga
   0.5856869050000000    0.2437374700000000    0.7437374699999999 Ga
   0.5856869050000001    0.7437374700000000    0.2437374700000000 Ga
   0.5856869050000001    0.7437374700000000    0.7437374700000000 Ga
   0.2548854400000000    0.2529781150000000    0.4127614400000000 Ga
   0.2548854400000000    0.2529781150000000    0.9127614400000000 Ga
   0.2548854400000000    0.7529781150000000    0.4127614400000000 Ga
   0.2548854400000000    0.7529781150000000    0.9127614399999999 Ga
   0.7548854400000000    0.2529781150000000    0.4127614400000000 Ga
   0.7548854400000000    0.2529781150000000    0.9127614400000000 Ga
   0.7548854400000000    0.7529781150000000    0.4127614400000000 Ga
   0.7548854400000000    0.7529781150000000    0.9127614399999999 Ga
   0.2548854400000000    0.4127614400000000    0.2529781149999999 Ga
   0.2548854400000000    0.4127614400000000    0.7529781150000000 Ga
   0.2548854400000000    0.9127614400000000    0.2529781149999999 Ga
   0.2548854400000000    0.9127614400000000    0.7529781149999999 Ga
   0.7548854399999999    0.4127614400000000    0.2529781150000000 Ga
   0.7548854399999999    0.4127614400000000    0.7529781150000001 Ga
   0.7548854399999999    0.9127614400000000    0.2529781150000000 Ga
   0.7548854399999999    0.9127614400000000    0.7529781149999999 Ga
   0.4127512650000000    0.2550555450000000    0.2550555450000000 Ga
   0.4127512650000000    0.2550555450000000    0.7550555450000001 Ga
   0.4127512649999999    0.7550555450000001    0.2550555450000000 Ga
   0.4127512649999999    0.7550555450000001    0.7550555449999999 Ga
   0.9127512649999999    0.2550555450000000    0.2550555450000001 Ga
   0.9127512649999999    0.2550555450000000    0.7550555450000002 Ga
   0.9127512649999999    0.7550555450000001    0.2550555450000001 Ga
   0.9127512649999999    0.7550555450000001    0.7550555449999999 Ga
   0.0384065050000000    0.0395853100000000    0.0395853100000000 Ga
   0.0384065050000000    0.0395853100000000    0.5395853100000000 Ga
   0.0384065050000000    0.5395853100000000    0.0395853099999999 Ga
   0.0384065050000000    0.5395853100000000    0.5395853100000000 Ga
   0.5384065050000000    0.0395853100000000    0.0395853100000000 Ga
   0.5384065050000000    0.0395853100000000    0.5395853100000000 Ga
   0.5384065049999999    0.5395853100000000    0.0395853100000000 Ga
   0.5384065049999999    0.5395853100000000    0.5395853100000000 Ga
   0.4629567349999999    0.4594059850000000    0.4594059850000001 Ga
   0.4629567349999999    0.4594059850000000    0.9594059850000000 Ga
   0.4629567350000000    0.9594059850000000    0.4594059850000001 Ga
   0.4629567350000000    0.9594059850000000    0.9594059850000000 Ga
   0.9629567349999999    0.4594059850000000    0.4594059850000000 Ga
   0.9629567349999999    0.4594059850000000    0.9594059850000000 Ga
   0.9629567349999999    0.9594059850000000    0.4594059850000002 Ga
   0.9629567349999999    0.9594059850000000    0.9594059850000002 Ga
