Li54 Ga54
1.0
  11.3199960025325748    0.0000000000000000    6.5356050021366965
   3.7733339970108197   10.6725989889628146    6.5356049928817210
   0.0000000000000000    0.0000000000000000   13.0712070000000011
Li Ga
54 54
direct
   0.2083333333333333    0.2083333333333333    0.2083333333333334 Li
   0.2083333333333333    0.2083333333333333    0.5416666666666666 Li
   0.2083333333333333    0.2083333333333333    0.8750000000000000 Li
   0.2083333333333333    0.5416666666666666    0.2083333333333334 Li
   0.2083333333333333    0.5416666666666666    0.5416666666666667 Li
   0.2083333333333333    0.5416666666666666    0.8750000000000001 Li
   0.2083333333333333    0.8750000000000000    0.2083333333333333 Li
   0.2083333333333333    0.8750000000000000    0.5416666666666667 Li
   0.2083333333333333    0.8750000000000000    0.8749999999999999 Li
   0.5416666666666666    0.2083333333333333    0.2083333333333334 Li
   0.5416666666666666    0.2083333333333333    0.5416666666666667 Li
   0.5416666666666666    0.2083333333333333    0.8750000000000000 Li
   0.5416666666666666    0.5416666666666666    0.2083333333333333 Li
   0.5416666666666666    0.5416666666666666    0.5416666666666667 Li
   0.5416666666666666    0.5416666666666666    0.8749999999999999 Li
   0.5416666666666665    0.8750000000000000    0.2083333333333335 Li
   0.5416666666666665    0.8750000000000000    0.5416666666666669 Li
   0.5416666666666665    0.8750000000000000    0.8750000000000001 Li
   0.8749999999999998    0.2083333333333333    0.2083333333333334 Li
   0.8749999999999998    0.2083333333333333    0.5416666666666669 Li
   0.8749999999999998    0.2083333333333333    0.8750000000000000 Li
   0.8749999999999998    0.5416666666666666    0.2083333333333334 Li
   0.8749999999999998    0.5416666666666666    0.5416666666666669 Li
   0.8749999999999998    0.5416666666666666    0.8750000000000001 Li
   0.8749999999999999    0.8750000000000000    0.2083333333333335 Li
   0.8749999999999999    0.8750000000000000    0.5416666666666667 Li
   0.8749999999999999    0.8750000000000000    0.8750000000000002 Li
   0.1250000000000000    0.1250000000000000    0.1250000000000000 Li
   0.1250000000000000    0.1250000000000000    0.4583333333333333 Li
   0.1250000000000000    0.1250000000000000    0.7916666666666667 Li
   0.1250000000000000    0.4583333333333333    0.1250000000000001 Li
   0.1250000000000000    0.4583333333333333    0.4583333333333333 Li
   0.1250000000000000    0.4583333333333333    0.7916666666666667 Li
   0.1250000000000000    0.7916666666666666    0.1250000000000001 Li
   0.1250000000000000    0.7916666666666666    0.4583333333333335 Li
   0.1250000000000000    0.7916666666666666    0.7916666666666667 Li
   0.4583333333333333    0.1250000000000000    0.1250000000000001 Li
   0.4583333333333333    0.1250000000000000    0.4583333333333333 Li
   0.4583333333333333    0.1250000000000000    0.7916666666666667 Li
   0.4583333333333333    0.4583333333333333    0.1250000000000001 Li
   0.4583333333333333    0.4583333333333333    0.4583333333333335 Li
   0.4583333333333333    0.4583333333333333    0.7916666666666667 Li
   0.4583333333333333    0.7916666666666666    0.1250000000000000 Li
   0.4583333333333333    0.7916666666666666    0.4583333333333334 Li
   0.4583333333333333    0.7916666666666666    0.7916666666666665 Li
   0.7916666666666666    0.1250000000000000    0.1250000000000001 Li
   0.7916666666666666    0.1250000000000000    0.4583333333333334 Li
   0.7916666666666666    0.1250000000000000    0.7916666666666667 Li
   0.7916666666666666    0.4583333333333333    0.1250000000000001 Li
   0.7916666666666666    0.4583333333333333    0.4583333333333335 Li
   0.7916666666666666    0.4583333333333333    0.7916666666666666 Li
   0.7916666666666667    0.7916666666666666    0.1250000000000000 Li
   0.7916666666666667    0.7916666666666666    0.4583333333333334 Li
   0.7916666666666667    0.7916666666666666    0.7916666666666667 Li
   0.0416666666666667    0.0416666666666667    0.0416666666666667 Ga
   0.0416666666666667    0.0416666666666667    0.3750000000000000 Ga
   0.0416666666666667    0.0416666666666667    0.7083333333333333 Ga
   0.0416666666666667    0.3749999999999999    0.0416666666666667 Ga
   0.0416666666666667    0.3749999999999999    0.3750000000000000 Ga
   0.0416666666666667    0.3749999999999999    0.7083333333333334 Ga
   0.0416666666666667    0.7083333333333333    0.0416666666666667 Ga
   0.0416666666666667    0.7083333333333333    0.3750000000000000 Ga
   0.0416666666666667    0.7083333333333333    0.7083333333333333 Ga
   0.3749999999999999    0.0416666666666667    0.0416666666666667 Ga
   0.3749999999999999    0.0416666666666667    0.3750000000000000 Ga
   0.3749999999999999    0.0416666666666667    0.7083333333333335 Ga
   0.3750000000000000    0.3749999999999999    0.0416666666666667 Ga
   0.3750000000000000    0.3749999999999999    0.3750000000000000 Ga
   0.3750000000000000    0.3749999999999999    0.7083333333333333 Ga
   0.3749999999999999    0.7083333333333333    0.0416666666666666 Ga
   0.3749999999999999    0.7083333333333333    0.3750000000000001 Ga
   0.3749999999999999    0.7083333333333333    0.7083333333333334 Ga
   0.7083333333333333    0.0416666666666667    0.0416666666666667 Ga
   0.7083333333333333    0.0416666666666667    0.3750000000000000 Ga
   0.7083333333333333    0.0416666666666667    0.7083333333333333 Ga
   0.7083333333333333    0.3749999999999999    0.0416666666666667 Ga
   0.7083333333333333    0.3749999999999999    0.3750000000000002 Ga
   0.7083333333333333    0.3749999999999999    0.7083333333333335 Ga
   0.7083333333333334    0.7083333333333333    0.0416666666666667 Ga
   0.7083333333333334    0.7083333333333333    0.3749999999999999 Ga
   0.7083333333333334    0.7083333333333333    0.7083333333333335 Ga
   0.2916666666666666    0.2916666666666667    0.2916666666666667 Ga
   0.2916666666666666    0.2916666666666667    0.6250000000000001 Ga
   0.2916666666666666    0.2916666666666667    0.9583333333333334 Ga
   0.2916666666666665    0.6250000000000000    0.2916666666666666 Ga
   0.2916666666666665    0.6250000000000000    0.6249999999999999 Ga
   0.2916666666666665    0.6250000000000000    0.9583333333333335 Ga
   0.2916666666666666    0.9583333333333333    0.2916666666666668 Ga
   0.2916666666666666    0.9583333333333333    0.6250000000000002 Ga
   0.2916666666666666    0.9583333333333333    0.9583333333333335 Ga
   0.6250000000000000    0.2916666666666667    0.2916666666666666 Ga
   0.6250000000000000    0.2916666666666667    0.6249999999999999 Ga
   0.6250000000000000    0.2916666666666667    0.9583333333333335 Ga
   0.6249999999999999    0.6250000000000000    0.2916666666666666 Ga
   0.6249999999999999    0.6250000000000000    0.6250000000000000 Ga
   0.6249999999999999    0.6250000000000000    0.9583333333333334 Ga
   0.6250000000000000    0.9583333333333333    0.2916666666666668 Ga
   0.6250000000000000    0.9583333333333333    0.6250000000000003 Ga
   0.6250000000000000    0.9583333333333333    0.9583333333333333 Ga
   0.9583333333333333    0.2916666666666667    0.2916666666666667 Ga
   0.9583333333333333    0.2916666666666667    0.6250000000000001 Ga
   0.9583333333333333    0.2916666666666667    0.9583333333333334 Ga
   0.9583333333333331    0.6250000000000000    0.2916666666666667 Ga
   0.9583333333333331    0.6250000000000000    0.6250000000000003 Ga
   0.9583333333333331    0.6250000000000000    0.9583333333333333 Ga
   0.9583333333333334    0.9583333333333333    0.2916666666666665 Ga
   0.9583333333333334    0.9583333333333333    0.6250000000000001 Ga
   0.9583333333333334    0.9583333333333333    0.9583333333333336 Ga
