Na96 Sb12 S48                           
   1.00000000000000     
    12.6241607919947629    0.0000000000000000    0.0000000000000008
     4.2080535973315847   11.9021729370784435    0.0000000000000008
     0.0000000000000000    0.0000000000000000   28.1894465012493889
   Na   Sb   S 
    96    12    48
Direct
  0.0741351776404817  0.9072136705835625  0.9983867346432925
  0.3001816759715786  0.1195258980690580  0.8904269161221717
  0.6590811774480859  0.4117135545944914  0.0568413470219371
  0.8567163808749764  0.3971425119924192  0.0315407560552034
  0.8576265750700135  0.2811120206491278  0.9123292998018226
  0.4584503657343842  0.3435127362611791  0.9344997920543606
  0.7009550523551350  0.1262458786845063  0.9710593993187450
  0.0805613973125360  0.7404454341045782  0.1333878965817966
  0.6271902305083391  0.4273382572640829  0.7134393567792953
  0.2573702686698868  0.7028644392457547  0.9556710391993866
  0.9127213183245780  0.7464216178279081  0.7176414458715237
  0.9100913367222438  0.8389600932961359  0.8156643903708036
  0.9608248474064605  0.9188125078253926  0.5487047585886146
  0.0214823407400514  0.6887022631395786  0.4417825175664370
  0.5284275283056155  0.1466837640832246  0.3828284849033500
  0.7158920490335882  0.9711751246810735  0.5152417009680396
  0.9830958826975056  0.0001256537591423  0.6478562408600221
  0.2709868829802856  0.2158110759309490  0.5479605154125237
  0.2609595889173641  0.6628651864522965  0.4213331352708159
  0.8187622240163485  0.9793611465640778  0.3856673900641093
  0.8645157792035902  0.5395913279450097  0.5277058104599096
  0.4779781702109194  0.3921119935417312  0.5712290078571997
  0.5365307449218719  0.6052723405959086  0.6341752487638093
  0.4753407678685214  0.0118543717331857  0.4697538745835263
  0.5318000798589408  0.7177297253512924  0.4858126740906135
  0.2647024231772246  0.9655158343053877  0.5238522145962633
  0.5216149738827793  0.5030885554326761  0.8073731666314239
  0.7542174595302223  0.7785289789791735  0.5975953199831282
  0.0223234377365716  0.6947538488909646  0.6020515993209244
  0.4601444139427714  0.8339596330509966  0.7259842655618090
  0.7737857603343902  0.1880611561370255  0.5586025234819694
  0.7336388065256255  0.4197392954878902  0.2849808697643349
  0.7612555391357637  0.1462754436189400  0.6879374226747662
  0.8703343038609975  0.3236529866726642  0.6343506483770721
  0.5638150618681598  0.1134260903699976  0.5976963061306767
  0.9164898634891742  0.4274123423801589  0.7443020237414919
  0.5234840594706819  0.9495271131084573  0.8420389062192505
  0.3373834332716497  0.6272313062444365  0.5330560820816777
  0.1856278593852764  0.6175803727472160  0.8068212275482186
  0.6972119120093150  0.6328241701089602  0.7639283632208383
  0.1265877103842098  0.4628365376618257  0.6772618253041965
  0.4350305802841911  0.4075802746034280  0.6817535011936560
  0.3727736128749062  0.1876229582653223  0.7712498275481210
  0.6291808962524407  0.9465268109981479  0.6849573476712150
  0.1141921913305945  0.2356998106926746  0.6643788310824630
  0.1257888030873829  0.4868411061204690  0.5489470278769285
  0.8513839484205256  0.2069359913007648  0.7896170861978711
  0.8494315874053081  0.8778630527680081  0.9271021129894081
  0.5403256485485634  0.9544520107938549  0.9786415848170411
  0.2140899542756590  0.3800837167522753  0.8532278909262350
  0.5711465015890927  0.5598704999294601  0.9183739559177181
  0.9056877272470216  0.5023197958819111  0.8658646345725919
  0.0820731226778257  0.0348105135315146  0.8922355657248165
  0.2706383484890451  0.6881047823536052  0.6881831915158044
  0.0673968298869071  0.2462820989714676  0.7974234784461554
  0.1040914590313994  0.4311447988672402  0.9427448410846556
  0.6836604276610219  0.0203428824122986  0.8127853115733726
  0.3056039571550137  0.8094613668544267  0.8640753269061459
  0.8229283418534400  0.9506218617099794  0.0737158204858260
  0.1566216386131776  0.9895433815328574  0.7467833137038420
  0.6717115767124857  0.7488405175283264  0.0545844844914166
  0.9492896115754678  0.5970694227718504  0.0881770344944048
  0.6142029324628001  0.4802892541368922  0.1831226704824171
  0.6120195580756489  0.2421510864824334  0.8525350404096137
  0.7620161798676703  0.7445657666191101  0.4337429244183322
  0.1125932709723902  0.2422205161485152  0.2337104170641578
  0.0634851171799063  0.9865713559579803  0.4324848107736134
  0.1458004911415207  0.3468843031887145  0.4265486373193177
  0.3980326432978240  0.0882364588071003  0.0993591671927484
  0.3945932470888449  0.6636536779512924  0.1125099262422709
  0.6298735389247938  0.9483592158795399  0.1453668617409561
  0.9198887284017772  0.5691740922257016  0.2643670488484016
  0.5046153785774690  0.2759150727617963  0.0441236917802856
  0.2773353625909731  0.8995809607162791  0.0519429152889767
  0.1881767881823782  0.1664829684852752  0.9927906845226676
  0.2337130202974177  0.5300160748321214  0.0339017342548018
  0.9183239206656043  0.5432997093000087  0.3753939133727184
  0.8597411216149757  0.2916567310347909  0.3904241545279529
  0.4311445920903620  0.4562907742575038  0.3520398625673697
  0.6808510508909323  0.2760047300863484  0.4626500944681811
  0.6448493329956999  0.8149997290899773  0.3222582294729128
  0.5536407415364085  0.3014142949743125  0.2723878315024466
  0.3156074817127936  0.8880975430959238  0.1884299344665642
  0.9164100116660370  0.0900194017351904  0.1620449113517260
  0.0978901591985281  0.7598496158584521  0.3503475453913779
  0.0134483809295694  0.2008789877862056  0.5011696791231931
  0.3507040605710056  0.8848877863205943  0.3975772429000450
  0.6157194281286208  0.5330288277350705  0.3927205307017390
  0.8700754548474151  0.1836507913373196  0.2967427052455616
  0.6275399162872956  0.2281720038410984  0.1484037441024833
  0.2013669299811142  0.6894747050959220  0.2621921887028207
  0.1832924519522741  0.3917668484816647  0.3044779863558420
  0.3065035033990797  0.4129235857803804  0.1594309235697787
  0.6839764334376994  0.6999331087830145  0.1660159205787521
  0.1754395091922557  0.1430720642856405  0.3433317432376309
  0.8914660390944218  0.3794491915543778  0.1572619628893617
  0.8359683491268908  0.5694946381946624  0.6635018180998025
  0.5115021814142028  0.8938496465344099  0.5687841803121989
  0.3641916254723975  0.3826857832376815  0.4641790568367378
  0.3420694518406685  0.0352853688328785  0.6368944963053250
  0.4655241480908403  0.7090612217474153  0.2746973808575164
  0.4480752027200519  0.0365411075940421  0.2666882185505698
  0.8683925795802189  0.8228970494984501  0.2598500076035305
  0.0441505156035054  0.9326717195372033  0.2536050636728381
  0.1550169993850868  0.1202814487345461  0.1104457233686710
  0.1761307948316562  0.3469482684601018  0.0809986260348013
  0.8548251966490062  0.6488869434349988  0.9681985617935779
  0.9685227521244590  0.1297519806159662  0.0487424506217408
  0.0253969540035956  0.3418584999196079  0.5834141855873993
  0.9710022537190084  0.1806632044759520  0.7132983759970601
  0.6555192231812439  0.3112974673142124  0.6250859151399256
  0.4835539341035269  0.6312089067270596  0.7147126136599503
  0.9018284522072736  0.7413007340927397  0.3534133007644706
  0.7655725132273777  0.2710044513160614  0.2102922465498215
  0.4157187309417394  0.5502135203919282  0.2410480887057062
  0.3635383876991073  0.2158324881357895  0.3064510095308445
  0.6786852241841855  0.7391169921080588  0.9306833213769947
  0.6527608511777939  0.3581083847048671  0.9718960302421812
  0.2455559475206962  0.9352263956529827  0.9656695939012124
  0.3136292869931883  0.3345776257813700  0.0005127793301651
  0.5781367532256558  0.1983071798570230  0.7397514122481263
  0.3593149645390049  0.5819710328716182  0.8798242112506153
  0.8513809430515394  0.0529881519446205  0.8726442895801000
  0.1188514444703802  0.7918742228537727  0.7468706837826037
  0.8864653338508152  0.7531457368985903  0.5138756682600051
  0.8539619593557338  0.1079491980115195  0.4610880730482722
  0.1818743740586779  0.8124463156263996  0.4814610693783166
  0.5034801849411655  0.4977252766223686  0.4832452164249103
  0.4803714914838970  0.1294527039879154  0.1910054184062792
  0.6715227066135846  0.6531791554877332  0.2593796901693838
  0.8650904538267755  0.8660410388460823  0.1674382768600827
  0.0713088524266565  0.4546113807435321  0.1870420828911234
  0.8019583351680437  0.5149551658134400  0.4404585339921531
  0.7926766808395123  0.9859565778753080  0.6134907799060247
  0.2399481070694284  0.5636964647897629  0.6148343128062870
  0.4924074247845415  0.2039875765797016  0.5070912554692826
  0.2679627724706279  0.0101037501818752  0.2678634168969302
  0.6497611818587538  0.3202398796228237  0.3632824826411286
  0.0327760743829098  0.0050283075347111  0.3409523537964549
  0.9771244349658649  0.3357309377450250  0.3172221655466231
  0.5318777237584964  0.0958157713647893  0.8970430918795770
  0.1731600330739278  0.7346064246316224  0.0541810822196646
  0.9865382737534846  0.6532448945798699  0.8967761878175275
  0.0950307440738974  0.2765714576927510  0.8867708612741274
  0.6981395968603452  0.8395882640405145  0.7603255115899290
  0.7513979213518821  0.4394290404734611  0.8124772835298479
  0.3043494055573951  0.9952288989878607  0.8077609279652586
  0.2107917141641143  0.3764957711228278  0.7536242050033557
  0.1700608733093860  0.5270074696752836  0.3884258903802892
  0.2093096734344680  0.1056425801376088  0.4447300908115098
  0.4171704854827910  0.6931205661392623  0.3552507134820950
  0.5982304349875065  0.9192082782320430  0.4060564366140910
  0.7745728202819948  0.5584816122901243  0.0966872521529667
  0.6130237584158984  0.0409019256992929  0.0463787982204023
  0.4766276969593041  0.8345650963882095  0.1207171454213091
  0.4792544243560943  0.4296541652134636  0.1075387016107983
 
  0.49692113E-02 -0.55627620E-02 -0.11906003E-01
 -0.41525721E-02  0.86379113E-02  0.85355788E-02
 -0.58314747E-02  0.49659426E-02  0.38960504E-02
 -0.61445945E-03  0.87413999E-02 -0.30183857E-02
 -0.62154433E-04  0.33158356E-02  0.38455871E-03
  0.95309602E-02  0.24477875E-02  0.28893477E-02
  0.79364780E-02  0.12178967E-01  0.43162483E-02
 -0.95017872E-03 -0.98907665E-02 -0.63975665E-02
 -0.29258679E-02 -0.57543521E-02 -0.61030309E-02
 -0.70647356E-02  0.73554520E-02 -0.44719309E-02
  0.23877271E-02  0.64953430E-02  0.88710054E-02
 -0.51077268E-02 -0.44888487E-02 -0.10155607E-01
 -0.25373720E-02  0.94926125E-02 -0.30806099E-02
 -0.17208711E-02  0.91848415E-02  0.84365647E-03
 -0.31749444E-02  0.84638210E-02 -0.59353325E-03
  0.56716137E-02 -0.68764326E-03 -0.40391193E-03
  0.26660222E-02  0.26378474E-02 -0.33708749E-02
  0.40066333E-02  0.36068747E-02  0.12674709E-02
  0.35905440E-03  0.23067471E-03  0.54764851E-02
 -0.32208215E-03 -0.23500448E-02 -0.18791605E-02
  0.92168435E-03 -0.55876544E-03 -0.25475354E-02
  0.69882753E-02 -0.13806728E-02  0.34397868E-02
 -0.92189748E-02 -0.37815313E-02  0.83004683E-02
  0.11796048E-01  0.42043199E-02  0.29158706E-03
 -0.45175797E-02 -0.14262291E-02 -0.34215886E-02
  0.12980492E-01 -0.10378130E-01 -0.36934537E-02
  0.23263000E-02 -0.33765671E-02 -0.13100135E-02
  0.69929410E-03 -0.32415022E-03  0.31482858E-02
  0.16051360E-02 -0.85159629E-02  0.55128867E-02
  0.19805229E-02  0.10323941E-01 -0.65214686E-02
  0.34888523E-02 -0.47649634E-02 -0.71979010E-02
  0.72752041E-02 -0.57398818E-02 -0.34931683E-02
 -0.68677028E-02  0.18658590E-02 -0.15321144E-02
 -0.19422808E-02  0.41467234E-02 -0.48354180E-02
 -0.10836531E-03 -0.87184326E-02  0.22638508E-02
 -0.50974791E-02 -0.13499089E-01  0.72488333E-02
 -0.54893624E-02 -0.21270606E-02 -0.16625584E-02
 -0.17334539E-03  0.25153601E-02 -0.24694028E-02
 -0.22742810E-02  0.40439442E-02 -0.29122349E-03
 -0.99208584E-03  0.39902364E-02 -0.37743490E-02
  0.77791182E-02  0.37558788E-03 -0.40582384E-02
 -0.10248924E-01 -0.99886026E-03  0.21477325E-02
  0.98079567E-02  0.27440587E-02  0.15640814E-02
  0.70427383E-02  0.30420769E-02  0.44296912E-02
 -0.45294773E-02 -0.27124302E-02  0.14155681E-02
  0.58207885E-03 -0.51009888E-02  0.80671848E-02
 -0.44807787E-02  0.53246315E-02  0.89738428E-02
 -0.16939308E-02 -0.73608220E-02  0.71179862E-02
  0.48484993E-02 -0.18246870E-02  0.20684151E-02
  0.31543668E-02  0.22153727E-02  0.58080136E-02
  0.63276084E-04 -0.10127195E-01  0.78755429E-02
  0.44120265E-02  0.47506418E-02 -0.31008478E-02
  0.41541167E-02  0.50141072E-02 -0.17776194E-03
  0.73619721E-04 -0.19188748E-02  0.10447174E-01
 -0.31721345E-02  0.32967165E-02 -0.19663400E-02
  0.17576345E-02  0.15296736E-01 -0.77921542E-02
 -0.64715619E-02 -0.28015761E-02 -0.94563762E-02
 -0.49922211E-02 -0.15406974E-01  0.20612579E-02
 -0.33849307E-02  0.83826780E-03 -0.54758558E-02
  0.28041100E-02  0.20251035E-02  0.36515072E-02
 -0.20408094E-02  0.20752110E-02 -0.27988718E-02
 -0.53198014E-02 -0.24283428E-02 -0.23481524E-02
  0.57202048E-02  0.40954681E-03  0.54991262E-02
  0.74571807E-02  0.42082821E-02  0.59370465E-02
  0.84155540E-02  0.25666454E-02  0.38212932E-02
 -0.71172403E-02 -0.13170434E-02 -0.72532352E-02
  0.10050610E-01 -0.55084269E-03 -0.38777498E-02
  0.50503550E-03  0.13712146E-02  0.51202811E-03
 -0.94080772E-02 -0.21405289E-02  0.14648506E-02
  0.26692453E-02  0.33448681E-02  0.53525871E-02
 -0.87894901E-02  0.56795058E-02 -0.14215675E-02
  0.14968767E-02 -0.16538358E-02  0.51139568E-02
  0.92065292E-02  0.19085754E-02  0.57492314E-02
  0.51210340E-02  0.55151047E-03 -0.32080489E-02
 -0.62094185E-02  0.74169867E-06 -0.18075357E-02
  0.14679315E-02 -0.59422362E-03  0.43173597E-02
  0.57645934E-02 -0.54712583E-02 -0.22202813E-02
  0.67271192E-03  0.18724923E-02 -0.10689275E-02
  0.38870516E-02 -0.34007075E-02  0.67912203E-03
 -0.31251473E-02 -0.17925743E-02 -0.30244533E-02
  0.23236464E-02  0.36294298E-02  0.42449712E-03
  0.56827156E-02 -0.19052859E-02  0.19438866E-02
 -0.31330990E-02 -0.23257842E-02  0.10442276E-01
 -0.56030291E-02 -0.25063963E-03 -0.57624645E-02
  0.26943980E-02 -0.58210430E-03 -0.27009467E-03
  0.65202807E-02 -0.82933911E-02 -0.54953380E-02
 -0.19087322E-02 -0.42840465E-02 -0.73423917E-02
  0.32379839E-02 -0.12686247E-02  0.20854723E-02
 -0.10805234E-01  0.56979923E-02 -0.59854843E-02
 -0.26920491E-03 -0.43953305E-02 -0.65226757E-02
  0.88054006E-02  0.42173900E-02  0.59748429E-02
  0.36144359E-02 -0.18620159E-02  0.32849406E-02
  0.72863797E-02 -0.12145548E-02  0.94936251E-02
 -0.66244445E-02  0.25666227E-02 -0.73227130E-02
 -0.20765098E-02  0.24443555E-02 -0.25640180E-02
  0.74451442E-03 -0.19850019E-02 -0.40492726E-02
 -0.22273710E-02 -0.34373370E-02  0.73874254E-03
 -0.13777215E-02  0.10810065E-02  0.27519583E-02
  0.24555772E-02 -0.17320350E-02 -0.53051033E-03
  0.32931974E-02 -0.25136527E-02  0.29467139E-02
 -0.13386687E-02  0.28556498E-02  0.34789138E-02
  0.15303345E-02  0.25272075E-03  0.39454816E-02
 -0.15101142E-02 -0.91068364E-03 -0.22854476E-02
  0.93849971E-03 -0.12199272E-02  0.26394415E-02
  0.19559181E-02  0.15871865E-02  0.15583132E-03
  0.19092352E-02 -0.17992061E-02  0.27847093E-03
 -0.21413011E-02 -0.11575796E-02 -0.27601154E-02
 -0.37329520E-02 -0.43968695E-03 -0.14235936E-02
  0.22920880E-02 -0.88859230E-02  0.21231356E-02
  0.42888750E-02  0.89119089E-03 -0.65617048E-02
 -0.57981219E-02 -0.62704078E-02  0.54734165E-02
 -0.67490517E-02 -0.67466633E-03  0.49890678E-02
 -0.63685358E-02 -0.10029818E-03 -0.24581072E-03
  0.10664268E-01  0.79528071E-02 -0.47913245E-02
 -0.37629595E-02 -0.65762480E-03  0.15107347E-04
  0.28611741E-02  0.19875894E-02  0.33355351E-03
 -0.33806768E-02 -0.22669008E-02 -0.13514998E-02
  0.32677305E-02  0.48045842E-02 -0.65330193E-02
 -0.91696888E-03 -0.39232130E-02  0.16431619E-02
 -0.16700834E-02 -0.64219004E-02 -0.29814575E-02
 -0.60514125E-02 -0.21591499E-02  0.40396791E-02
 -0.62490230E-02  0.78131820E-03  0.26067856E-02
  0.22714815E-02  0.54539773E-02 -0.35064672E-02
 -0.46156373E-02  0.36228911E-02  0.11059575E-02
 -0.51009232E-03  0.39792675E-02 -0.14504578E-02
 -0.46093147E-02  0.32870723E-02 -0.89416954E-03
 -0.34902878E-02  0.34291677E-02 -0.43804813E-03
 -0.10978017E-02  0.36799172E-02  0.13491350E-02
 -0.34307636E-02  0.33598790E-02 -0.29238976E-03
 -0.17946035E-03 -0.52089171E-02 -0.48667817E-02
  0.33374218E-02 -0.86133790E-05 -0.29499477E-02
  0.35497882E-02  0.30099346E-02  0.58244003E-02
 -0.73317964E-03 -0.21618784E-02  0.18332659E-02
  0.80819627E-02  0.80271287E-02 -0.63764762E-02
 -0.86741978E-03  0.45215718E-02 -0.33768631E-02
  0.56913204E-02 -0.10152501E-01 -0.36726603E-02
 -0.43563884E-02  0.48766950E-02 -0.42392141E-02
  0.71605025E-03  0.46520861E-02  0.15629256E-02
  0.38812077E-02 -0.44106947E-02  0.85584993E-04
 -0.42535633E-02  0.34849704E-02  0.41450735E-02
 -0.81032218E-02 -0.45924409E-02  0.33640578E-02
 -0.48394302E-02  0.14802064E-02  0.52593326E-02
  0.30994455E-02  0.23672458E-03  0.12348504E-02
  0.32087344E-02  0.34990152E-02 -0.13169426E-02
 -0.98940311E-03  0.56158554E-02  0.95986513E-02
  0.15784367E-02 -0.16377974E-02  0.11133116E-02
 -0.21728931E-02 -0.25746733E-02  0.17746335E-02
 -0.58842822E-02  0.11385451E-02 -0.26584083E-02
 -0.51937534E-02 -0.36528798E-03 -0.64432331E-02
 -0.52498475E-02 -0.14672831E-02 -0.20972063E-02
  0.20941904E-02  0.43135630E-02 -0.93848628E-02
 -0.57832597E-02 -0.93114410E-02  0.13731134E-03
  0.13060933E-02 -0.46596742E-02 -0.50000205E-02
  0.93058760E-03  0.54749757E-02 -0.90173138E-02
  0.44227847E-02  0.84353100E-02 -0.37601904E-02
  0.13601105E-02 -0.80627626E-02 -0.59333569E-02
 
           1
   2.00000000000000     
  0.10852690E+07 -0.41620738E+03 -0.26357164E-17  0.00000000E+00
  0.75234014E-01  0.90627892E+00  0.99754202E+00
  0.29903997E+00  0.12097738E+00  0.89103250E+00
  0.65787916E+00  0.41254801E+00  0.57117766E-01
  0.85612941E+00  0.39861139E+00  0.31326606E-01
  0.85743100E+00  0.28166920E+00  0.91235658E+00
  0.45982322E+00  0.34392405E+00  0.93470479E+00
  0.70153023E+00  0.12829239E+00  0.97136563E+00
  0.80964867E-01  0.73878342E+00  0.13293400E+00
  0.62704901E+00  0.42637132E+00  0.71300636E+00
  0.25583903E+00  0.70410042E+00  0.95535376E+00
  0.91273578E+00  0.74751307E+00  0.71827083E+00
  0.90953357E+00  0.83820580E+00  0.81494386E+00
  0.95989116E+00  0.92040761E+00  0.54848619E+00
  0.20695246E-01  0.69024565E+00  0.44184237E+00
  0.52745046E+00  0.14810600E+00  0.38278637E+00
  0.71682910E+00  0.97105958E+00  0.51521304E+00
  0.98337050E+00  0.56890851E-03  0.64761708E+00
  0.27141961E+00  0.21641716E+00  0.54805044E+00
  0.26100355E+00  0.66290395E+00  0.42172168E+00
  0.81884283E+00  0.97896625E+00  0.38553407E+00
  0.86469310E+00  0.53949743E+00  0.52752507E+00
  0.47916263E+00  0.39187999E+00  0.57147306E+00
  0.53528203E+00  0.60463691E+00  0.63476415E+00
  0.47697408E+00  0.12560851E-01  0.46977456E+00
  0.53116426E+00  0.71749007E+00  0.48556992E+00
  0.26734018E+00  0.96377193E+00  0.52359017E+00
  0.52217265E+00  0.50252117E+00  0.80728022E+00
  0.75434640E+00  0.77847451E+00  0.59781869E+00
  0.23054731E-01  0.69332286E+00  0.60244273E+00
  0.45987991E+00  0.83569443E+00  0.72552158E+00
  0.77460538E+00  0.18726047E+00  0.55809184E+00
  0.73511289E+00  0.41877479E+00  0.28473303E+00
  0.76006300E+00  0.14658898E+00  0.68782872E+00
  0.86979433E+00  0.32434979E+00  0.63400758E+00
  0.56428623E+00  0.11196108E+00  0.59785692E+00
  0.91643840E+00  0.42514400E+00  0.74481632E+00
  0.52273354E+00  0.94916969E+00  0.84192095E+00
  0.33721508E+00  0.62765398E+00  0.53288088E+00
  0.18504104E+00  0.61825990E+00  0.80680057E+00
  0.69683124E+00  0.63349468E+00  0.76366058E+00
  0.12779909E+00  0.46289965E+00  0.67697390E+00
  0.43346283E+00  0.40741243E+00  0.68190588E+00
  0.37417375E+00  0.18808406E+00  0.77136080E+00
  0.63012626E+00  0.94703799E+00  0.68527163E+00
  0.11362653E+00  0.23524402E+00  0.66447926E+00
  0.12616674E+00  0.48598395E+00  0.54951938E+00
  0.85037583E+00  0.20783072E+00  0.79025377E+00
  0.84957552E+00  0.87662617E+00  0.92760712E+00
  0.54119598E+00  0.95414540E+00  0.97878834E+00
  0.21446560E+00  0.38045598E+00  0.85363996E+00
  0.57172377E+00  0.55816876E+00  0.91893271E+00
  0.90612061E+00  0.50311808E+00  0.86564463E+00
  0.82450393E-01  0.35653067E-01  0.89222295E+00
  0.27075749E+00  0.68778234E+00  0.68892440E+00
  0.66709624E-01  0.24683607E+00  0.79728397E+00
  0.10351311E+00  0.43371521E+00  0.94219200E+00
  0.68279208E+00  0.19872115E-01  0.81211440E+00
  0.30567604E+00  0.80687243E+00  0.86422157E+00
  0.82234513E+00  0.95076272E+00  0.73327317E-01
  0.15695245E+00  0.98988367E+00  0.74704238E+00
  0.67127202E+00  0.74918923E+00  0.54385909E-01
  0.94858283E+00  0.59666137E+00  0.88010437E-01
  0.61508622E+00  0.48035807E+00  0.18351283E+00
  0.61296526E+00  0.24285823E+00  0.85295627E+00
  0.76320566E+00  0.74499706E+00  0.43401404E+00
  0.11153948E+00  0.24199920E+00  0.23319581E+00
  0.65108253E-01  0.98647879E+00  0.43220969E+00
  0.14580370E+00  0.34711472E+00  0.42658496E+00
  0.39666205E+00  0.87876772E-01  0.99463096E-01
  0.39482877E+00  0.66421574E+00  0.11288968E+00
  0.62816293E+00  0.94931358E+00  0.14526600E+00
  0.92021851E+00  0.56889619E+00  0.26472988E+00
  0.50596703E+00  0.27623578E+00  0.44531591E-01
  0.27811578E+00  0.89967363E+00  0.51715309E-01
  0.18719301E+00  0.16648309E+00  0.99266244E+00
  0.23397886E+00  0.52991622E+00  0.34208045E-01
  0.91954364E+00  0.54238034E+00  0.37523639E+00
  0.85974281E+00  0.29197138E+00  0.39034832E+00
  0.43195088E+00  0.45571933E+00  0.35208805E+00
  0.68045635E+00  0.27570351E+00  0.46243551E+00
  0.64501417E+00  0.81560961E+00  0.32228835E+00
  0.55464775E+00  0.30109414E+00  0.27252575E+00
  0.31524139E+00  0.88770673E+00  0.18917080E+00
  0.91553638E+00  0.89977285E-01  0.16163607E+00
  0.98349628E-01  0.75975180E+00  0.35032838E+00
  0.14945896E-01  0.19948540E+00  0.50077979E+00
  0.35064163E+00  0.88416791E+00  0.39705631E+00
  0.61630347E+00  0.53281565E+00  0.39286849E+00
  0.86804446E+00  0.18460826E+00  0.29631804E+00
  0.62774346E+00  0.22743343E+00  0.14794097E+00
  0.20252571E+00  0.69018338E+00  0.26261610E+00
  0.18396937E+00  0.39145396E+00  0.30471105E+00
  0.30772589E+00  0.41271950E+00  0.16010448E+00
  0.68278318E+00  0.70036440E+00  0.16549638E+00
  0.17497362E+00  0.14348281E+00  0.34314983E+00
  0.89169517E+00  0.37911564E+00  0.15697467E+00
  0.83580801E+00  0.56891704E+00  0.66355423E+00
  0.51122336E+00  0.89403130E+00  0.56897943E+00
  0.36467767E+00  0.38239474E+00  0.46414142E+00
  0.34273198E+00  0.34862983E-01  0.63710356E+00
  0.46515212E+00  0.70954108E+00  0.27494420E+00
  0.44830349E+00  0.36583574E-01  0.26696814E+00
  0.86820435E+00  0.82274402E+00  0.25968786E+00
  0.44367529E-01  0.93246673E+00  0.25379233E+00
  0.15523797E+00  0.12054815E+00  0.11045678E+00
  0.17653405E+00  0.34664594E+00  0.81018383E-01
  0.85455080E+00  0.64869243E+00  0.96800274E+00
  0.96795598E+00  0.12967810E+00  0.48641449E-01
  0.26257801E-01  0.34036534E+00  0.58356482E+00
  0.97163181E+00  0.18081296E+00  0.71283283E+00
  0.65495187E+00  0.31024381E+00  0.62547425E+00
  0.48252250E+00  0.63109554E+00  0.71506658E+00
  0.90082513E+00  0.74128388E+00  0.35339586E+00
  0.76681656E+00  0.27234081E+00  0.20995231E+00
  0.41515941E+00  0.55010302E+00  0.24104916E+00
  0.36388034E+00  0.21616648E+00  0.30647467E+00
  0.67827661E+00  0.73873607E+00  0.93058743E+00
  0.65300943E+00  0.35891573E+00  0.97143252E+00
  0.24563042E+00  0.93456715E+00  0.96578617E+00
  0.31372441E+00  0.33349851E+00  0.30124928E-03
  0.57729899E+00  0.19794436E+00  0.74003802E+00
  0.35828119E+00  0.58210232E+00  0.88000916E+00
  0.85143532E+00  0.53904619E-01  0.87239551E+00
  0.11791728E+00  0.79248300E+00  0.74694915E+00
  0.88616163E+00  0.75381440E+00  0.51377276E+00
  0.85304761E+00  0.10850155E+00  0.46102463E+00
  0.18112935E+00  0.81302254E+00  0.48142999E+00
  0.50310014E+00  0.49834364E+00  0.48334094E+00
  0.47963977E+00  0.13001729E+00  0.19098467E+00
  0.67178604E+00  0.65230387E+00  0.25903440E+00
  0.86561967E+00  0.86603959E+00  0.16722898E+00
  0.71702639E-01  0.45511716E+00  0.18745532E+00
  0.80196327E+00  0.51459189E+00  0.44058860E+00
  0.79350746E+00  0.98730543E+00  0.61303838E+00
  0.23955742E+00  0.56445625E+00  0.61459473E+00
  0.49387774E+00  0.20228159E+00  0.50683069E+00
  0.26699945E+00  0.10923213E-01  0.26756265E+00
  0.64961405E+00  0.32102160E+00  0.36339337E+00
  0.33638013E-01  0.42871496E-02  0.34095843E+00
  0.97625536E+00  0.33631654E+00  0.31751625E+00
  0.53085119E+00  0.95044073E-01  0.89728177E+00
  0.17231043E+00  0.73485515E+00  0.54554224E-01
  0.98701605E+00  0.65328467E+00  0.89686380E+00
  0.95343105E-01  0.27715942E+00  0.88667743E+00
  0.69766829E+00  0.84053193E+00  0.76100652E+00
  0.75173972E+00  0.43915383E+00  0.81255627E+00
  0.30414938E+00  0.99479626E+00  0.80788684E+00
  0.20979572E+00  0.37668709E+00  0.75343559E+00
  0.16925851E+00  0.52694609E+00  0.38796875E+00
  0.20856014E+00  0.10539602E+00  0.44458130E+00
  0.41726065E+00  0.69384540E+00  0.35458487E+00
  0.59783577E+00  0.91764362E+00  0.40606618E+00
  0.77504074E+00  0.55769862E+00  0.96332508E-01
  0.61286452E+00  0.41821922E-01  0.45739033E-01
  0.47685590E+00  0.83598254E+00  0.12045037E+00
  0.47992151E+00  0.42829933E+00  0.10711774E+00
  0.11478015E-02 -0.94099210E-03 -0.85200969E-03
 -0.11663433E-02  0.14810789E-02  0.60349567E-03
 -0.11662222E-02  0.79292874E-03  0.25180478E-03
 -0.63817042E-03  0.14813544E-02 -0.20028849E-03
 -0.18271427E-03  0.56466936E-03  0.24791803E-04
  0.13774440E-02  0.40434851E-03  0.20452413E-03
  0.58078912E-03  0.20273514E-02  0.31269569E-03
  0.43243983E-03 -0.16758425E-02 -0.47150945E-03
 -0.21935261E-03 -0.91440588E-03 -0.43441196E-03
 -0.15307193E-02  0.12280524E-02 -0.32357051E-03
  0.85420769E-05  0.10871477E-02  0.63179301E-03
 -0.57984432E-03 -0.75055301E-03 -0.71979883E-03
 -0.94397877E-03  0.16041649E-02 -0.18681030E-03
 -0.78498132E-03  0.15326439E-02  0.50290162E-04
 -0.96599814E-03  0.13967680E-02 -0.40763978E-04
  0.92836264E-03 -0.10624883E-03 -0.17754228E-04
  0.24185165E-03  0.44149094E-03 -0.26008387E-03
  0.43033997E-03  0.61100145E-03  0.89584598E-04
 -0.28964567E-04  0.71309172E-04  0.38329311E-03
  0.77582708E-04 -0.37958494E-03 -0.13091687E-03
  0.18573406E-03 -0.87729908E-04 -0.18803377E-03
  0.11920526E-02 -0.22595592E-03  0.25600355E-03
 -0.13025962E-02 -0.63671376E-03  0.63109563E-03
  0.17015552E-02  0.65053161E-03 -0.10606460E-05
 -0.64835076E-03 -0.22646350E-03 -0.24418548E-03
  0.26339779E-02 -0.17208211E-02 -0.26445034E-03
  0.59034453E-03 -0.59714209E-03 -0.89792889E-04
  0.12168983E-03 -0.48039082E-04  0.22588643E-03
  0.74324588E-03 -0.14263473E-02  0.38787687E-03
 -0.24218581E-03  0.16694548E-02 -0.47111778E-03
  0.80988523E-03 -0.77682895E-03 -0.50411229E-03
  0.14511816E-02 -0.96555713E-03 -0.25326461E-03
 -0.11776124E-02  0.30883186E-03 -0.10516640E-03
 -0.48885447E-03  0.67755397E-03 -0.35427311E-03
  0.48495730E-03 -0.14853789E-02  0.15240281E-03
 -0.61437471E-04 -0.22460054E-02  0.51171368E-03
 -0.72709860E-03 -0.28077224E-03 -0.10005098E-03
 -0.10582937E-03  0.37882270E-03 -0.18392603E-03
 -0.60028549E-03  0.68651526E-03 -0.16577161E-04
 -0.36387425E-03  0.65664679E-03 -0.26168859E-03
  0.12336484E-02  0.12705316E-04 -0.26773527E-03
 -0.15353034E-02 -0.14533858E-03  0.14706616E-03
  0.13733807E-02  0.49306001E-03  0.11921726E-03
  0.95895117E-03  0.46963979E-03  0.32561398E-03
 -0.61113881E-03 -0.43638534E-03  0.10600058E-03
  0.35413044E-03 -0.84436124E-03  0.57504473E-03
 -0.95617001E-03  0.89954702E-03  0.62239246E-03
  0.15867593E-03 -0.12228189E-02  0.50715680E-03
  0.89250700E-03 -0.30014319E-03  0.16902520E-03
  0.33431439E-03  0.34040572E-03  0.43431928E-03
  0.55424063E-03 -0.16962201E-02  0.55164885E-03
  0.45734186E-03  0.80631236E-03 -0.21655628E-03
  0.37907202E-03  0.83051431E-03 -0.12093739E-04
  0.11744321E-03 -0.32090128E-03  0.74561018E-03
 -0.74586348E-03  0.57867694E-03 -0.12692718E-03
 -0.57399709E-03  0.25308651E-02 -0.57714511E-03
 -0.87273012E-03 -0.50132756E-03 -0.65935073E-03
  0.63652353E-04 -0.25979014E-02  0.15358139E-03
 -0.61172685E-03  0.13690633E-03 -0.38998196E-03
  0.34346086E-03  0.35143942E-03  0.26739584E-03
 -0.39989929E-03  0.32169394E-03 -0.19403856E-03
 -0.76831439E-03 -0.40206434E-03 -0.17160989E-03
  0.89779292E-03  0.74520842E-04  0.40013839E-03
  0.92194693E-03  0.71290380E-03  0.42786022E-03
  0.11703378E-02  0.44502737E-03  0.26717591E-03
 -0.10538747E-02 -0.21595890E-03 -0.50690616E-03
  0.16165898E-02 -0.10188192E-03 -0.27929088E-03
  0.96186357E-05  0.26104495E-03  0.38314968E-04
 -0.14031985E-02 -0.34310112E-03  0.10055429E-03
  0.22724576E-03  0.58902627E-03  0.38821692E-03
 -0.16984053E-02  0.93738158E-03 -0.10209260E-03
  0.30883188E-03 -0.24967610E-03  0.36958344E-03
  0.13367544E-02  0.34001921E-03  0.41140935E-03
  0.75095856E-03  0.11172520E-03 -0.25147742E-03
 -0.97402020E-03  0.21631905E-05 -0.12908463E-03
  0.24004975E-03 -0.10237318E-03  0.29648869E-03
  0.11662682E-02 -0.86284902E-03 -0.13844412E-03
 -0.11223994E-04  0.30685926E-03 -0.89406005E-04
  0.83560352E-03 -0.56913229E-03  0.42535428E-04
 -0.31896293E-03 -0.36417784E-03 -0.20520176E-03
  0.13607376E-03  0.58608435E-03  0.19793544E-04
  0.10028261E-02 -0.28846898E-03  0.14701171E-03
 -0.36346509E-03 -0.41049206E-03  0.74220080E-03
 -0.86995451E-03 -0.33090541E-04 -0.41194220E-03
  0.47416767E-03 -0.12977110E-03 -0.17312816E-04
  0.14952455E-02 -0.14023631E-02 -0.38930689E-03
 -0.42893225E-04 -0.77667606E-03 -0.52542917E-03
  0.57547859E-03 -0.20580964E-03  0.13819025E-03
 -0.20275876E-02  0.97244267E-03 -0.41402227E-03
  0.22303262E-03 -0.73655111E-03 -0.46159802E-03
  0.11473188E-02  0.73627575E-03  0.43447125E-03
  0.71239879E-03 -0.34914636E-03  0.23155388E-03
  0.12184943E-02 -0.19088818E-03  0.66323633E-03
 -0.11902009E-02  0.41478102E-03 -0.52005474E-03
 -0.45327888E-03  0.41445750E-03 -0.18918731E-03
  0.21293630E-03 -0.33421724E-03 -0.28700890E-03
 -0.16227574E-03 -0.58371999E-03  0.55273542E-04
 -0.27283519E-03  0.18366391E-03  0.19324416E-03
  0.47566601E-03 -0.29054257E-03 -0.38047756E-04
  0.65772948E-03 -0.41592858E-03  0.21100441E-03
 -0.36661668E-03  0.47670910E-03  0.25524224E-03
  0.22803765E-03  0.32605841E-04  0.28297590E-03
 -0.19330694E-03 -0.15945131E-03 -0.16160354E-03
  0.22505948E-03 -0.20185287E-03  0.18342858E-03
  0.23004148E-03  0.25368456E-03  0.13188199E-04
  0.40611579E-03 -0.29303441E-03  0.17554542E-04
 -0.28791126E-03 -0.18650628E-03 -0.19660736E-03
 -0.55924576E-03 -0.78092257E-04 -0.10230545E-03
  0.82460620E-03 -0.14879863E-02  0.17531375E-03
  0.63579086E-03  0.16017388E-03 -0.46947015E-03
 -0.53760096E-03 -0.10923961E-02  0.38549622E-03
 -0.10194810E-02 -0.70152308E-04  0.31943886E-03
 -0.96802216E-03 -0.59256149E-04 -0.15623831E-04
  0.12488792E-02  0.13164100E-02 -0.34245150E-03
 -0.56632837E-03 -0.10311509E-03 -0.45682646E-05
  0.31130291E-03  0.32296341E-03  0.10579567E-04
 -0.35966091E-03 -0.40150823E-03 -0.94530486E-04
  0.23283589E-03  0.82033593E-03 -0.44304507E-03
  0.42373369E-04 -0.66934306E-03  0.15863494E-03
  0.15359479E-03 -0.10508340E-02 -0.20057065E-03
 -0.83806202E-03 -0.38102117E-03  0.26686380E-03
 -0.10424326E-02  0.15372456E-03  0.18851409E-03
  0.37819820E-04  0.90590742E-03 -0.24563783E-03
 -0.86967555E-03  0.59249598E-03  0.71433022E-04
 -0.30420327E-03  0.67993379E-03 -0.11869000E-03
 -0.93945755E-03  0.57008320E-03 -0.83376811E-04
 -0.75069047E-03  0.58315830E-03 -0.41174680E-04
 -0.35685387E-03  0.62595724E-03  0.10154146E-03
 -0.72059926E-03  0.57200936E-03 -0.28429509E-04
  0.25985454E-03 -0.83863530E-03 -0.34958220E-03
  0.53271616E-03 -0.17536004E-05 -0.19133964E-03
  0.38260846E-03  0.49754444E-03  0.41316972E-03
  0.29246916E-04 -0.34905671E-03  0.11690155E-03
  0.81474417E-03  0.13500165E-02 -0.45313187E-03
 -0.42121458E-03  0.77963851E-03 -0.23564248E-03
  0.14667423E-02 -0.17158130E-02 -0.26374975E-03
 -0.96378123E-03  0.82386916E-03 -0.29352550E-03
 -0.13386187E-03  0.79686179E-03  0.12965011E-03
  0.86124685E-03 -0.71382314E-03  0.24335635E-04
 -0.88644029E-03  0.56248402E-03  0.29708353E-03
 -0.10159907E-02 -0.82306198E-03  0.22657908E-03
 -0.86595684E-03  0.25109604E-03  0.37325380E-03
  0.46148291E-03  0.24537050E-04  0.82705781E-04
  0.36293687E-03  0.60889346E-03 -0.10511929E-03
 -0.48493850E-03  0.94570282E-03  0.66147809E-03
  0.32936721E-03 -0.24586963E-03  0.71966100E-04
 -0.21796431E-03 -0.43496036E-03  0.11676759E-03
 -0.97488561E-03  0.18791429E-03 -0.20844122E-03
 -0.81241035E-03 -0.56623190E-04 -0.44146450E-03
 -0.75996027E-03 -0.27243646E-03 -0.15404479E-03
  0.82006865E-04  0.75865244E-03 -0.68248638E-03
 -0.40097996E-03 -0.15598275E-02  0.24867515E-04
  0.50896031E-03 -0.74793866E-03 -0.35701780E-03
 -0.16700850E-03  0.91376211E-03 -0.65526013E-03
  0.22245935E-03  0.14238957E-02 -0.26506860E-03
  0.65983323E-03 -0.13693323E-02 -0.43343180E-03
  0.00000000E+00  0.00000000E+00  0.00000000E+00
  0.00000000E+00  0.00000000E+00  0.00000000E+00
  0.00000000E+00  0.00000000E+00  0.00000000E+00
  0.00000000E+00  0.00000000E+00  0.00000000E+00
  0.00000000E+00  0.00000000E+00  0.00000000E+00
  0.00000000E+00  0.00000000E+00  0.00000000E+00
  0.00000000E+00  0.00000000E+00  0.00000000E+00
  0.00000000E+00  0.00000000E+00  0.00000000E+00
  0.00000000E+00  0.00000000E+00  0.00000000E+00
  0.00000000E+00  0.00000000E+00  0.00000000E+00
  0.00000000E+00  0.00000000E+00  0.00000000E+00
  0.00000000E+00  0.00000000E+00  0.00000000E+00
  0.00000000E+00  0.00000000E+00  0.00000000E+00
  0.00000000E+00  0.00000000E+00  0.00000000E+00
  0.00000000E+00  0.00000000E+00  0.00000000E+00
  0.00000000E+00  0.00000000E+00  0.00000000E+00
  0.00000000E+00  0.00000000E+00  0.00000000E+00
  0.00000000E+00  0.00000000E+00  0.00000000E+00
  0.00000000E+00  0.00000000E+00  0.00000000E+00
  0.00000000E+00  0.00000000E+00  0.00000000E+00
  0.00000000E+00  0.00000000E+00  0.00000000E+00
  0.00000000E+00  0.00000000E+00  0.00000000E+00
  0.00000000E+00  0.00000000E+00  0.00000000E+00
  0.00000000E+00  0.00000000E+00  0.00000000E+00
  0.00000000E+00  0.00000000E+00  0.00000000E+00
  0.00000000E+00  0.00000000E+00  0.00000000E+00
  0.00000000E+00  0.00000000E+00  0.00000000E+00
  0.00000000E+00  0.00000000E+00  0.00000000E+00
  0.00000000E+00  0.00000000E+00  0.00000000E+00
  0.00000000E+00  0.00000000E+00  0.00000000E+00
  0.00000000E+00  0.00000000E+00  0.00000000E+00
  0.00000000E+00  0.00000000E+00  0.00000000E+00
  0.00000000E+00  0.00000000E+00  0.00000000E+00
  0.00000000E+00  0.00000000E+00  0.00000000E+00
  0.00000000E+00  0.00000000E+00  0.00000000E+00
  0.00000000E+00  0.00000000E+00  0.00000000E+00
  0.00000000E+00  0.00000000E+00  0.00000000E+00
  0.00000000E+00  0.00000000E+00  0.00000000E+00
  0.00000000E+00  0.00000000E+00  0.00000000E+00
  0.00000000E+00  0.00000000E+00  0.00000000E+00
  0.00000000E+00  0.00000000E+00  0.00000000E+00
  0.00000000E+00  0.00000000E+00  0.00000000E+00
  0.00000000E+00  0.00000000E+00  0.00000000E+00
  0.00000000E+00  0.00000000E+00  0.00000000E+00
  0.00000000E+00  0.00000000E+00  0.00000000E+00
  0.00000000E+00  0.00000000E+00  0.00000000E+00
  0.00000000E+00  0.00000000E+00  0.00000000E+00
  0.00000000E+00  0.00000000E+00  0.00000000E+00
  0.00000000E+00  0.00000000E+00  0.00000000E+00
  0.00000000E+00  0.00000000E+00  0.00000000E+00
  0.00000000E+00  0.00000000E+00  0.00000000E+00
  0.00000000E+00  0.00000000E+00  0.00000000E+00
  0.00000000E+00  0.00000000E+00  0.00000000E+00
  0.00000000E+00  0.00000000E+00  0.00000000E+00
  0.00000000E+00  0.00000000E+00  0.00000000E+00
  0.00000000E+00  0.00000000E+00  0.00000000E+00
  0.00000000E+00  0.00000000E+00  0.00000000E+00
  0.00000000E+00  0.00000000E+00  0.00000000E+00
  0.00000000E+00  0.00000000E+00  0.00000000E+00
  0.00000000E+00  0.00000000E+00  0.00000000E+00
  0.00000000E+00  0.00000000E+00  0.00000000E+00
  0.00000000E+00  0.00000000E+00  0.00000000E+00
  0.00000000E+00  0.00000000E+00  0.00000000E+00
  0.00000000E+00  0.00000000E+00  0.00000000E+00
  0.00000000E+00  0.00000000E+00  0.00000000E+00
  0.00000000E+00  0.00000000E+00  0.00000000E+00
  0.00000000E+00  0.00000000E+00  0.00000000E+00
  0.00000000E+00  0.00000000E+00  0.00000000E+00
  0.00000000E+00  0.00000000E+00  0.00000000E+00
  0.00000000E+00  0.00000000E+00  0.00000000E+00
  0.00000000E+00  0.00000000E+00  0.00000000E+00
  0.00000000E+00  0.00000000E+00  0.00000000E+00
  0.00000000E+00  0.00000000E+00  0.00000000E+00
  0.00000000E+00  0.00000000E+00  0.00000000E+00
  0.00000000E+00  0.00000000E+00  0.00000000E+00
  0.00000000E+00  0.00000000E+00  0.00000000E+00
  0.00000000E+00  0.00000000E+00  0.00000000E+00
  0.00000000E+00  0.00000000E+00  0.00000000E+00
  0.00000000E+00  0.00000000E+00  0.00000000E+00
  0.00000000E+00  0.00000000E+00  0.00000000E+00
  0.00000000E+00  0.00000000E+00  0.00000000E+00
  0.00000000E+00  0.00000000E+00  0.00000000E+00
  0.00000000E+00  0.00000000E+00  0.00000000E+00
  0.00000000E+00  0.00000000E+00  0.00000000E+00
  0.00000000E+00  0.00000000E+00  0.00000000E+00
  0.00000000E+00  0.00000000E+00  0.00000000E+00
  0.00000000E+00  0.00000000E+00  0.00000000E+00
  0.00000000E+00  0.00000000E+00  0.00000000E+00
  0.00000000E+00  0.00000000E+00  0.00000000E+00
  0.00000000E+00  0.00000000E+00  0.00000000E+00
  0.00000000E+00  0.00000000E+00  0.00000000E+00
  0.00000000E+00  0.00000000E+00  0.00000000E+00
  0.00000000E+00  0.00000000E+00  0.00000000E+00
  0.00000000E+00  0.00000000E+00  0.00000000E+00
  0.00000000E+00  0.00000000E+00  0.00000000E+00
  0.00000000E+00  0.00000000E+00  0.00000000E+00
  0.00000000E+00  0.00000000E+00  0.00000000E+00
  0.00000000E+00  0.00000000E+00  0.00000000E+00
  0.00000000E+00  0.00000000E+00  0.00000000E+00
  0.00000000E+00  0.00000000E+00  0.00000000E+00
  0.00000000E+00  0.00000000E+00  0.00000000E+00
  0.00000000E+00  0.00000000E+00  0.00000000E+00
  0.00000000E+00  0.00000000E+00  0.00000000E+00
  0.00000000E+00  0.00000000E+00  0.00000000E+00
  0.00000000E+00  0.00000000E+00  0.00000000E+00
  0.00000000E+00  0.00000000E+00  0.00000000E+00
  0.00000000E+00  0.00000000E+00  0.00000000E+00
  0.00000000E+00  0.00000000E+00  0.00000000E+00
  0.00000000E+00  0.00000000E+00  0.00000000E+00
  0.00000000E+00  0.00000000E+00  0.00000000E+00
  0.00000000E+00  0.00000000E+00  0.00000000E+00
  0.00000000E+00  0.00000000E+00  0.00000000E+00
  0.00000000E+00  0.00000000E+00  0.00000000E+00
  0.00000000E+00  0.00000000E+00  0.00000000E+00
  0.00000000E+00  0.00000000E+00  0.00000000E+00
  0.00000000E+00  0.00000000E+00  0.00000000E+00
  0.00000000E+00  0.00000000E+00  0.00000000E+00
  0.00000000E+00  0.00000000E+00  0.00000000E+00
  0.00000000E+00  0.00000000E+00  0.00000000E+00
  0.00000000E+00  0.00000000E+00  0.00000000E+00
  0.00000000E+00  0.00000000E+00  0.00000000E+00
  0.00000000E+00  0.00000000E+00  0.00000000E+00
  0.00000000E+00  0.00000000E+00  0.00000000E+00
  0.00000000E+00  0.00000000E+00  0.00000000E+00
  0.00000000E+00  0.00000000E+00  0.00000000E+00
  0.00000000E+00  0.00000000E+00  0.00000000E+00
  0.00000000E+00  0.00000000E+00  0.00000000E+00
  0.00000000E+00  0.00000000E+00  0.00000000E+00
  0.00000000E+00  0.00000000E+00  0.00000000E+00
  0.00000000E+00  0.00000000E+00  0.00000000E+00
  0.00000000E+00  0.00000000E+00  0.00000000E+00
  0.00000000E+00  0.00000000E+00  0.00000000E+00
  0.00000000E+00  0.00000000E+00  0.00000000E+00
  0.00000000E+00  0.00000000E+00  0.00000000E+00
  0.00000000E+00  0.00000000E+00  0.00000000E+00
  0.00000000E+00  0.00000000E+00  0.00000000E+00
  0.00000000E+00  0.00000000E+00  0.00000000E+00
  0.00000000E+00  0.00000000E+00  0.00000000E+00
  0.00000000E+00  0.00000000E+00  0.00000000E+00
  0.00000000E+00  0.00000000E+00  0.00000000E+00
  0.00000000E+00  0.00000000E+00  0.00000000E+00
  0.00000000E+00  0.00000000E+00  0.00000000E+00
  0.00000000E+00  0.00000000E+00  0.00000000E+00
  0.00000000E+00  0.00000000E+00  0.00000000E+00
  0.00000000E+00  0.00000000E+00  0.00000000E+00
  0.00000000E+00  0.00000000E+00  0.00000000E+00
  0.00000000E+00  0.00000000E+00  0.00000000E+00
  0.00000000E+00  0.00000000E+00  0.00000000E+00
  0.00000000E+00  0.00000000E+00  0.00000000E+00
  0.00000000E+00  0.00000000E+00  0.00000000E+00
  0.00000000E+00  0.00000000E+00  0.00000000E+00
  0.00000000E+00  0.00000000E+00  0.00000000E+00
  0.00000000E+00  0.00000000E+00  0.00000000E+00
  0.00000000E+00  0.00000000E+00  0.00000000E+00
  0.00000000E+00  0.00000000E+00  0.00000000E+00
  0.00000000E+00  0.00000000E+00  0.00000000E+00
