  156  156    1    1
  0.2715131E+02  0.1262416E-08  0.1262416E-08  0.2818945E-08  0.2000000E-14
   800.000000000000     
  CAR 
 unknown system                          
   1020      1    616
 
  0.0000000E+00  0.0000000E+00  0.0000000E+00  0.1000000E+01
      1        -23.544032   1.000000
      2        -23.479362   1.000000
      3        -23.419948   1.000000
      4        -23.406222   1.000000
      5        -23.402652   1.000000
      6        -23.386529   1.000000
      7        -23.356353   1.000000
      8        -23.354339   1.000000
      9        -23.287200   1.000000
     10        -23.226110   1.000000
     11        -23.214649   1.000000
     12        -23.178579   1.000000
     13        -23.162672   1.000000
     14        -23.148017   1.000000
     15        -23.129420   1.000000
     16        -23.128755   1.000000
     17        -23.116741   1.000000
     18        -23.115495   1.000000
     19        -23.110307   1.000000
     20        -23.108275   1.000000
     21        -23.100686   1.000000
     22        -23.076621   1.000000
     23        -23.072575   1.000000
     24        -23.070192   1.000000
     25        -23.065707   1.000000
     26        -23.028622   1.000000
     27        -23.028332   1.000000
     28        -23.020349   1.000000
     29        -23.012842   1.000000
     30        -22.992355   1.000000
     31        -22.988791   1.000000
     32        -22.977757   1.000000
     33        -22.976046   1.000000
     34        -22.969929   1.000000
     35        -22.967906   1.000000
     36        -22.958575   1.000000
     37        -22.955127   1.000000
     38        -22.948456   1.000000
     39        -22.946959   1.000000
     40        -22.920712   1.000000
     41        -22.913996   1.000000
     42        -22.913841   1.000000
     43        -22.913092   1.000000
     44        -22.902359   1.000000
     45        -22.901041   1.000000
     46        -22.899731   1.000000
     47        -22.897543   1.000000
     48        -22.891547   1.000000
     49        -22.890845   1.000000
     50        -22.888169   1.000000
     51        -22.880821   1.000000
     52        -22.875947   1.000000
     53        -22.867661   1.000000
     54        -22.866062   1.000000
     55        -22.863484   1.000000
     56        -22.851644   1.000000
     57        -22.847279   1.000000
     58        -22.843437   1.000000
     59        -22.833646   1.000000
     60        -22.827057   1.000000
     61        -22.826472   1.000000
     62        -22.818818   1.000000
     63        -22.817837   1.000000
     64        -22.812911   1.000000
     65        -22.809394   1.000000
     66        -22.806751   1.000000
     67        -22.801144   1.000000
     68        -22.800294   1.000000
     69        -22.795208   1.000000
     70        -22.786578   1.000000
     71        -22.782687   1.000000
     72        -22.780146   1.000000
     73        -22.779020   1.000000
     74        -22.777981   1.000000
     75        -22.777628   1.000000
     76        -22.771996   1.000000
     77        -22.767366   1.000000
     78        -22.762541   1.000000
     79        -22.747450   1.000000
     80        -22.738728   1.000000
     81        -22.731988   1.000000
     82        -22.729884   1.000000
     83        -22.728966   1.000000
     84        -22.726516   1.000000
     85        -22.721910   1.000000
     86        -22.720071   1.000000
     87        -22.717129   1.000000
     88        -22.716142   1.000000
     89        -22.713441   1.000000
     90        -22.710774   1.000000
     91        -22.703502   1.000000
     92        -22.702806   1.000000
     93        -22.697578   1.000000
     94        -22.688517   1.000000
     95        -22.686077   1.000000
     96        -22.680679   1.000000
     97        -22.678812   1.000000
     98        -22.677481   1.000000
     99        -22.672832   1.000000
    100        -22.661219   1.000000
    101        -22.651657   1.000000
    102        -22.648746   1.000000
    103        -22.648604   1.000000
    104        -22.636829   1.000000
    105        -22.634151   1.000000
    106        -22.628712   1.000000
    107        -22.623991   1.000000
    108        -22.620811   1.000000
    109        -22.616119   1.000000
    110        -22.610773   1.000000
    111        -22.607336   1.000000
    112        -22.605485   1.000000
    113        -22.602493   1.000000
    114        -22.600706   1.000000
    115        -22.596142   1.000000
    116        -22.582839   1.000000
    117        -22.580223   1.000000
    118        -22.579328   1.000000
    119        -22.576177   1.000000
    120        -22.574238   1.000000
    121        -22.569282   1.000000
    122        -22.569263   1.000000
    123        -22.559615   1.000000
    124        -22.557199   1.000000
    125        -22.552988   1.000000
    126        -22.552830   1.000000
    127        -22.549593   1.000000
    128        -22.546730   1.000000
    129        -22.539450   1.000000
    130        -22.525967   1.000000
    131        -22.522450   1.000000
    132        -22.517400   1.000000
    133        -22.516428   1.000000
    134        -22.514760   1.000000
    135        -22.514032   1.000000
    136        -22.510526   1.000000
    137        -22.510465   1.000000
    138        -22.508815   1.000000
    139        -22.504778   1.000000
    140        -22.498271   1.000000
    141        -22.495757   1.000000
    142        -22.494296   1.000000
    143        -22.492390   1.000000
    144        -22.488447   1.000000
    145        -22.486566   1.000000
    146        -22.478677   1.000000
    147        -22.474684   1.000000
    148        -22.468268   1.000000
    149        -22.468002   1.000000
    150        -22.463433   1.000000
    151        -22.461549   1.000000
    152        -22.455217   1.000000
    153        -22.451589   1.000000
    154        -22.451290   1.000000
    155        -22.440700   1.000000
    156        -22.440422   1.000000
    157        -22.436223   1.000000
    158        -22.433120   1.000000
    159        -22.430605   1.000000
    160        -22.427624   1.000000
    161        -22.427107   1.000000
    162        -22.423723   1.000000
    163        -22.419470   1.000000
    164        -22.415777   1.000000
    165        -22.414450   1.000000
    166        -22.414277   1.000000
    167        -22.414221   1.000000
    168        -22.403549   1.000000
    169        -22.399608   1.000000
    170        -22.398373   1.000000
    171        -22.392694   1.000000
    172        -22.389190   1.000000
    173        -22.379350   1.000000
    174        -22.368493   1.000000
    175        -22.368313   1.000000
    176        -22.365300   1.000000
    177        -22.363761   1.000000
    178        -22.359936   1.000000
    179        -22.351755   1.000000
    180        -22.348697   1.000000
    181        -22.346924   1.000000
    182        -22.345093   1.000000
    183        -22.339885   1.000000
    184        -22.339041   1.000000
    185        -22.332653   1.000000
    186        -22.330168   1.000000
    187        -22.328704   1.000000
    188        -22.327481   1.000000
    189        -22.318022   1.000000
    190        -22.316257   1.000000
    191        -22.309128   1.000000
    192        -22.307299   1.000000
    193        -22.306218   1.000000
    194        -22.305342   1.000000
    195        -22.293210   1.000000
    196        -22.285164   1.000000
    197        -22.282895   1.000000
    198        -22.267185   1.000000
    199        -22.263762   1.000000
    200        -22.263414   1.000000
    201        -22.261701   1.000000
    202        -22.261480   1.000000
    203        -22.254842   1.000000
    204        -22.244744   1.000000
    205        -22.235855   1.000000
    206        -22.231112   1.000000
    207        -22.228078   1.000000
    208        -22.220386   1.000000
    209        -22.220043   1.000000
    210        -22.219935   1.000000
    211        -22.210321   1.000000
    212        -22.205240   1.000000
    213        -22.195495   1.000000
    214        -22.194753   1.000000
    215        -22.194137   1.000000
    216        -22.190965   1.000000
    217        -22.189858   1.000000
    218        -22.182671   1.000000
    219        -22.180936   1.000000
    220        -22.172723   1.000000
    221        -22.162379   1.000000
    222        -22.161321   1.000000
    223        -22.158617   1.000000
    224        -22.157829   1.000000
    225        -22.152070   1.000000
    226        -22.149843   1.000000
    227        -22.134968   1.000000
    228        -22.134291   1.000000
    229        -22.132006   1.000000
    230        -22.129601   1.000000
    231        -22.129546   1.000000
    232        -22.127683   1.000000
    233        -22.115442   1.000000
    234        -22.112634   1.000000
    235        -22.106899   1.000000
    236        -22.106696   1.000000
    237        -22.105865   1.000000
    238        -22.096995   1.000000
    239        -22.075882   1.000000
    240        -22.058608   1.000000
    241        -22.051799   1.000000
    242        -22.028350   1.000000
    243        -22.026903   1.000000
    244        -22.026886   1.000000
    245        -22.012031   1.000000
    246        -21.997229   1.000000
    247        -21.994716   1.000000
    248        -21.993077   1.000000
    249        -21.978131   1.000000
    250        -21.963307   1.000000
    251        -21.954256   1.000000
    252        -21.949968   1.000000
    253        -21.930079   1.000000
    254        -21.923734   1.000000
    255        -21.921954   1.000000
    256        -21.920397   1.000000
    257        -21.913221   1.000000
    258        -21.903194   1.000000
    259        -21.898707   1.000000
    260        -21.887986   1.000000
    261        -21.887920   1.000000
    262        -21.882956   1.000000
    263        -21.872691   1.000000
    264        -21.872665   1.000000
    265        -21.865921   1.000000
    266        -21.852618   1.000000
    267        -21.846936   1.000000
    268        -21.843164   1.000000
    269        -21.837970   1.000000
    270        -21.827370   1.000000
    271        -21.813203   1.000000
    272        -21.768273   1.000000
    273        -21.756091   1.000000
    274        -21.752116   1.000000
    275        -21.732827   1.000000
    276        -21.702659   1.000000
    277        -21.675647   1.000000
    278        -21.620387   1.000000
    279        -21.614713   1.000000
    280        -21.613766   1.000000
    281        -21.579838   1.000000
    282        -21.567490   1.000000
    283        -21.532102   1.000000
    284        -21.501918   1.000000
    285        -21.499668   1.000000
    286        -21.488733   1.000000
    287        -21.465052   1.000000
    288        -21.449578   1.000000
    289        -12.513508   1.000000
    290        -11.779434   1.000000
    291        -11.391231   1.000000
    292        -11.310317   1.000000
    293        -11.061050   1.000000
    294        -10.924703   1.000000
    295        -10.640379   1.000000
    296        -10.552769   1.000000
    297        -10.438658   1.000000
    298        -10.409895   1.000000
    299        -10.307736   1.000000
    300        -10.265261   1.000000
    301        -10.200374   1.000000
    302        -10.152929   1.000000
    303        -10.151914   1.000000
    304        -10.107875   1.000000
    305         -9.995035   1.000000
    306         -9.987033   1.000000
    307         -9.865735   1.000000
    308         -9.858452   1.000000
    309         -9.840098   1.000000
    310         -9.818631   1.000000
    311         -9.812067   1.000000
    312         -9.811238   1.000000
    313         -9.764437   1.000000
    314         -9.718504   1.000000
    315         -9.707756   1.000000
    316         -9.636614   1.000000
    317         -9.632411   1.000000
    318         -9.628417   1.000000
    319         -9.614428   1.000000
    320         -9.590451   1.000000
    321         -9.581982   1.000000
    322         -9.575314   1.000000
    323         -9.566070   1.000000
    324         -9.545693   1.000000
    325         -9.501637   1.000000
    326         -9.477909   1.000000
    327         -9.440027   1.000000
    328         -9.430929   1.000000
    329         -9.422328   1.000000
    330         -9.402137   1.000000
    331         -9.295981   1.000000
    332         -9.275252   1.000000
    333         -9.212075   1.000000
    334         -9.145711   1.000000
    335         -9.136158   1.000000
    336         -9.091567   1.000000
    337         -7.808780   1.000000
    338         -7.517090   1.000000
    339         -7.340155   1.000000
    340         -7.131772   1.000000
    341         -6.923044   1.000000
    342         -6.857814   1.000000
    343         -6.770196   1.000000
    344         -6.609574   1.000000
    345         -6.098120   1.000000
    346         -6.006953   1.000000
    347         -5.515348   1.000000
    348         -5.485735   1.000000
    349         -3.443786   1.000000
    350         -3.232047   1.000000
    351         -2.913778   1.000000
    352         -2.654135   1.000000
    353         -2.525787   1.000000
    354         -2.327893   1.000000
    355         -2.185841   1.000000
    356         -2.147461   1.000000
    357         -2.052967   1.000000
    358         -2.043105   1.000000
    359         -1.986304   1.000000
    360         -1.876994   1.000000
    361         -1.813971   1.000000
    362         -1.788220   1.000000
    363         -1.728340   1.000000
    364         -1.677549   1.000000
    365         -1.592776   1.000000
    366         -1.567550   1.000000
    367         -1.507699   1.000000
    368         -1.477987   1.000000
    369         -1.412053   1.000000
    370         -1.394717   1.000000
    371         -1.372394   1.000000
    372         -1.343685   1.000000
    373         -1.308032   1.000000
    374         -1.277865   1.000000
    375         -1.253122   1.000000
    376         -1.248861   1.000000
    377         -1.241781   1.000000
    378         -1.207903   1.000000
    379         -1.185196   1.000000
    380         -1.174178   1.000000
    381         -1.154786   1.000000
    382         -1.135204   1.000000
    383         -1.113815   1.000000
    384         -1.104437   1.000000
    385         -1.093179   1.000000
    386         -1.064750   1.000000
    387         -1.060198   1.000000
    388         -1.043069   1.000000
    389         -1.015930   1.000000
    390         -0.998667   1.000000
    391         -0.984562   1.000000
    392         -0.957128   1.000000
    393         -0.943512   1.000000
    394         -0.918459   1.000000
    395         -0.885220   1.000000
    396         -0.863918   1.000000
    397         -0.844609   1.000000
    398         -0.834906   1.000000
    399         -0.820787   1.000000
    400         -0.806391   1.000000
    401         -0.803167   1.000000
    402         -0.775021   1.000000
    403         -0.769209   1.000000
    404         -0.744295   1.000000
    405         -0.741484   1.000000
    406         -0.728289   1.000000
    407         -0.711415   1.000000
    408         -0.693291   1.000000
    409         -0.682481   1.000000
    410         -0.678333   1.000000
    411         -0.654935   1.000000
    412         -0.634032   1.000000
    413         -0.627836   1.000000
    414         -0.617904   1.000000
    415         -0.604524   1.000000
    416         -0.584715   1.000000
    417         -0.575625   1.000000
    418         -0.561641   1.000000
    419         -0.553847   1.000000
    420         -0.539852   1.000000
    421         -0.525136   1.000000
    422         -0.495222   1.000000
    423         -0.487726   1.000000
    424         -0.480947   1.000000
    425         -0.467622   1.000000
    426         -0.450894   1.000000
    427         -0.442994   1.000000
    428         -0.437598   1.000000
    429         -0.425429   1.000000
    430         -0.399073   1.000000
    431         -0.386899   1.000000
    432         -0.381087   1.000000
    433         -0.372700   1.000000
    434         -0.340539   1.000000
    435         -0.331943   1.000000
    436         -0.317422   1.000000
    437         -0.307187   1.000000
    438         -0.297857   1.000000
    439         -0.275771   1.000000
    440         -0.266391   1.000000
    441         -0.263098   1.000000
    442         -0.244847   1.000000
    443         -0.241606   1.000000
    444         -0.221825   1.000000
    445         -0.200521   1.000000
    446         -0.185724   1.000000
    447         -0.180237   1.000000
    448         -0.168506   1.000000
    449         -0.167087   1.000000
    450         -0.133703   1.000000
    451         -0.125421   1.000000
    452         -0.111724   1.000000
    453         -0.104953   1.000000
    454         -0.093281   1.000000
    455         -0.083340   1.000000
    456         -0.072763   1.000000
    457         -0.054935   1.000000
    458         -0.047466   1.000000
    459         -0.039217   1.000000
    460         -0.016812   1.000000
    461         -0.006587   1.000000
    462          0.017164   1.000000
    463          0.024868   1.000000
    464          0.027890   1.000000
    465          0.056909   1.000000
    466          0.065207   1.000000
    467          0.068261   1.000000
    468          0.085079   1.000000
    469          0.113558   1.000000
    470          0.119436   1.000000
    471          0.123231   1.000000
    472          0.147997   1.000000
    473          0.150385   1.000000
    474          0.159959   1.000000
    475          0.172818   1.000000
    476          0.194594   1.000000
    477          0.213214   1.000000
    478          0.246119   1.000000
    479          0.254172   1.000000
    480          0.272624   1.000000
    481          0.292666   1.000000
    482          0.304374   1.000000
    483          0.324477   0.999999
    484          0.333347   0.999999
    485          0.349970   0.999999
    486          0.358604   0.999999
    487          0.389093   0.999999
    488          0.396088   0.999999
    489          0.419907   0.999998
    490          0.436354   0.999998
    491          0.456902   0.999998
    492          0.507160   0.999996
    493          0.528840   0.999996
    494          0.538175   0.999995
    495          0.605142   0.999990
    496          0.613779   0.999990
    497          0.647592   0.999985
    498          0.654332   0.999984
    499          0.741894   0.999962
    500          0.863783   0.999873
    501          0.881159   0.999849
    502          0.982342   0.999584
    503          1.083349   0.998859
    504          1.244323   0.994320
    505          1.250944   0.993934
    506          1.456147   0.954648
    507          1.506578   0.927074
    508          1.552400   0.889374
    509          1.595370   0.839521
    510          1.641118   0.768025
    511          1.722263   0.595256
    512          2.095883   0.033880
    513          2.307085   0.004225
    514          2.502053   0.000603
    515          2.526117   0.000474
    516          2.566458   0.000317
    517          2.602956   0.000220
    518          2.790511   0.000034
    519          2.840260   0.000021
    520          2.891635   0.000012
    521          2.998608   0.000004
    522          3.048512   0.000003
    523          3.103315   0.000001
    524          3.156526   0.000001
    525          3.288474   0.000000
    526          3.306076   0.000000
    527          3.381597   0.000000
    528          3.441622   0.000000
    529          3.448507   0.000000
    530          3.540382   0.000000
    531          3.583144   0.000000
    532          3.665037   0.000000
    533          3.716771   0.000000
    534          3.808308   0.000000
    535          3.832930   0.000000
    536          3.840404   0.000000
    537          3.848355   0.000000
    538          3.941176   0.000000
    539          3.960884   0.000000
    540          3.982041   0.000000
    541          4.028395   0.000000
    542          4.062153   0.000000
    543          4.075092   0.000000
    544          4.125708   0.000000
    545          4.151155   0.000000
    546          4.168136   0.000000
    547          4.248233   0.000000
    548          4.308235   0.000000
    549          4.324324   0.000000
    550          4.370375   0.000000
    551          4.400778   0.000000
    552          4.428235   0.000000
    553          4.459904   0.000000
    554          4.502582   0.000000
    555          4.520490   0.000000
    556          4.557606   0.000000
    557          4.568760   0.000000
    558          4.600914   0.000000
    559          4.641573   0.000000
    560          4.687773   0.000000
    561          4.714653   0.000000
    562          4.748626   0.000000
    563          4.785295   0.000000
    564          4.806462   0.000000
    565          4.827512   0.000000
    566          4.867484   0.000000
    567          4.895895   0.000000
    568          4.926741   0.000000
    569          4.954215   0.000000
    570          4.991744   0.000000
    571          5.020310   0.000000
    572          5.029452   0.000000
    573          5.081933   0.000000
    574          5.085801   0.000000
    575          5.108035   0.000000
    576          5.155167   0.000000
    577          5.160689   0.000000
    578          5.218512   0.000000
    579          5.235806   0.000000
    580          5.252452   0.000000
    581          5.280548   0.000000
    582          5.316132   0.000000
    583          5.355209   0.000000
    584          5.384566   0.000000
    585          5.391052   0.000000
    586          5.414677   0.000000
    587          5.429942   0.000000
    588          5.469699   0.000000
    589          5.475010   0.000000
    590          5.521733   0.000000
    591          5.549046   0.000000
    592          5.569800   0.000000
    593          5.600747   0.000000
    594          5.612585   0.000000
    595          5.644489   0.000000
    596          5.673783   0.000000
    597          5.718000   0.000000
    598          5.751311   0.000000
    599          5.758092   0.000000
    600          5.790790   0.000000
    601          5.810677   0.000000
    602          5.852322   0.000000
    603          5.890336   0.000000
    604          5.918728   0.000000
    605          5.955782   0.000000
    606          6.005270   0.000000
    607          6.029339   0.000000
    608          6.045783   0.000000
    609          6.082937   0.000000
    610          6.101207   0.000000
    611          6.132747   0.000000
    612          6.147717   0.000000
    613          6.154428   0.000000
    614          6.165417   0.000000
    615          6.204644   0.000000
    616          6.267231   0.000000
