Na96 Sb12 S48
1.0
  12.6241607919947629    0.0000000000000000    0.0000000000000008
   4.2080535973315847   11.9021729370784435    0.0000000000000008
   0.0000000000000000    0.0000000000000000   28.1894465012493889
Na Sb S
96 12 48
direct
   0.0624999999999999    0.0208333333333337    0.9222208810148480 Na
   0.3124999999999997    0.1041666666666672    0.9222208810148480 Na
   0.5624999999999999    0.1875000000000002    0.9222208810148480 Na
   0.8125000000000000    0.2708333333333341    0.9222208810148476 Na
   0.0624999999999998    0.3541666666666670    0.9222208810148480 Na
   0.3124999999999998    0.4375000000000009    0.9222208810148476 Na
   0.5624999999999999    0.5208333333333339    0.9222208810148476 Na
   0.8124999999999998    0.6041666666666672    0.9222208810148478 Na
   0.0624999999999998    0.6875000000000009    0.9222208810148478 Na
   0.3124999999999998    0.7708333333333339    0.9222208810148478 Na
   0.5624999999999997    0.8541666666666667    0.9222208810148480 Na
   0.8124999999999997    0.9375000000000002    0.9222208810148478 Na
   0.0624999999999999    0.6875000000000004    0.5000000000000001 Na
   0.3124999999999999    0.7708333333333333    0.5000000000000002 Na
   0.5624999999999999    0.8541666666666670    0.5000000000000000 Na
   0.8124999999999999    0.9375000000000002    0.5000000000000001 Na
   0.0624999999999998    0.0208333333333335    0.5000000000000000 Na
   0.3124999999999998    0.1041666666666670    0.5000000000000001 Na
   0.5624999999999999    0.1875000000000000    0.5000000000000001 Na
   0.8124999999999998    0.2708333333333335    0.5000000000000000 Na
   0.0624999999999998    0.3541666666666666    0.5000000000000002 Na
   0.3124999999999999    0.4375000000000001    0.5000000000000001 Na
   0.5624999999999997    0.5208333333333335    0.5000000000000000 Na
   0.8124999999999998    0.6041666666666665    0.5000000000000001 Na
   0.0624999999999999    0.5208333333333337    0.6055552202537120 Na
   0.3124999999999998    0.6041666666666672    0.6055552202537119 Na
   0.5624999999999999    0.6875000000000004    0.6055552202537119 Na
   0.8125000000000000    0.7708333333333337    0.6055552202537119 Na
   0.0624999999999999    0.8541666666666670    0.6055552202537120 Na
   0.3124999999999998    0.9375000000000002    0.6055552202537120 Na
   0.5624999999999999    0.0208333333333339    0.6055552202537118 Na
   0.8124999999999998    0.1041666666666673    0.6055552202537119 Na
   0.0624999999999998    0.1875000000000007    0.6055552202537119 Na
   0.3124999999999998    0.2708333333333338    0.6055552202537119 Na
   0.5624999999999997    0.3541666666666669    0.6055552202537120 Na
   0.8124999999999997    0.4375000000000004    0.6055552202537118 Na
   0.0624999999999999    0.3541666666666670    0.7111104405074240 Na
   0.3124999999999998    0.4375000000000002    0.7111104405074240 Na
   0.5624999999999999    0.5208333333333337    0.7111104405074240 Na
   0.8124999999999999    0.6041666666666672    0.7111104405074239 Na
   0.0624999999999998    0.6875000000000004    0.7111104405074240 Na
   0.3124999999999998    0.7708333333333337    0.7111104405074239 Na
   0.5624999999999999    0.8541666666666670    0.7111104405074238 Na
   0.8124999999999998    0.9375000000000002    0.7111104405074240 Na
   0.0624999999999998    0.0208333333333337    0.7111104405074239 Na
   0.3124999999999998    0.1041666666666670    0.7111104405074240 Na
   0.5624999999999997    0.1875000000000000    0.7111104405074240 Na
   0.8124999999999997    0.2708333333333337    0.7111104405074238 Na
   0.0624999999999999    0.1875000000000004    0.8166656607611360 Na
   0.3124999999999998    0.2708333333333333    0.8166656607611362 Na
   0.5624999999999999    0.3541666666666670    0.8166656607611362 Na
   0.8124999999999999    0.4375000000000002    0.8166656607611359 Na
   0.0624999999999998    0.5208333333333333    0.8166656607611362 Na
   0.3124999999999999    0.6041666666666667    0.8166656607611359 Na
   0.5624999999999999    0.6875000000000004    0.8166656607611358 Na
   0.8124999999999998    0.7708333333333337    0.8166656607611358 Na
   0.0624999999999998    0.8541666666666672    0.8166656607611359 Na
   0.3124999999999998    0.9375000000000002    0.8166656607611359 Na
   0.5624999999999997    0.0208333333333335    0.8166656607611360 Na
   0.8124999999999996    0.1041666666666669    0.8166656607611360 Na
   0.1681478171265332    0.2571124881751157    0.0150816665067741 Na
   0.1681478171265338    0.7571124881751148    0.0150816665067741 Na
   0.6681478171265338    0.2571124881751152    0.0150816665067741 Na
   0.6681478171265338    0.7571124881751148    0.0150816665067746 Na
   0.6681478171265338    0.7571124881751150    0.3746369183325453 Na
   0.6681478171265336    0.2571124881751152    0.3746369183325453 Na
   0.1681478171265340    0.7571124881751146    0.3746369183325458 Na
   0.1681478171265339    0.2571124881751148    0.3746369183325458 Na
   0.4181478171265334    0.0071124881751152    0.1948592924196597 Na
   0.4181478171265338    0.5071124881751143    0.1948592924196597 Na
   0.9181478171265338    0.0071124881751148    0.1948592924196597 Na
   0.9181478171265340    0.5071124881751143    0.1948592924196602 Na
   0.4181478171265336    0.0071124881751152    0.0150816665067741 Na
   0.4181478171265338    0.5071124881751143    0.0150816665067746 Na
   0.9181478171265338    0.0071124881751148    0.0150816665067746 Na
   0.9181478171265338    0.5071124881751143    0.0150816665067741 Na
   0.9181478171265338    0.5071124881751146    0.3746369183325458 Na
   0.9181478171265338    0.0071124881751148    0.3746369183325458 Na
   0.4181478171265340    0.5071124881751146    0.3746369183325458 Na
   0.4181478171265340    0.0071124881751148    0.3746369183325458 Na
   0.6681478171265338    0.7571124881751150    0.1948592924196597 Na
   0.6681478171265338    0.2571124881751148    0.1948592924196602 Na
   0.1681478171265340    0.7571124881751146    0.1948592924196602 Na
   0.1681478171265338    0.2571124881751148    0.1948592924196597 Na
   0.0431478171265339    0.6321124881751148    0.4645257312889883 Na
   0.0431478171265339    0.1321124881751148    0.4645257312889883 Na
   0.5431478171265340    0.6321124881751148    0.4645257312889883 Na
   0.5431478171265341    0.1321124881751148    0.4645257312889886 Na
   0.7931478171265336    0.8821124881751148    0.2847481053761027 Na
   0.7931478171265338    0.3821124881751148    0.2847481053761027 Na
   0.2931478171265339    0.8821124881751148    0.2847481053761027 Na
   0.2931478171265340    0.3821124881751148    0.2847481053761027 Na
   0.5431478171265336    0.1321124881751152    0.1049704794632169 Na
   0.5431478171265340    0.6321124881751148    0.1049704794632171 Na
   0.0431478171265341    0.1321124881751148    0.1049704794632171 Na
   0.0431478171265339    0.6321124881751148    0.1049704794632174 Na
   0.7931478171265338    0.3821124881751148    0.4645257312889883 Sb
   0.7931478171265338    0.8821124881751148    0.4645257312889883 Sb
   0.2931478171265340    0.3821124881751148    0.4645257312889883 Sb
   0.2931478171265338    0.8821124881751148    0.4645257312889883 Sb
   0.5431478171265336    0.6321124881751150    0.2847481053761027 Sb
   0.5431478171265338    0.1321124881751148    0.2847481053761027 Sb
   0.0431478171265337    0.6321124881751150    0.2847481053761027 Sb
   0.0431478171265339    0.1321124881751148    0.2847481053761027 Sb
   0.2931478171265334    0.8821124881751152    0.1049704794632169 Sb
   0.2931478171265338    0.3821124881751148    0.1049704794632174 Sb
   0.7931478171265338    0.8821124881751148    0.1049704794632174 Sb
   0.7931478171265338    0.3821124881751148    0.1049704794632171 Sb
   0.1040904621265338    0.3821124881751148    0.4645257312889883 S
   0.1040904621265338    0.8821124881751148    0.4645257312889883 S
   0.6040904621265342    0.3821124881751148    0.4645257312889883 S
   0.6040904621265341    0.8821124881751148    0.4645257312889883 S
   0.8540904621265337    0.6321124881751150    0.2847481053761027 S
   0.8540904621265337    0.1321124881751152    0.2847481053761027 S
   0.3540904621265342    0.6321124881751148    0.2847481053761027 S
   0.3540904621265341    0.1321124881751148    0.2847481053761027 S
   0.6040904621265335    0.8821124881751152    0.1049704794632169 S
   0.6040904621265335    0.3821124881751152    0.1049704794632169 S
   0.1040904621265339    0.8821124881751148    0.1049704794632171 S
   0.1040904621265342    0.3821124881751148    0.1049704794632171 S
   0.3876764946265339    0.2875838106751147    0.0369939145766782 S
   0.3876764946265339    0.7875838106751143    0.0369939145766780 S
   0.8876764946265343    0.2875838106751147    0.0369939145766784 S
   0.8876764946265339    0.7875838106751143    0.0369939145766780 S
   0.8876764946265339    0.7875838106751147    0.3965491664024490 S
   0.8876764946265339    0.2875838106751147    0.3965491664024490 S
   0.3876764946265341    0.7875838106751147    0.3965491664024490 S
   0.3876764946265335    0.2875838106751152    0.3965491664024490 S
   0.6376764946265339    0.0375838106751152    0.2167715404895636 S
   0.6376764946265336    0.5375838106751147    0.2167715404895636 S
   0.1376764946265341    0.0375838106751143    0.2167715404895636 S
   0.1376764946265340    0.5375838106751147    0.2167715404895636 S
   0.7931478171265338    0.5711698431751147    0.4645257312889883 S
   0.7931478171265340    0.0711698431751144    0.4645257312889883 S
   0.2931478171265337    0.5711698431751147    0.4645257312889883 S
   0.2931478171265337    0.0711698431751144    0.4645257312889883 S
   0.5431478171265336    0.8211698431751149    0.2847481053761027 S
   0.5431478171265338    0.3211698431751149    0.2847481053761027 S
   0.0431478171265337    0.8211698431751147    0.2847481053761027 S
   0.0431478171265337    0.3211698431751149    0.2847481053761027 S
   0.2931478171265336    0.0711698431751153    0.1049704794632169 S
   0.2931478171265336    0.5711698431751149    0.1049704794632169 S
   0.7931478171265336    0.0711698431751149    0.1049704794632169 S
   0.7931478171265334    0.5711698431751149    0.1049704794632169 S
   0.6376764946265332    0.0375838106751152    0.9931694184368708 S
   0.6376764946265336    0.5375838106751147    0.9931694184368707 S
   0.1376764946265336    0.0375838106751152    0.9931694184368708 S
   0.1376764946265338    0.5375838106751147    0.9931694184368710 S
   0.1376764946265336    0.5375838106751147    0.3527246702626419 S
   0.1376764946265339    0.0375838106751143    0.3527246702626425 S
   0.6376764946265339    0.5375838106751147    0.3527246702626419 S
   0.6376764946265339    0.0375838106751143    0.3527246702626419 S
   0.8876764946265334    0.7875838106751147    0.1729470443497565 S
   0.8876764946265336    0.2875838106751147    0.1729470443497565 S
   0.3876764946265336    0.7875838106751147    0.1729470443497565 S
   0.3876764946265340    0.2875838106751147    0.1729470443497569 S
