Na24 Sb8 S32                            
   1.00000000000000     
    11.7036554800000001    0.0000000000000000   -4.1378687999999997
    -5.8518267200000000   10.1356637599999999   -4.1378687999999997
     0.0000000000000000    0.0000000000000000   12.4136023600000005
   Na   Sb   S 
    24     8    32
Direct
  0.2429003202378070  0.2154297933251013  0.9664907032444211
  0.2601263510937331  0.2218214341453998  0.4950641152306234
  0.2532139576572614  0.8030739210020688  0.0501907878064510
  0.2748482588068383  0.7307826316804195  0.4815544755034303
  0.7711710999036525  0.2409386281637507  0.9713045917952876
  0.7285712229847492  0.2788143180851739  0.4705105570601941
  0.7203714493035438  0.7009719519672022  0.9588219416096075
  0.7777035201363157  0.7269493958765603  0.5166022486438051
  0.9862115334017859  0.2343735079825776  0.2733865329259527
  0.9549013575939476  0.2082428089995102  0.7097834614003069
  0.9672042385024185  0.7721319917428655  0.2059397726100535
  0.9381489723763078  0.6859954233909081  0.7509557651183962
  0.5127551673252068  0.2909430211332131  0.2173912526333187
  0.4535992167005292  0.2048092590055872  0.7352672339009018
  0.5502967359631151  0.7626787801379847  0.3007377071101882
  0.4685532229435324  0.7645321646686577  0.7732955810997005
  0.2547766180371007  0.0076968539027246  0.2769522060514914
  0.2456084057376430  0.9603682778165499  0.7644112584832015
  0.2727838744888373  0.5315214339669129  0.2573103453625736
  0.2377452135262298  0.4623211313459956  0.7573125382171743
  0.7686196812162723  0.0192622751682990  0.2608823123373499
  0.7512722345253910  0.0089077296939523  0.7596543661297063
  0.7585407413325838  0.5258633529083815  0.2144853622664420
  0.6994370557716181  0.4618999806925517  0.7227023342351847
  0.9872940314443180  0.9718069440548830  0.9914983278544292
  0.9919297716522844  0.9926075318771009  0.4922222847327081
  0.0179013319442565  0.5207611876419795  0.0016236162880532
  0.0114044705423438  0.5109161716265863  0.4984387951818307
  0.5263036463225249  0.0227095375300733  0.0173111766502095
  0.5027761561188336  0.0032962918682075  0.5086100887326160
  0.4877062975279537  0.4827561092632975  0.9968515483660825
  0.4899276022645820  0.5175011266022070  0.5010440969602943
  0.0204038443649613  0.0325004880267976  0.3208775773880196
  0.9971566722382020  0.9593549217715953  0.8020491174001272
  0.0068467228351842  0.4807046146820806  0.2971015440225575
  0.0035535333541154  0.4890114337891032  0.8002228964280965
  0.5117000788068914  0.9631341719831994  0.3142395592734984
  0.5295223746278186  0.0157472680639341  0.8245062343781389
  0.4790942842680915  0.4949187489274848  0.2982072611273686
  0.4715254800432497  0.4651912911798482  0.7863053354090638
  0.1729662839662429  0.1655303869203947  0.1699275980621681
  0.1816944904766629  0.1721422478005971  0.6919754382640003
  0.1967569827266172  0.7064448689580806  0.2099314225604752
  0.1910125495063801  0.7084604148190068  0.6924061802360522
  0.7237593827725471  0.2372988855472787  0.1905951666938784
  0.6671429067678204  0.2074773614896714  0.7011447166587010
  0.6834601049752170  0.6882780942297216  0.1906905417227703
  0.6842590216801157  0.7147520726511172  0.6953436435223009
  0.3346401330220951  0.0293129809535017  0.0245216550747672
  0.3010312975377590  0.9906162743988467  0.5036416316812370
  0.2897689889633237  0.4569539886755777  0.0036233924952003
  0.3064741148985200  0.5147375134825912  0.5028565141448283
  0.8273128748557512  0.0442911224268100  0.0239246686938797
  0.8023430544946090  0.9953171714154010  0.4859785953389213
  0.8222188806400612  0.4892172565651026  0.0037175219660963
  0.8207222665068613  0.4995300642958052  0.5022109768013550
  0.0216005693086715  0.3361851225795948  0.0024840642302319
  0.0172891299406121  0.3451517772053935  0.5352022486998513
  0.9664034205983705  0.7877225478033528  0.0071390506212144
  0.9974250629952249  0.7941383746219363  0.4539697369472384
  0.5032352417322721  0.2845051096431276  0.9755065931351778
  0.4802707811475102  0.3103998076406981  0.4703489178235081
  0.5051305785968769  0.8318983058124395  0.0197728111817629
  0.5334045864095824  0.8330128976400724  0.5488646907330822
 
 -0.43893749E-03  0.26502357E-02  0.41829693E-02
  0.10685409E-01  0.13279228E-02 -0.32805970E-02
 -0.64196008E-02  0.75564579E-03  0.11095505E-01
  0.10947064E-01 -0.19614491E-02 -0.49318239E-02
  0.54819271E-02  0.42379409E-02 -0.49592515E-02
  0.10711540E-02 -0.40318987E-02  0.46345676E-02
  0.62271553E-02 -0.22317378E-02 -0.24155701E-02
 -0.18836973E-02 -0.51784406E-02 -0.98606177E-02
  0.46660143E-02  0.51606262E-02  0.33941930E-02
  0.28203553E-02  0.84822469E-02  0.36279085E-02
  0.10550594E-02 -0.14754774E-01  0.18227930E-02
 -0.13435364E-02 -0.19523151E-02 -0.86009053E-02
  0.44927232E-03  0.56710831E-02  0.13696012E-02
  0.24887962E-02  0.83752284E-02 -0.37063708E-02
 -0.11915814E-02 -0.82151458E-02 -0.43495428E-02
 -0.27814756E-02 -0.48318661E-02  0.24355228E-02
  0.81380647E-02 -0.11225592E-02  0.41894798E-02
  0.20882484E-02  0.29012525E-02  0.28908373E-03
 -0.46064220E-02 -0.21388286E-02 -0.88962312E-02
  0.24145038E-02  0.75444550E-02 -0.11702376E-02
 -0.25680508E-02 -0.61553382E-02 -0.25492686E-02
  0.20859119E-02  0.46056448E-02  0.58753459E-02
 -0.45537630E-02 -0.19502630E-02 -0.28097922E-02
  0.56141324E-02  0.37293569E-02  0.11276397E-01
 -0.15912435E-02 -0.31939651E-03 -0.21171266E-02
  0.11774742E-02 -0.65563152E-03  0.33355538E-02
 -0.86677947E-03 -0.21072206E-02  0.15945126E-02
  0.12192919E-02 -0.67445459E-03  0.25369106E-02
  0.31228884E-02  0.58400756E-03 -0.15691780E-02
  0.24325960E-02 -0.56002996E-03 -0.28104490E-02
 -0.20197896E-02  0.24505415E-02 -0.25147102E-02
  0.77811466E-03  0.56367184E-03  0.32844145E-02
 -0.54506939E-02  0.90884143E-03  0.80001307E-03
 -0.96957640E-02 -0.27101463E-02  0.15072210E-02
  0.10737537E-01 -0.23413997E-02  0.71100476E-02
  0.47494513E-02  0.41048861E-02 -0.19532575E-03
 -0.61773997E-02 -0.23611783E-02  0.36254051E-02
  0.49600559E-02  0.14745527E-02 -0.11722529E-03
  0.24345721E-02 -0.19476550E-02 -0.55996847E-02
 -0.31083441E-03 -0.14968714E-01  0.28840585E-02
 -0.12334806E-01  0.48414693E-02 -0.52993495E-02
 -0.13197082E-02 -0.57100577E-02  0.56056719E-02
 -0.42389916E-02 -0.29898325E-02  0.51495737E-02
 -0.16472812E-01  0.27477043E-03  0.28285133E-02
  0.99320186E-03 -0.95476387E-04 -0.44948147E-02
 -0.53933143E-02 -0.59438346E-02  0.34179604E-02
  0.20782370E-02  0.11607206E-01 -0.36608859E-02
  0.50250295E-02  0.41567622E-02  0.34206134E-02
  0.59357391E-02 -0.66212436E-02 -0.37279523E-02
 -0.36611904E-02  0.84272334E-03 -0.98663709E-03
 -0.22758034E-02 -0.57040553E-03  0.21504246E-02
  0.18824523E-02  0.32007045E-02 -0.55015886E-02
  0.10283642E-02  0.21628179E-02  0.32011537E-02
 -0.22110780E-02  0.20631386E-02 -0.50656609E-02
 -0.75007870E-02  0.88081005E-02 -0.47781167E-02
 -0.42867298E-02  0.39984106E-02 -0.50132240E-04
 -0.52864093E-02 -0.21905485E-02 -0.70809463E-02
  0.28923431E-03 -0.34678486E-02 -0.66359522E-02
  0.23240127E-02 -0.47449451E-03  0.56700108E-02
 -0.63256006E-03  0.14574115E-02 -0.38270102E-02
 -0.38359312E-02  0.12819131E-02  0.16329493E-02
 -0.41351265E-03  0.17779929E-02  0.11105540E-02
  0.39381468E-03  0.30179189E-02 -0.16484878E-02
  0.35221745E-02 -0.15161653E-02  0.43417225E-02
 
           1
   2.00000000000000     
  0.30843068E+01  0.23920665E-01  0.16885184E-17  0.00000000E+00
  0.24308679E+00  0.21595275E+00  0.96740111E+00
  0.26208336E+00  0.22208346E+00  0.49527525E+00
  0.25219149E+00  0.80322303E+00  0.51687303E-01
  0.27652545E+00  0.73039559E+00  0.48118994E+00
  0.77252601E+00  0.24177487E+00  0.97123597E+00
  0.72835648E+00  0.27801873E+00  0.47092047E+00
  0.72121540E+00  0.70053158E+00  0.95856729E+00
  0.77687071E+00  0.72592757E+00  0.51439536E+00
  0.98751805E+00  0.23539182E+00  0.27470833E+00
  0.95622019E+00  0.20991655E+00  0.71136549E+00
  0.96592881E+00  0.76922053E+00  0.20483782E+00
  0.93772676E+00  0.68561019E+00  0.74930089E+00
  0.51339146E+00  0.29206206E+00  0.21819702E+00
  0.45485083E+00  0.20646188E+00  0.73563817E+00
  0.54928259E+00  0.76105774E+00  0.29915854E+00
  0.46760119E+00  0.76357873E+00  0.77305282E+00
  0.25605655E+00  0.74753471E-02  0.27798000E+00
  0.24625150E+00  0.96094076E+00  0.76486303E+00
  0.27178568E+00  0.53109939E+00  0.25540363E+00
  0.23890217E+00  0.46380983E+00  0.75800588E+00
  0.76757354E+00  0.18047685E-01  0.25971801E+00
  0.75208309E+00  0.98165295E-02  0.76117418E+00
  0.75757015E+00  0.52547852E+00  0.21358086E+00
  0.70076438E+00  0.46263587E+00  0.72520685E+00
  0.98699060E+00  0.97174392E+00  0.99103508E+00
  0.99206630E+00  0.99247816E+00  0.49276207E+00
  0.17545309E-01  0.52034538E+00  0.16232386E-02
  0.11546289E-01  0.51078309E+00  0.49885044E+00
  0.52689493E+00  0.22824776E-01  0.17293867E-01
  0.50313660E+00  0.31857851E-02  0.50824060E+00
  0.48760292E+00  0.48323966E+00  0.99657312E+00
  0.49011618E+00  0.51761235E+00  0.50167320E+00
  0.19562061E-01  0.32679823E-01  0.32078565E+00
  0.99523241E+00  0.95882015E+00  0.80147227E+00
  0.84506200E-02  0.48024260E+00  0.29862770E+00
  0.47701460E-02  0.48982142E+00  0.80086696E+00
  0.51041149E+00  0.96266826E+00  0.31423883E+00
  0.53051546E+00  0.16038231E-01  0.82491537E+00
  0.47931816E+00  0.49453443E+00  0.29725160E+00
  0.46999553E+00  0.46223762E+00  0.78527545E+00
  0.17133610E+00  0.16648572E+00  0.16884885E+00
  0.18090561E+00  0.17101552E+00  0.69224005E+00
  0.19573761E+00  0.70585491E+00  0.21022464E+00
  0.18822467E+00  0.70851463E+00  0.69195067E+00
  0.72391969E+00  0.23728005E+00  0.18991815E+00
  0.66563483E+00  0.20630451E+00  0.70080175E+00
  0.68496043E+00  0.69056846E+00  0.19136429E+00
  0.68552785E+00  0.71557230E+00  0.69659110E+00
  0.33500121E+00  0.28006457E-01  0.23605882E-01
  0.30048879E+00  0.99078256E+00  0.50335727E+00
  0.28932381E+00  0.45684143E+00  0.37839431E-02
  0.30711159E+00  0.51536909E+00  0.50239315E+00
  0.82770200E+00  0.44717896E-01  0.24712383E-01
  0.80216876E+00  0.99572428E+00  0.48524005E+00
  0.82180612E+00  0.49095530E+00  0.33894613E-02
  0.82038421E+00  0.50031904E+00  0.50235321E+00
  0.20481069E-01  0.33575288E+00  0.82597876E-03
  0.16996413E-01  0.34446749E+00  0.53380744E+00
  0.96675375E+00  0.78762892E+00  0.81381331E-02
  0.99746076E+00  0.79442596E+00  0.45346091E+00
  0.50270621E+00  0.28475806E+00  0.97567766E+00
  0.48037554E+00  0.31075065E+00  0.47067971E+00
  0.50549563E+00  0.83249381E+00  0.19827403E-01
  0.53385689E+00  0.83271372E+00  0.54961525E+00
  0.20715412E-03  0.54625150E-03  0.91156765E-03
  0.19343916E-02  0.21113886E-03  0.16764433E-03
 -0.10478320E-02  0.16320110E-03  0.15227640E-02
  0.17215621E-02 -0.39348777E-03 -0.37379135E-03
  0.13553716E-02  0.81842468E-03 -0.10221082E-03
 -0.17559502E-03 -0.68991005E-03  0.42930427E-03
  0.88964907E-03 -0.44412152E-03 -0.24922854E-03
 -0.84236653E-03 -0.10307224E-02 -0.22072514E-02
  0.12685669E-02  0.98365331E-03  0.13150596E-02
  0.12733295E-02  0.15980284E-02  0.15150466E-02
 -0.12967184E-02 -0.29023417E-02 -0.11671157E-02
 -0.46790154E-03 -0.41475781E-03 -0.16839770E-02
  0.63021563E-03  0.11420952E-02  0.79797941E-03
  0.12372162E-02  0.16348120E-02  0.36262365E-03
 -0.99462819E-03 -0.15988057E-02 -0.15809612E-02
 -0.95039825E-03 -0.92103605E-03 -0.20141891E-03
  0.12842534E-02 -0.23334100E-03  0.10461140E-02
  0.66725090E-03  0.57721004E-03  0.48856028E-03
 -0.95874911E-03 -0.38346799E-03 -0.18801501E-02
  0.11532218E-02  0.14719698E-02  0.67336998E-03
 -0.10284326E-02 -0.12039642E-02 -0.11461487E-02
  0.77566837E-03  0.89825115E-03  0.14810715E-02
 -0.10220477E-02 -0.34203237E-03 -0.93163162E-03
  0.13343687E-02  0.75739301E-03  0.24950104E-02
 -0.29610089E-03 -0.97737811E-04 -0.47432534E-03
  0.12333886E-03 -0.12804895E-03  0.54680085E-03
 -0.35852411E-03 -0.41517785E-03 -0.49083734E-05
  0.13223116E-03 -0.15365013E-03  0.41222251E-03
  0.58960362E-03  0.93031749E-04 -0.25354077E-04
  0.36604243E-03 -0.10412622E-03 -0.37804282E-03
 -0.10239736E-03  0.49216581E-03 -0.27297348E-03
  0.17724143E-03  0.11837947E-03  0.63431624E-03
 -0.80495171E-03  0.20508436E-03 -0.97485033E-04
 -0.19198341E-02 -0.52788643E-03 -0.55511810E-03
  0.16054584E-02 -0.48661934E-03  0.14934344E-02
  0.12155723E-02  0.77790763E-03  0.64727051E-03
 -0.12864313E-02 -0.51789946E-03  0.81036343E-05
  0.10409903E-02  0.31085725E-03  0.41497137E-03
  0.19088641E-03 -0.44141193E-03 -0.99980330E-03
 -0.15584448E-02 -0.29943745E-02 -0.10834194E-02
 -0.16820886E-02  0.94694851E-03 -0.11101806E-02
 -0.77721341E-03 -0.11231140E-02  0.26824254E-03
 -0.10118590E-02 -0.59982030E-03  0.31845579E-03
 -0.28006091E-02  0.64015052E-04 -0.44868449E-03
  0.20364950E-03  0.53626811E-04 -0.66125995E-03
 -0.15443551E-02 -0.11822806E-02 -0.33345391E-03
  0.15393719E-02  0.23255747E-02  0.74324828E-03
  0.12934440E-02  0.88243394E-03  0.12734141E-02
  0.34729185E-03 -0.13044968E-02 -0.92502947E-03
 -0.56317355E-03  0.19064731E-03 -0.25183119E-03
 -0.48099621E-03 -0.13518717E-03  0.17055841E-03
  0.68241370E-03  0.64298893E-03 -0.46288807E-03
  0.38719701E-03  0.50814728E-03  0.84926788E-03
 -0.15074526E-03  0.43791410E-03 -0.72219320E-03
 -0.37387669E-03  0.17209758E-02 -0.31209627E-03
 -0.30256460E-03  0.72672415E-03  0.16418316E-03
 -0.11368986E-02 -0.38738308E-03 -0.16654461E-02
 -0.26348944E-03 -0.58314370E-03 -0.13691305E-02
  0.33826041E-03 -0.38162003E-04  0.10381339E-02
  0.54473313E-04  0.27714686E-03 -0.52252706E-03
 -0.54337269E-03  0.16500778E-03  0.11479453E-03
  0.75563859E-04  0.32697408E-03  0.30799309E-03
  0.35613549E-03  0.63015363E-03  0.34335027E-04
  0.49161972E-03 -0.30559323E-03  0.80603131E-03
  0.00000000E+00  0.00000000E+00  0.00000000E+00
  0.00000000E+00  0.00000000E+00  0.00000000E+00
  0.00000000E+00  0.00000000E+00  0.00000000E+00
  0.00000000E+00  0.00000000E+00  0.00000000E+00
  0.00000000E+00  0.00000000E+00  0.00000000E+00
  0.00000000E+00  0.00000000E+00  0.00000000E+00
  0.00000000E+00  0.00000000E+00  0.00000000E+00
  0.00000000E+00  0.00000000E+00  0.00000000E+00
  0.00000000E+00  0.00000000E+00  0.00000000E+00
  0.00000000E+00  0.00000000E+00  0.00000000E+00
  0.00000000E+00  0.00000000E+00  0.00000000E+00
  0.00000000E+00  0.00000000E+00  0.00000000E+00
  0.00000000E+00  0.00000000E+00  0.00000000E+00
  0.00000000E+00  0.00000000E+00  0.00000000E+00
  0.00000000E+00  0.00000000E+00  0.00000000E+00
  0.00000000E+00  0.00000000E+00  0.00000000E+00
  0.00000000E+00  0.00000000E+00  0.00000000E+00
  0.00000000E+00  0.00000000E+00  0.00000000E+00
  0.00000000E+00  0.00000000E+00  0.00000000E+00
  0.00000000E+00  0.00000000E+00  0.00000000E+00
  0.00000000E+00  0.00000000E+00  0.00000000E+00
  0.00000000E+00  0.00000000E+00  0.00000000E+00
  0.00000000E+00  0.00000000E+00  0.00000000E+00
  0.00000000E+00  0.00000000E+00  0.00000000E+00
  0.00000000E+00  0.00000000E+00  0.00000000E+00
  0.00000000E+00  0.00000000E+00  0.00000000E+00
  0.00000000E+00  0.00000000E+00  0.00000000E+00
  0.00000000E+00  0.00000000E+00  0.00000000E+00
  0.00000000E+00  0.00000000E+00  0.00000000E+00
  0.00000000E+00  0.00000000E+00  0.00000000E+00
  0.00000000E+00  0.00000000E+00  0.00000000E+00
  0.00000000E+00  0.00000000E+00  0.00000000E+00
  0.00000000E+00  0.00000000E+00  0.00000000E+00
  0.00000000E+00  0.00000000E+00  0.00000000E+00
  0.00000000E+00  0.00000000E+00  0.00000000E+00
  0.00000000E+00  0.00000000E+00  0.00000000E+00
  0.00000000E+00  0.00000000E+00  0.00000000E+00
  0.00000000E+00  0.00000000E+00  0.00000000E+00
  0.00000000E+00  0.00000000E+00  0.00000000E+00
  0.00000000E+00  0.00000000E+00  0.00000000E+00
  0.00000000E+00  0.00000000E+00  0.00000000E+00
  0.00000000E+00  0.00000000E+00  0.00000000E+00
  0.00000000E+00  0.00000000E+00  0.00000000E+00
  0.00000000E+00  0.00000000E+00  0.00000000E+00
  0.00000000E+00  0.00000000E+00  0.00000000E+00
  0.00000000E+00  0.00000000E+00  0.00000000E+00
  0.00000000E+00  0.00000000E+00  0.00000000E+00
  0.00000000E+00  0.00000000E+00  0.00000000E+00
  0.00000000E+00  0.00000000E+00  0.00000000E+00
  0.00000000E+00  0.00000000E+00  0.00000000E+00
  0.00000000E+00  0.00000000E+00  0.00000000E+00
  0.00000000E+00  0.00000000E+00  0.00000000E+00
  0.00000000E+00  0.00000000E+00  0.00000000E+00
  0.00000000E+00  0.00000000E+00  0.00000000E+00
  0.00000000E+00  0.00000000E+00  0.00000000E+00
  0.00000000E+00  0.00000000E+00  0.00000000E+00
  0.00000000E+00  0.00000000E+00  0.00000000E+00
  0.00000000E+00  0.00000000E+00  0.00000000E+00
  0.00000000E+00  0.00000000E+00  0.00000000E+00
  0.00000000E+00  0.00000000E+00  0.00000000E+00
  0.00000000E+00  0.00000000E+00  0.00000000E+00
  0.00000000E+00  0.00000000E+00  0.00000000E+00
  0.00000000E+00  0.00000000E+00  0.00000000E+00
  0.00000000E+00  0.00000000E+00  0.00000000E+00
