       N       E                     dE             d eps       ncg     rms          rms(c)
DAV:   1     0.404447086114E+04    0.40445E+04   -0.17461E+05  4240   0.148E+03
DAV:   2     0.349268035935E+03   -0.36952E+04   -0.34878E+04  4688   0.382E+02
DAV:   3    -0.215857427134E+03   -0.56513E+03   -0.55364E+03  5240   0.163E+02
DAV:   4    -0.250961228575E+03   -0.35104E+02   -0.34638E+02  5096   0.386E+01
DAV:   5    -0.252460160991E+03   -0.14989E+01   -0.14953E+01  5680   0.840E+00    0.414E+01
RMM:   6    -0.241824917269E+03    0.10635E+02   -0.27563E+01  4239   0.911E+00    0.249E+01
RMM:   7    -0.244336648208E+03   -0.25117E+01   -0.96037E+00  4246   0.559E+00    0.161E+01
RMM:   8    -0.245399588173E+03   -0.10629E+01   -0.36948E+00  4877   0.335E+00    0.491E+00
RMM:   9    -0.245361887394E+03    0.37701E-01   -0.57775E-01  4969   0.172E+00    0.174E+00
RMM:  10    -0.245390338793E+03   -0.28451E-01   -0.17868E-01  5048   0.858E-01    0.887E-01
RMM:  11    -0.245391482571E+03   -0.11438E-02   -0.33932E-02  4306   0.414E-01    0.642E-01
RMM:  12    -0.245392578232E+03   -0.10957E-02   -0.10376E-02  3619   0.213E-01
      1 T=   799. E= -.23888572E+03 F= -.24539258E+03 E0= -.24539258E+03  EK= 0.65069E+01 SP= 0.00E+00 SK= 0.29E-07 mag=      0.055
       N       E                     dE             d eps       ncg     rms          rms(c)
DAV:   1    -0.245243105296E+03    0.14838E+00   -0.31669E+01  4872   0.979E+00    0.220E+00
RMM:   2    -0.245330115554E+03   -0.87010E-01   -0.98614E-01  5339   0.228E+00    0.473E-01
RMM:   3    -0.245347818996E+03   -0.17703E-01   -0.20011E-01  5206   0.106E+00    0.675E-01
RMM:   4    -0.245347886546E+03   -0.67549E-04   -0.27973E-02  3910   0.412E-01
      2 T=   792. E= -.23889793E+03 F= -.24534789E+03 E0= -.24534789E+03  EK= 0.64501E+01 SP= -.19E-03 SK= 0.31E-05 mag=      0.010
       N       E                     dE             d eps       ncg     rms          rms(c)
DAV:   1    -0.245229840158E+03    0.11798E+00   -0.14529E-01  5576   0.239E+00    0.686E-01
RMM:   2    -0.245236745250E+03   -0.69051E-02   -0.89756E-02  4227   0.601E-01    0.454E-01
RMM:   3    -0.245238212351E+03   -0.14671E-02   -0.18630E-02  4898   0.292E-01
      3 T=   778. E= -.23890712E+03 F= -.24523821E+03 E0= -.24523821E+03  EK= 0.63330E+01 SP= -.20E-02 SK= 0.51E-04 mag=     -0.012
       N       E                     dE             d eps       ncg     rms          rms(c)
DAV:   1    -0.245066762885E+03    0.16998E+00   -0.12219E-01  5408   0.190E+00    0.673E-01
RMM:   2    -0.245071093564E+03   -0.43307E-02   -0.82100E-02  4693   0.636E-01    0.326E-01
RMM:   3    -0.245073670518E+03   -0.25770E-02   -0.30464E-02  5112   0.348E-01
      4 T=   759. E= -.23890472E+03 F= -.24507367E+03 E0= -.24507367E+03  EK= 0.61769E+01 SP= -.83E-02 SK= 0.34E-03 mag=     -0.001
       N       E                     dE             d eps       ncg     rms          rms(c)
DAV:   1    -0.244854735344E+03    0.21636E+00   -0.94356E-02  5744   0.203E+00    0.995E-01
RMM:   2    -0.244859915998E+03   -0.51807E-02   -0.63368E-02  4459   0.538E-01    0.654E-01
RMM:   3    -0.244861530122E+03   -0.16141E-02   -0.19807E-02  4924   0.305E-01
      5 T=   735. E= -.23889858E+03 F= -.24486153E+03 E0= -.24486153E+03  EK= 0.59844E+01 SP= -.23E-01 SK= 0.14E-02 mag=      0.007
       N       E                     dE             d eps       ncg     rms          rms(c)
DAV:   1    -0.244604449449E+03    0.25547E+00   -0.73101E-02  5736   0.191E+00    0.909E-01
RMM:   2    -0.244610383017E+03   -0.59336E-02   -0.56785E-02  4170   0.476E-01    0.369E-01
RMM:   3    -0.244612130441E+03   -0.17474E-02   -0.14983E-02  4580   0.266E-01
      6 T=   708. E= -.23889261E+03 F= -.24461213E+03 E0= -.24461213E+03  EK= 0.57658E+01 SP= -.51E-01 SK= 0.42E-02 mag=      0.003
       N       E                     dE             d eps       ncg     rms          rms(c)
DAV:   1    -0.244332143078E+03    0.27824E+00   -0.51149E-02  5688   0.181E+00    0.956E-01
RMM:   2    -0.244336624767E+03   -0.44817E-02   -0.44623E-02  4328   0.443E-01    0.579E-01
RMM:   3    -0.244338161459E+03   -0.15367E-02   -0.14467E-02  4477   0.251E-01
      7 T=   680. E= -.23888796E+03 F= -.24433816E+03 E0= -.24433816E+03  EK= 0.55364E+01 SP= -.97E-01 SK= 0.11E-01 mag=     -0.002
       N       E                     dE             d eps       ncg     rms          rms(c)
DAV:   1    -0.244046424674E+03    0.29020E+00   -0.54018E-02  5824   0.177E+00    0.486E-01
RMM:   2    -0.244050781847E+03   -0.43572E-02   -0.43825E-02  4345   0.446E-01    0.313E-01
RMM:   3    -0.244052030439E+03   -0.12486E-02   -0.12330E-02  4317   0.220E-01
      8 T=   653. E= -.23888267E+03 F= -.24405203E+03 E0= -.24405203E+03  EK= 0.53139E+01 SP= -.17E+00 SK= 0.23E-01 mag=     -0.002
       N       E                     dE             d eps       ncg     rms          rms(c)
DAV:   1    -0.243760793438E+03    0.28999E+00   -0.55165E-02  5808   0.169E+00    0.627E-01
RMM:   2    -0.243764725225E+03   -0.39318E-02   -0.40010E-02  4482   0.433E-01    0.436E-01
RMM:   3    -0.243765813813E+03   -0.10886E-02   -0.11630E-02  4122   0.223E-01
      9 T=   628. E= -.23887735E+03 F= -.24376581E+03 E0= -.24376581E+03  EK= 0.51129E+01 SP= -.27E+00 SK= 0.43E-01 mag=      0.000
       N       E                     dE             d eps       ncg     rms          rms(c)
DAV:   1    -0.243482531691E+03    0.28219E+00   -0.70753E-02  5920   0.165E+00    0.763E-01
RMM:   2    -0.243486740346E+03   -0.42087E-02   -0.40347E-02  4473   0.405E-01    0.302E-01
RMM:   3    -0.243487833128E+03   -0.10928E-02   -0.10339E-02  3954   0.207E-01
     10 T=   607. E= -.23887252E+03 F= -.24348783E+03 E0= -.24348783E+03  EK= 0.49434E+01 SP= -.40E+00 SK= 0.74E-01 mag=      0.001
       N       E                     dE             d eps       ncg     rms          rms(c)
DAV:   1    -0.243219327560E+03    0.26741E+00   -0.56260E-02  5912   0.163E+00    0.503E-01
RMM:   2    -0.243223348170E+03   -0.40206E-02   -0.37900E-02  4560   0.402E-01    0.285E-01
RMM:   3    -0.243224495930E+03   -0.11478E-02   -0.10391E-02  3912   0.204E-01
     11 T=   591. E= -.23886897E+03 F= -.24322450E+03 E0= -.24322450E+03  EK= 0.48134E+01 SP= -.58E+00 SK= 0.12E+00 mag=      0.000
       N       E                     dE             d eps       ncg     rms          rms(c)
DAV:   1    -0.242973339385E+03    0.25001E+00   -0.53829E-02  5904   0.160E+00    0.295E-01
RMM:   2    -0.242977128176E+03   -0.37888E-02   -0.37298E-02  4564   0.387E-01    0.313E-01
RMM:   3    -0.242977998710E+03   -0.87053E-03   -0.89278E-03  3689   0.183E-01
     12 T=   581. E= -.23886611E+03 F= -.24297800E+03 E0= -.24297800E+03  EK= 0.47275E+01 SP= -.79E+00 SK= 0.17E+00 mag=     -0.001
       N       E                     dE             d eps       ncg     rms          rms(c)
DAV:   1    -0.242741761124E+03    0.23537E+00   -0.55147E-02  5808   0.159E+00    0.539E-01
RMM:   2    -0.242745505336E+03   -0.37442E-02   -0.37606E-02  4723   0.374E-01    0.512E-01
RMM:   3    -0.242746171462E+03   -0.66613E-03   -0.73538E-03  3337   0.174E-01
     13 T=   575. E= -.23886348E+03 F= -.24274617E+03 E0= -.24274617E+03  EK= 0.46859E+01 SP= -.11E+01 SK= 0.25E+00 mag=      0.000
       N       E                     dE             d eps       ncg     rms          rms(c)
DAV:   1    -0.242520597069E+03    0.22491E+00   -0.56832E-02  5944   0.161E+00    0.156E+00
RMM:   2    -0.242523991977E+03   -0.33949E-02   -0.37180E-02  4754   0.376E-01    0.697E-01
RMM:   3    -0.242524498522E+03   -0.50654E-03   -0.76311E-03  3322   0.180E-01
     14 T=   575. E= -.23886209E+03 F= -.24252450E+03 E0= -.24252450E+03  EK= 0.46850E+01 SP= -.14E+01 SK= 0.33E+00 mag=      0.000
       N       E                     dE             d eps       ncg     rms          rms(c)
DAV:   1    -0.242301774369E+03    0.22222E+00   -0.53767E-02  5856   0.163E+00    0.340E-01
RMM:   2    -0.242305679601E+03   -0.39052E-02   -0.39188E-02  4832   0.389E-01    0.333E-01
RMM:   3    -0.242306401710E+03   -0.72211E-03   -0.76194E-03  3365   0.177E-01
     15 T=   580. E= -.23886146E+03 F= -.24230640E+03 E0= -.24230640E+03  EK= 0.47203E+01 SP= -.17E+01 SK= 0.43E+00 mag=     -0.001
       N       E                     dE             d eps       ncg     rms          rms(c)
DAV:   1    -0.242081171846E+03    0.22451E+00   -0.45541E-02  5720   0.164E+00    0.114E+00
RMM:   2    -0.242083651998E+03   -0.24802E-02   -0.33925E-02  4750   0.372E-01    0.889E-01
RMM:   3    -0.242083652955E+03   -0.95708E-06   -0.93692E-03  3351   0.208E-01
     16 T=   588. E= -.23885836E+03 F= -.24208365E+03 E0= -.24208365E+03  EK= 0.47886E+01 SP= -.21E+01 SK= 0.54E+00 mag=      0.000
       N       E                     dE             d eps       ncg     rms          rms(c)
DAV:   1    -0.241850694286E+03    0.23296E+00   -0.53895E-02  5832   0.164E+00    0.203E+00
RMM:   2    -0.241850680529E+03    0.13758E-04   -0.41254E-02  4556   0.412E-01    0.974E-01
RMM:   3    -0.241850649450E+03    0.31079E-04   -0.15678E-02  4138   0.243E-01
     17 T=   599. E= -.23885818E+03 F= -.24185065E+03 E0= -.24185065E+03  EK= 0.48802E+01 SP= -.25E+01 SK= 0.65E+00 mag=      0.000
       N       E                     dE             d eps       ncg     rms          rms(c)
DAV:   1    -0.241597809238E+03    0.25287E+00   -0.58196E-02  5712   0.176E+00    0.354E-01
RMM:   2    -0.241600207292E+03   -0.23981E-02   -0.50612E-02  4272   0.508E-01    0.396E-01
RMM:   3    -0.241601197528E+03   -0.99024E-03   -0.14088E-02  4415   0.240E-01
     18 T=   613. E= -.23886059E+03 F= -.24160120E+03 E0= -.24160120E+03  EK= 0.49900E+01 SP= -.30E+01 SK= 0.76E+00 mag=     -0.001
       N       E                     dE             d eps       ncg     rms          rms(c)
DAV:   1    -0.241328011472E+03    0.27220E+00   -0.54450E-02  5720   0.169E+00    0.131E+00
RMM:   2    -0.241330592913E+03   -0.25814E-02   -0.39280E-02  4369   0.437E-01    0.981E-01
RMM:   3    -0.241330487212E+03    0.10570E-03   -0.17391E-02  4213   0.299E-01
     19 T=   629. E= -.23885519E+03 F= -.24133049E+03 E0= -.24133049E+03  EK= 0.51244E+01 SP= -.35E+01 SK= 0.88E+00 mag=      0.000
       N       E                     dE             d eps       ncg     rms          rms(c)
DAV:   1    -0.241040191233E+03    0.29040E+00   -0.67823E-02  5608   0.175E+00    0.223E+00
RMM:   2    -0.241039240311E+03    0.95092E-03   -0.56319E-02  4396   0.471E-01    0.100E+00
RMM:   3    -0.241039040192E+03    0.20012E-03   -0.27943E-02  4515   0.355E-01
     20 T=   648. E= -.23885266E+03 F= -.24103904E+03 E0= -.24103904E+03  EK= 0.52738E+01 SP= -.41E+01 SK= 0.99E+00 mag=      0.000
       N       E                     dE             d eps       ncg     rms          rms(c)
DAV:   1    -0.240723972334E+03    0.31527E+00   -0.10809E-01  5240   0.199E+00    0.524E-01
RMM:   2    -0.240727257437E+03   -0.32851E-02   -0.74829E-02  4348   0.576E-01    0.393E-01
RMM:   3    -0.240728712978E+03   -0.14555E-02   -0.22216E-02  4835   0.307E-01
     21 T=   668. E= -.23885684E+03 F= -.24072871E+03 E0= -.24072871E+03  EK= 0.54359E+01 SP= -.47E+01 SK= 0.11E+01 mag=     -0.000
       N       E                     dE             d eps       ncg     rms          rms(c)
DAV:   1    -0.240391255674E+03    0.33600E+00   -0.86250E-02  5512   0.187E+00    0.124E+00
RMM:   2    -0.240395789842E+03   -0.45342E-02   -0.58072E-02  4439   0.492E-01    0.104E+00
RMM:   3    -0.240396456613E+03   -0.66677E-03   -0.21597E-02  4543   0.327E-01
     22 T=   691. E= -.23885121E+03 F= -.24039646E+03 E0= -.24039646E+03  EK= 0.56239E+01 SP= -.53E+01 SK= 0.12E+01 mag=      0.000
       N       E                     dE             d eps       ncg     rms          rms(c)
DAV:   1    -0.240051313151E+03    0.34448E+00   -0.79547E-02  5616   0.183E+00    0.260E+00
RMM:   2    -0.240049243525E+03    0.20696E-02   -0.66727E-02  4376   0.507E-01    0.119E+00
RMM:   3    -0.240048691702E+03    0.55182E-03   -0.33148E-02  4556   0.373E-01    0.422E-01
RMM:   4    -0.240050024839E+03   -0.13331E-02   -0.63980E-03  3160   0.193E-01
     23 T=   716. E= -.23884887E+03 F= -.24005002E+03 E0= -.24005002E+03  EK= 0.58321E+01 SP= -.59E+01 SK= 0.13E+01 mag=      0.000
       N       E                     dE             d eps       ncg     rms          rms(c)
DAV:   1    -0.239685508405E+03    0.36318E+00   -0.88659E-02  5936   0.199E+00    0.560E-01
RMM:   2    -0.239689018304E+03   -0.35099E-02   -0.56013E-02  4391   0.476E-01    0.557E-01
RMM:   3    -0.239690746881E+03   -0.17286E-02   -0.16252E-02  4583   0.267E-01
     24 T=   744. E= -.23884882E+03 F= -.23969075E+03 E0= -.23969075E+03  EK= 0.60616E+01 SP= -.65E+01 SK= 0.13E+01 mag=     -0.000
       N       E                     dE             d eps       ncg     rms          rms(c)
DAV:   1    -0.239316931732E+03    0.37209E+00   -0.75763E-02  5856   0.184E+00    0.152E+00
RMM:   2    -0.239321038697E+03   -0.41070E-02   -0.44374E-02  4673   0.455E-01    0.113E+00
RMM:   3    -0.239316356153E+03    0.46825E-02   -0.31617E-02  3743   0.513E-01    0.269E-01
RMM:   4    -0.239322218411E+03   -0.58623E-02   -0.11653E-02  3515   0.340E-01    0.113E-01
RMM:   5    -0.239322220156E+03   -0.17446E-05   -0.20600E-03  2544   0.126E-01
     25 T=   776. E= -.23884529E+03 F= -.23932222E+03 E0= -.23932222E+03  EK= 0.63200E+01 SP= -.72E+01 SK= 0.14E+01 mag=     -0.000
       N       E                     dE             d eps       ncg     rms          rms(c)
DAV:   1    -0.238946608286E+03    0.37561E+00   -0.48319E-02  5888   0.181E+00    0.215E+00
RMM:   2    -0.238948919125E+03   -0.23108E-02   -0.50643E-02  4850   0.442E-01    0.106E+00
RMM:   3    -0.238948633917E+03    0.28521E-03   -0.15107E-02  4031   0.264E-01
     26 T=   811. E= -.23884379E+03 F= -.23894863E+03 E0= -.23894863E+03  EK= 0.66033E+01 SP= -.79E+01 SK= 0.14E+01 mag=      0.000
       N       E                     dE             d eps       ncg     rms          rms(c)
DAV:   1    -0.238569260392E+03    0.37966E+00   -0.92712E-02  5888   0.200E+00    0.240E-01
RMM:   2    -0.238574105548E+03   -0.48452E-02   -0.52170E-02  4761   0.491E-01    0.307E-01
RMM:   3    -0.238575505057E+03   -0.13995E-02   -0.13137E-02  3957   0.241E-01
     27 T=   849. E= -.23884234E+03 F= -.23857551E+03 E0= -.23857551E+03  EK= 0.69148E+01 SP= -.85E+01 SK= 0.13E+01 mag=     -0.000
       N       E                     dE             d eps       ncg     rms          rms(c)
DAV:   1    -0.238197919242E+03    0.37619E+00   -0.71389E-02  5904   0.198E+00    0.116E+00
RMM:   2    -0.238202608150E+03   -0.46889E-02   -0.49264E-02  4791   0.466E-01    0.948E-01
RMM:   3    -0.238202141033E+03    0.46712E-03   -0.12922E-02  3509   0.325E-01
     28 T=   891. E= -.23883121E+03 F= -.23820214E+03 E0= -.23820214E+03  EK= 0.72581E+01 SP= -.92E+01 SK= 0.13E+01 mag=      0.000
       N       E                     dE             d eps       ncg     rms          rms(c)
DAV:   1    -0.237831109846E+03    0.37150E+00   -0.79747E-02  5792   0.208E+00    0.215E+00
RMM:   2    -0.237835752945E+03   -0.46431E-02   -0.61012E-02  4856   0.526E-01    0.923E-01
RMM:   3    -0.237835899559E+03   -0.14661E-03   -0.19802E-02  4138   0.384E-01
     29 T=   936. E= -.23882200E+03 F= -.23783590E+03 E0= -.23783590E+03  EK= 0.76209E+01 SP= -.98E+01 SK= 0.12E+01 mag=      0.000
       N       E                     dE             d eps       ncg     rms          rms(c)
DAV:   1    -0.237470029354E+03    0.36572E+00   -0.11474E-01  5480   0.226E+00    0.414E-01
RMM:   2    -0.237477975252E+03   -0.79459E-02   -0.79645E-02  4563   0.626E-01    0.404E-01
RMM:   3    -0.237480727374E+03   -0.27521E-02   -0.25324E-02  4874   0.338E-01
     30 T=   981. E= -.23881778E+03 F= -.23748073E+03 E0= -.23748073E+03  EK= 0.79926E+01 SP= -.10E+02 SK= 0.11E+01 mag=     -0.000
       N       E                     dE             d eps       ncg     rms          rms(c)
DAV:   1    -0.237130482085E+03    0.34749E+00   -0.10583E-01  5880   0.224E+00    0.152E+00
RMM:   2    -0.237134786578E+03   -0.43045E-02   -0.57668E-02  4693   0.537E-01    0.116E+00
RMM:   3    -0.237132963260E+03    0.18233E-02   -0.30281E-02  4057   0.492E-01
     31 T=  1029. E= -.23879686E+03 F= -.23713296E+03 E0= -.23713296E+03  EK= 0.83776E+01 SP= -.11E+02 SK= 0.92E+00 mag=      0.000
       N       E                     dE             d eps       ncg     rms          rms(c)
DAV:   1    -0.236808969418E+03    0.32582E+00   -0.12018E-01  5600   0.230E+00    0.291E+00
RMM:   2    -0.236809515277E+03   -0.54586E-03   -0.94015E-02  4869   0.659E-01    0.125E+00
RMM:   3    -0.236808439221E+03    0.10761E-02   -0.42160E-02  4477   0.505E-01    0.357E-01
RMM:   4    -0.236810855699E+03   -0.24165E-02   -0.11521E-02  3992   0.253E-01
     32 T=  1075. E= -.23878569E+03 F= -.23681086E+03 E0= -.23681086E+03  EK= 0.87513E+01 SP= -.11E+02 SK= 0.76E+00 mag=      0.000
       N       E                     dE             d eps       ncg     rms          rms(c)
DAV:   1    -0.236501883959E+03    0.30656E+00   -0.14666E-01  5968   0.249E+00    0.495E-01
RMM:   2    -0.236507603152E+03   -0.57192E-02   -0.70834E-02  4677   0.573E-01    0.491E-01
RMM:   3    -0.236510320131E+03   -0.27170E-02   -0.23690E-02  4796   0.338E-01
     33 T=  1117. E= -.23878007E+03 F= -.23651032E+03 E0= -.23651032E+03  EK= 0.90942E+01 SP= -.12E+02 SK= 0.59E+00 mag=     -0.000
       N       E                     dE             d eps       ncg     rms          rms(c)
DAV:   1    -0.236232993713E+03    0.27461E+00   -0.99184E-02  6048   0.230E+00    0.148E+00
RMM:   2    -0.236238631434E+03   -0.56377E-02   -0.72300E-02  4958   0.568E-01    0.119E+00
RMM:   3    -0.236235810040E+03    0.28214E-02   -0.32461E-02  3892   0.517E-01    0.228E-01
RMM:   4    -0.236239667625E+03   -0.38576E-02   -0.13989E-02  3503   0.384E-01    0.121E-01
RMM:   5    -0.236240095903E+03   -0.42828E-03   -0.19914E-03  2577   0.127E-01
     34 T=  1155. E= -.23877101E+03 F= -.23624010E+03 E0= -.23624010E+03  EK= 0.94040E+01 SP= -.12E+02 SK= 0.42E+00 mag=     -0.000
       N       E                     dE             d eps       ncg     rms          rms(c)
DAV:   1    -0.236004694672E+03    0.23497E+00   -0.90161E-02  6168   0.224E+00    0.224E+00
RMM:   2    -0.236006548200E+03   -0.18535E-02   -0.65799E-02  4987   0.543E-01    0.108E+00
RMM:   3    -0.236006831231E+03   -0.28303E-03   -0.21345E-02  4443   0.286E-01
     35 T=  1187. E= -.23876313E+03 F= -.23600683E+03 E0= -.23600683E+03  EK= 0.96631E+01 SP= -.13E+02 SK= 0.27E+00 mag=      0.000
       N       E                     dE             d eps       ncg     rms          rms(c)
DAV:   1    -0.235809095769E+03    0.19745E+00   -0.76485E-02  6120   0.241E+00    0.277E-01
RMM:   2    -0.235814811425E+03   -0.57157E-02   -0.65156E-02  4961   0.593E-01    0.328E-01
RMM:   3    -0.235816690182E+03   -0.18788E-02   -0.19034E-02  4333   0.297E-01
     36 T=  1212. E= -.23874913E+03 F= -.23581669E+03 E0= -.23581669E+03  EK= 0.98670E+01 SP= -.13E+02 SK= 0.14E+00 mag=     -0.000
       N       E                     dE             d eps       ncg     rms          rms(c)
DAV:   1    -0.235665315814E+03    0.14950E+00   -0.86070E-02  6224   0.238E+00    0.127E+00
RMM:   2    -0.235671570092E+03   -0.62543E-02   -0.61773E-02  4882   0.556E-01    0.979E-01
RMM:   3    -0.235672170654E+03   -0.60056E-03   -0.16358E-02  3968   0.331E-01
     37 T=  1228. E= -.23872821E+03 F= -.23567217E+03 E0= -.23567217E+03  EK= 0.10004E+02 SP= -.13E+02 SK= 0.51E-01 mag=      0.000
       N       E                     dE             d eps       ncg     rms          rms(c)
DAV:   1    -0.235571805980E+03    0.99764E-01   -0.53561E-02  6016   0.237E+00    0.210E+00
RMM:   2    -0.235577030684E+03   -0.52247E-02   -0.62277E-02  4870   0.578E-01    0.984E-01
RMM:   3    -0.235577501034E+03   -0.47035E-03   -0.17951E-02  4021   0.359E-01
     38 T=  1235. E= -.23871099E+03 F= -.23557750E+03 E0= -.23557750E+03  EK= 0.10058E+02 SP= -.13E+02 SK= 0.54E-02 mag=      0.000
       N       E                     dE             d eps       ncg     rms          rms(c)
DAV:   1    -0.235520537926E+03    0.56493E-01   -0.95787E-02  6016   0.247E+00    0.441E-01
RMM:   2    -0.235528039092E+03   -0.75012E-02   -0.72265E-02  4583   0.679E-01    0.353E-01
RMM:   3    -0.235530527003E+03   -0.24879E-02   -0.23563E-02  4954   0.355E-01
     39 T=  1231. E= -.23869401E+03 F= -.23553053E+03 E0= -.23553052E+03  EK= 0.10024E+02 SP= -.13E+02 SK= 0.65E-02 mag=     -0.000
       N       E                     dE             d eps       ncg     rms          rms(c)
DAV:   1    -0.235518067252E+03    0.99718E-02   -0.60526E-02  6024   0.240E+00    0.128E+00
RMM:   2    -0.235523224112E+03   -0.51569E-02   -0.58546E-02  4768   0.578E-01    0.963E-01
RMM:   3    -0.235523771136E+03   -0.54702E-03   -0.24027E-02  4384   0.422E-01
     40 T=  1216. E= -.23867135E+03 F= -.23552377E+03 E0= -.23552377E+03  EK= 0.99046E+01 SP= -.13E+02 SK= 0.53E-01 mag=      0.000
       N       E                     dE             d eps       ncg     rms          rms(c)
DAV:   1    -0.235552707848E+03   -0.29484E-01   -0.80263E-02  6208   0.238E+00    0.219E+00
RMM:   2    -0.235555712001E+03   -0.30042E-02   -0.75010E-02  4847   0.637E-01    0.963E-01
RMM:   3    -0.235555387102E+03    0.32490E-03   -0.25830E-02  4424   0.418E-01
     41 T=  1191. E= -.23865238E+03 F= -.23555539E+03 E0= -.23555539E+03  EK= 0.96963E+01 SP= -.13E+02 SK= 0.14E+00 mag=      0.000
       N       E                     dE             d eps       ncg     rms          rms(c)
DAV:   1    -0.235607143188E+03   -0.51431E-01   -0.11477E-01  5952   0.250E+00    0.490E-01
RMM:   2    -0.235614600662E+03   -0.74575E-02   -0.87724E-02  4590   0.726E-01    0.381E-01
RMM:   3    -0.235617275829E+03   -0.26752E-02   -0.29340E-02  5074   0.388E-01
     42 T=  1155. E= -.23863751E+03 F= -.23561728E+03 E0= -.23561727E+03  EK= 0.94060E+01 SP= -.13E+02 SK= 0.26E+00 mag=     -0.000
       N       E                     dE             d eps       ncg     rms          rms(c)
DAV:   1    -0.235692353678E+03   -0.77753E-01   -0.77443E-02  5928   0.237E+00    0.134E+00
RMM:   2    -0.235696316762E+03   -0.39631E-02   -0.68749E-02  4818   0.595E-01    0.104E+00
RMM:   3    -0.235697089116E+03   -0.77235E-03   -0.27343E-02  4565   0.414E-01
     43 T=  1111. E= -.23861789E+03 F= -.23569709E+03 E0= -.23569709E+03  EK= 0.90501E+01 SP= -.12E+02 SK= 0.39E+00 mag=      0.000
       N       E                     dE             d eps       ncg     rms          rms(c)
DAV:   1    -0.235796139973E+03   -0.99823E-01   -0.71176E-02  6088   0.230E+00    0.239E+00
RMM:   2    -0.235793280674E+03    0.28593E-02   -0.71572E-02  4610   0.618E-01    0.108E+00
RMM:   3    -0.235791674515E+03    0.16062E-02   -0.34833E-02  4357   0.456E-01    0.418E-01
RMM:   4    -0.235793531532E+03   -0.18570E-02   -0.10227E-02  3750   0.228E-01
     44 T=  1061. E= -.23860641E+03 F= -.23579353E+03 E0= -.23579353E+03  EK= 0.86369E+01 SP= -.12E+02 SK= 0.53E+00 mag=      0.000
       N       E                     dE             d eps       ncg     rms          rms(c)
DAV:   1    -0.235891185936E+03   -0.99511E-01   -0.75290E-02  6024   0.231E+00    0.481E-01
RMM:   2    -0.235894873540E+03   -0.36876E-02   -0.56200E-02  4586   0.532E-01    0.414E-01
RMM:   3    -0.235896725533E+03   -0.18520E-02   -0.18039E-02  4731   0.311E-01
     45 T=  1005. E= -.23859848E+03 F= -.23589673E+03 E0= -.23589673E+03  EK= 0.81850E+01 SP= -.12E+02 SK= 0.65E+00 mag=     -0.000
       N       E                     dE             d eps       ncg     rms          rms(c)
DAV:   1    -0.235995273719E+03   -0.10040E+00   -0.57951E-02  5976   0.210E+00    0.103E+00
RMM:   2    -0.236000123662E+03   -0.48499E-02   -0.54888E-02  4928   0.499E-01    0.844E-01
RMM:   3    -0.236000336262E+03   -0.21260E-03   -0.18116E-02  4070   0.370E-01
     46 T=   948. E= -.23858332E+03 F= -.23600034E+03 E0= -.23600034E+03  EK= 0.77211E+01 SP= -.11E+02 SK= 0.76E+00 mag=      0.000
       N       E                     dE             d eps       ncg     rms          rms(c)
DAV:   1    -0.236102905682E+03   -0.10278E+00   -0.77277E-02  6032   0.212E+00    0.189E+00
RMM:   2    -0.236105106716E+03   -0.22010E-02   -0.58193E-02  4866   0.511E-01    0.772E-01
RMM:   3    -0.236103870359E+03    0.12364E-02   -0.21844E-02  3903   0.436E-01
     47 T=   891. E= -.23857113E+03 F= -.23610387E+03 E0= -.23610387E+03  EK= 0.72542E+01 SP= -.11E+02 SK= 0.83E+00 mag=      0.000
       N       E                     dE             d eps       ncg     rms          rms(c)
DAV:   1    -0.236195695894E+03   -0.90589E-01   -0.10771E-01  5440   0.224E+00    0.688E-01
RMM:   2    -0.236203573692E+03   -0.78778E-02   -0.78208E-02  4657   0.588E-01    0.386E-01
RMM:   3    -0.236206318201E+03   -0.27445E-02   -0.24701E-02  4769   0.362E-01
     48 T=   834. E= -.23856655E+03 F= -.23620632E+03 E0= -.23620632E+03  EK= 0.67949E+01 SP= -.10E+02 SK= 0.87E+00 mag=     -0.000
       N       E                     dE             d eps       ncg     rms          rms(c)
DAV:   1    -0.236293440460E+03   -0.89867E-01   -0.86767E-02  5688   0.208E+00    0.116E+00
RMM:   2    -0.236296854280E+03   -0.34138E-02   -0.65283E-02  4587   0.510E-01    0.977E-01
RMM:   3    -0.236298690784E+03   -0.18365E-02   -0.24599E-02  4608   0.350E-01
     49 T=   781. E= -.23855686E+03 F= -.23629869E+03 E0= -.23629869E+03  EK= 0.63597E+01 SP= -.95E+01 SK= 0.88E+00 mag=      0.000
       N       E                     dE             d eps       ncg     rms          rms(c)
DAV:   1    -0.236386906021E+03   -0.90052E-01   -0.39544E-02  5704   0.195E+00    0.202E+00
RMM:   2    -0.236384632295E+03    0.22737E-02   -0.49666E-02  4305   0.490E-01    0.918E-01
RMM:   3    -0.236383941920E+03    0.69038E-03   -0.24718E-02  4192   0.378E-01
     50 T=   731. E= -.23854893E+03 F= -.23638394E+03 E0= -.23638394E+03  EK= 0.59534E+01 SP= -.90E+01 SK= 0.85E+00 mag=      0.000
       N       E                     dE             d eps       ncg     rms          rms(c)
DAV:   1    -0.236458885596E+03   -0.74253E-01   -0.93569E-02  6056   0.199E+00    0.707E-01
RMM:   2    -0.236461879237E+03   -0.29936E-02   -0.65192E-02  4513   0.607E-01    0.383E-01
RMM:   3    -0.236463238246E+03   -0.13590E-02   -0.21604E-02  4805   0.332E-01
     51 T=   685. E= -.23854605E+03 F= -.23646324E+03 E0= -.23646324E+03  EK= 0.55799E+01 SP= -.85E+01 SK= 0.79E+00 mag=     -0.000
       N       E                     dE             d eps       ncg     rms          rms(c)
DAV:   1    -0.236526455803E+03   -0.64577E-01   -0.66254E-02  5864   0.188E+00    0.108E+00
RMM:   2    -0.236529762917E+03   -0.33071E-02   -0.52343E-02  4627   0.526E-01    0.901E-01
RMM:   3    -0.236530954261E+03   -0.11913E-02   -0.18074E-02  4252   0.292E-01
     52 T=   644. E= -.23853961E+03 F= -.23653095E+03 E0= -.23653095E+03  EK= 0.52453E+01 SP= -.80E+01 SK= 0.70E+00 mag=      0.000
       N       E                     dE             d eps       ncg     rms          rms(c)
DAV:   1    -0.236592657542E+03   -0.62895E-01   -0.32943E-02  5672   0.179E+00    0.202E+00
RMM:   2    -0.236590323697E+03    0.23338E-02   -0.44537E-02  4325   0.488E-01    0.968E-01
RMM:   3    -0.236590324720E+03   -0.10233E-05   -0.24793E-02  4650   0.320E-01
     53 T=   608. E= -.23853519E+03 F= -.23659032E+03 E0= -.23659032E+03  EK= 0.49485E+01 SP= -.75E+01 SK= 0.60E+00 mag=      0.000
       N       E                     dE             d eps       ncg     rms          rms(c)
DAV:   1    -0.236640971847E+03   -0.50648E-01   -0.45807E-02  5928   0.185E+00    0.521E-01
RMM:   2    -0.236641793342E+03   -0.82150E-03   -0.50519E-02  4164   0.569E-01    0.408E-01
RMM:   3    -0.236642200208E+03   -0.40687E-03   -0.12715E-02  4506   0.259E-01
     54 T=   576. E= -.23853306E+03 F= -.23664220E+03 E0= -.23664220E+03  EK= 0.46900E+01 SP= -.71E+01 SK= 0.49E+00 mag=     -0.000
       N       E                     dE             d eps       ncg     rms          rms(c)
DAV:   1    -0.236682170079E+03   -0.40377E-01   -0.47844E-02  5984   0.175E+00    0.102E+00
RMM:   2    -0.236685227771E+03   -0.30577E-02   -0.42075E-02  4471   0.491E-01    0.855E-01
RMM:   3    -0.236686008790E+03   -0.78102E-03   -0.13374E-02  4384   0.257E-01
     55 T=   549. E= -.23852824E+03 F= -.23668601E+03 E0= -.23668601E+03  EK= 0.44730E+01 SP= -.67E+01 SK= 0.38E+00 mag=      0.000
       N       E                     dE             d eps       ncg     rms          rms(c)
DAV:   1    -0.236727919810E+03   -0.42692E-01   -0.32760E-02  5688   0.170E+00    0.196E+00
RMM:   2    -0.236726056550E+03    0.18633E-02   -0.33709E-02  4310   0.442E-01    0.981E-01
RMM:   3    -0.236725694940E+03    0.36161E-03   -0.18711E-02  4527   0.282E-01
     56 T=   528. E= -.23852468E+03 F= -.23672569E+03 E0= -.23672569E+03  EK= 0.42960E+01 SP= -.64E+01 SK= 0.28E+00 mag=      0.000
       N       E                     dE             d eps       ncg     rms          rms(c)
DAV:   1    -0.236763223256E+03   -0.37167E-01   -0.49983E-02  6096   0.173E+00    0.493E-01
RMM:   2    -0.236764230567E+03   -0.10073E-02   -0.45002E-02  4211   0.527E-01    0.430E-01
RMM:   3    -0.236764705198E+03   -0.47463E-03   -0.12011E-02  4401   0.246E-01
     57 T=   511. E= -.23852295E+03 F= -.23676471E+03 E0= -.23676471E+03  EK= 0.41599E+01 SP= -.61E+01 SK= 0.18E+00 mag=     -0.000
       N       E                     dE             d eps       ncg     rms          rms(c)
DAV:   1    -0.236800817470E+03   -0.36587E-01   -0.42109E-02  6040   0.168E+00    0.120E+00
RMM:   2    -0.236802925845E+03   -0.21084E-02   -0.36478E-02  4525   0.466E-01    0.921E-01
RMM:   3    -0.236803287422E+03   -0.36158E-03   -0.14028E-02  4276   0.272E-01
     58 T=   500. E= -.23851752E+03 F= -.23680329E+03 E0= -.23680329E+03  EK= 0.40686E+01 SP= -.59E+01 SK= 0.10E+00 mag=      0.000
       N       E                     dE             d eps       ncg     rms          rms(c)
DAV:   1    -0.236853039950E+03   -0.50114E-01   -0.31028E-02  5736   0.168E+00    0.200E+00
RMM:   2    -0.236849725431E+03    0.33145E-02   -0.36060E-02  4363   0.449E-01    0.988E-01
RMM:   3    -0.236848756715E+03    0.96872E-03   -0.20991E-02  4308   0.312E-01
     59 T=   494. E= -.23851323E+03 F= -.23684876E+03 E0= -.23684876E+03  EK= 0.40230E+01 SP= -.57E+01 SK= 0.46E-01 mag=      0.000
       N       E                     dE             d eps       ncg     rms          rms(c)
DAV:   1    -0.236907196782E+03   -0.57471E-01   -0.66335E-02  6024   0.175E+00    0.580E-01
RMM:   2    -0.236906587841E+03    0.60894E-03   -0.45028E-02  4334   0.538E-01    0.401E-01
RMM:   3    -0.236906940288E+03   -0.35245E-03   -0.15373E-02  4696   0.282E-01
     60 T=   494. E= -.23851120E+03 F= -.23690694E+03 E0= -.23690694E+03  EK= 0.40265E+01 SP= -.56E+01 SK= 0.11E-01 mag=     -0.000
       N       E                     dE             d eps       ncg     rms          rms(c)
DAV:   1    -0.236975927767E+03   -0.69340E-01   -0.57742E-02  6168   0.171E+00    0.108E+00
RMM:   2    -0.236978648490E+03   -0.27207E-02   -0.37816E-02  4626   0.483E-01    0.835E-01
RMM:   3    -0.236979366922E+03   -0.71843E-03   -0.13304E-02  4296   0.271E-01
     61 T=   502. E= -.23850650E+03 F= -.23697937E+03 E0= -.23697937E+03  EK= 0.40850E+01 SP= -.56E+01 SK= 0.29E-07 mag=      0.000
       N       E                     dE             d eps       ncg     rms          rms(c)
DAV:   1    -0.237073661125E+03   -0.95013E-01   -0.33461E-02  5744   0.167E+00    0.170E+00
RMM:   2    -0.237072619191E+03    0.10419E-02   -0.36976E-02  4446   0.441E-01    0.823E-01
RMM:   3    -0.237072626189E+03   -0.69986E-05   -0.18568E-02  4480   0.293E-01
     62 T=   516. E= -.23850286E+03 F= -.23707263E+03 E0= -.23707263E+03  EK= 0.42012E+01 SP= -.56E+01 SK= 0.11E-01 mag=      0.000
       N       E                     dE             d eps       ncg     rms          rms(c)
DAV:   1    -0.237187594495E+03   -0.11498E+00   -0.52082E-02  6040   0.177E+00    0.577E-01
RMM:   2    -0.237189405192E+03   -0.18107E-02   -0.42144E-02  4180   0.518E-01    0.326E-01
RMM:   3    -0.237190012508E+03   -0.60732E-03   -0.11424E-02  4229   0.254E-01
     63 T=   538. E= -.23850007E+03 F= -.23719001E+03 E0= -.23719001E+03  EK= 0.43792E+01 SP= -.57E+01 SK= 0.40E-01 mag=     -0.000
       N       E                     dE             d eps       ncg     rms          rms(c)
DAV:   1    -0.237326038167E+03   -0.13663E+00   -0.45340E-02  6120   0.174E+00    0.752E-01
RMM:   2    -0.237329146205E+03   -0.31080E-02   -0.37603E-02  4517   0.501E-01    0.585E-01
RMM:   3    -0.237330215895E+03   -0.10697E-02   -0.12787E-02  4432   0.251E-01
     64 T=   567. E= -.23849549E+03 F= -.23733022E+03 E0= -.23733022E+03  EK= 0.46211E+01 SP= -.59E+01 SK= 0.83E-01 mag=     -0.000
       N       E                     dE             d eps       ncg     rms          rms(c)
DAV:   1    -0.237489560030E+03   -0.16041E+00   -0.30212E-02  5696   0.176E+00    0.609E-01
RMM:   2    -0.237490773285E+03   -0.12133E-02   -0.30805E-02  4554   0.441E-01
     65 T=   605. E= -.23848378E+03 F= -.23749077E+03 E0= -.23749077E+03  EK= 0.49307E+01 SP= -.61E+01 SK= 0.13E+00 mag=      0.000
       N       E                     dE             d eps       ncg     rms          rms(c)
DAV:   1    -0.237658919293E+03   -0.16936E+00   -0.10389E-01  6448   0.199E+00    0.901E-01
RMM:   2    -0.237666007987E+03   -0.70887E-02   -0.73074E-02  5211   0.588E-01    0.264E-01
RMM:   3    -0.237667177946E+03   -0.11700E-02   -0.13934E-02  3682   0.265E-01
     66 T=   650. E= -.23847224E+03 F= -.23766718E+03 E0= -.23766718E+03  EK= 0.52962E+01 SP= -.63E+01 SK= 0.18E+00 mag=      0.000
       N       E                     dE             d eps       ncg     rms          rms(c)
DAV:   1    -0.237842140939E+03   -0.17613E+00   -0.86803E-02  6184   0.192E+00    0.455E-01
RMM:   2    -0.237846381035E+03   -0.42401E-02   -0.45613E-02  4810   0.509E-01    0.336E-01
RMM:   3    -0.237848089709E+03   -0.17087E-02   -0.16094E-02  4219   0.246E-01
     67 T=   699. E= -.23846919E+03 F= -.23784809E+03 E0= -.23784809E+03  EK= 0.56963E+01 SP= -.65E+01 SK= 0.22E+00 mag=     -0.000
       N       E                     dE             d eps       ncg     rms          rms(c)
DAV:   1    -0.238018996598E+03   -0.17262E+00   -0.29900E-02  5416   0.194E+00    0.499E-01
RMM:   2    -0.238021682726E+03   -0.26861E-02   -0.43811E-02  4976   0.454E-01    0.423E-01
RMM:   3    -0.238022598405E+03   -0.91568E-03   -0.99755E-03  3425   0.228E-01
     68 T=   752. E= -.23846752E+03 F= -.23802260E+03 E0= -.23802260E+03  EK= 0.61229E+01 SP= -.68E+01 SK= 0.25E+00 mag=     -0.000
       N       E                     dE             d eps       ncg     rms          rms(c)
DAV:   1    -0.238175872230E+03   -0.15419E+00   -0.47915E-02  5792   0.205E+00    0.828E-01
RMM:   2    -0.238179392896E+03   -0.35207E-02   -0.38712E-02  4881   0.454E-01    0.312E-01
RMM:   3    -0.238180097205E+03   -0.70431E-03   -0.10394E-02  3582   0.251E-01
     69 T=   806. E= -.23846108E+03 F= -.23818010E+03 E0= -.23818010E+03  EK= 0.65648E+01 SP= -.71E+01 SK= 0.25E+00 mag=      0.000
       N       E                     dE             d eps       ncg     rms          rms(c)
DAV:   1    -0.238305257590E+03   -0.12586E+00   -0.47812E-02  5784   0.213E+00    0.406E-01
RMM:   2    -0.238310476525E+03   -0.52189E-02   -0.47474E-02  5059   0.505E-01    0.181E-01
RMM:   3    -0.238311704824E+03   -0.12283E-02   -0.11277E-02  3535   0.236E-01
     70 T=   860. E= -.23845270E+03 F= -.23831170E+03 E0= -.23831170E+03  EK= 0.70007E+01 SP= -.74E+01 SK= 0.24E+00 mag=      0.000
       N       E                     dE             d eps       ncg     rms          rms(c)
DAV:   1    -0.238403511108E+03   -0.93035E-01   -0.45162E-02  5888   0.216E+00    0.258E-01
RMM:   2    -0.238407840843E+03   -0.43297E-02   -0.43075E-02  4797   0.482E-01    0.314E-01
RMM:   3    -0.238408933573E+03   -0.10927E-02   -0.10739E-02  3620   0.221E-01
     71 T=   910. E= -.23844365E+03 F= -.23840893E+03 E0= -.23840893E+03  EK= 0.74078E+01 SP= -.77E+01 SK= 0.21E+00 mag=      0.000
       N       E                     dE             d eps       ncg     rms          rms(c)
DAV:   1    -0.238464308358E+03   -0.56468E-01   -0.68489E-02  5896   0.218E+00    0.692E-01
RMM:   2    -0.238468983364E+03   -0.46750E-02   -0.44427E-02  5020   0.473E-01    0.632E-01
RMM:   3    -0.238469944088E+03   -0.96072E-03   -0.10843E-02  3506   0.217E-01
     72 T=   954. E= -.23843290E+03 F= -.23846994E+03 E0= -.23846994E+03  EK= 0.77709E+01 SP= -.79E+01 SK= 0.17E+00 mag=      0.000
       N       E                     dE             d eps       ncg     rms          rms(c)
DAV:   1    -0.238491044241E+03   -0.22061E-01   -0.75684E-02  6080   0.230E+00    0.296E+00
RMM:   2    -0.238494543052E+03   -0.34988E-02   -0.52883E-02  5070   0.498E-01    0.148E+00
RMM:   3    -0.238494538975E+03    0.40776E-05   -0.15439E-02  3872   0.247E-01
     73 T=   991. E= -.23842087E+03 F= -.23849454E+03 E0= -.23849454E+03  EK= 0.80739E+01 SP= -.81E+01 SK= 0.13E+00 mag=      0.000
       N       E                     dE             d eps       ncg     rms          rms(c)
DAV:   1    -0.238481520305E+03    0.13023E-01   -0.91699E-02  6184   0.232E+00    0.113E+00
RMM:   2    -0.238485785554E+03   -0.42652E-02   -0.61637E-02  5058   0.517E-01    0.995E-01
RMM:   3    -0.238485687741E+03    0.97812E-04   -0.13643E-02  3657   0.249E-01
     74 T=  1020. E= -.23840756E+03 F= -.23848569E+03 E0= -.23848569E+03  EK= 0.83056E+01 SP= -.83E+01 SK= 0.79E-01 mag=      0.000
       N       E                     dE             d eps       ncg     rms          rms(c)
DAV:   1    -0.238451987720E+03    0.33798E-01   -0.15306E-01  6400   0.234E+00    0.171E+00
RMM:   2    -0.238449632619E+03    0.23551E-02   -0.70925E-02  4932   0.545E-01    0.608E-01
RMM:   3    -0.238447659381E+03    0.19732E-02   -0.21287E-02  4141   0.272E-01
     75 T=  1039. E= -.23839256E+03 F= -.23844766E+03 E0= -.23844766E+03  EK= 0.84585E+01 SP= -.84E+01 SK= 0.40E-01 mag=      0.000
       N       E                     dE             d eps       ncg     rms          rms(c)
DAV:   1    -0.238385344337E+03    0.64288E-01   -0.20583E-01  6400   0.236E+00    0.577E-01
RMM:   2    -0.238387933510E+03   -0.25892E-02   -0.85364E-02  4926   0.590E-01    0.598E-01
RMM:   3    -0.238387610253E+03    0.32326E-03   -0.15223E-02  3799   0.264E-01
     76 T=  1047. E= -.23837793E+03 F= -.23838761E+03 E0= -.23838761E+03  EK= 0.85289E+01 SP= -.85E+01 SK= 0.13E-01 mag=     -0.000
       N       E                     dE             d eps       ncg     rms          rms(c)
DAV:   1    -0.238299816598E+03    0.88117E-01   -0.15617E-01  6392   0.232E+00    0.866E-01
RMM:   2    -0.238306498436E+03   -0.66818E-02   -0.97578E-02  4874   0.576E-01    0.852E-01
RMM:   3    -0.238308003881E+03   -0.15054E-02   -0.16308E-02  3837   0.271E-01
     77 T=  1046. E= -.23835863E+03 F= -.23830800E+03 E0= -.23830800E+03  EK= 0.85200E+01 SP= -.86E+01 SK= 0.66E-03 mag=     -0.000
       N       E                     dE             d eps       ncg     rms          rms(c)
DAV:   1    -0.238214753711E+03    0.91745E-01   -0.70542E-02  6032   0.228E+00    0.115E+00
RMM:   2    -0.238215624187E+03   -0.87048E-03   -0.88723E-02  4863   0.532E-01    0.464E-01
RMM:   3    -0.238216784402E+03   -0.11602E-02   -0.18026E-02  3925   0.269E-01
     78 T=  1036. E= -.23834075E+03 F= -.23821678E+03 E0= -.23821678E+03  EK= 0.84336E+01 SP= -.86E+01 SK= 0.36E-02 mag=      0.000
       N       E                     dE             d eps       ncg     rms          rms(c)
DAV:   1    -0.238109689690E+03    0.10593E+00   -0.80585E-02  6008   0.231E+00    0.104E+00
RMM:   2    -0.238115597089E+03   -0.59074E-02   -0.62378E-02  4837   0.524E-01    0.398E-01
RMM:   3    -0.238116513801E+03   -0.91671E-03   -0.12431E-02  3483   0.239E-01
     79 T=  1016. E= -.23832426E+03 F= -.23811651E+03 E0= -.23811651E+03  EK= 0.82763E+01 SP= -.85E+01 SK= 0.20E-01 mag=      0.000
       N       E                     dE             d eps       ncg     rms          rms(c)
DAV:   1    -0.238001560039E+03    0.11404E+00   -0.89738E-02  6208   0.225E+00    0.282E-01
RMM:   2    -0.238008653947E+03   -0.70939E-02   -0.64232E-02  5114   0.527E-01    0.308E-01
RMM:   3    -0.238009907305E+03   -0.12534E-02   -0.12597E-02  3398   0.236E-01
     80 T=   990. E= -.23830628E+03 F= -.23800991E+03 E0= -.23800991E+03  EK= 0.80615E+01 SP= -.84E+01 SK= 0.45E-01 mag=     -0.000
       N       E                     dE             d eps       ncg     rms          rms(c)
DAV:   1    -0.237892146624E+03    0.11651E+00   -0.70843E-02  6016   0.224E+00    0.781E-01
RMM:   2    -0.237897462425E+03   -0.53158E-02   -0.58907E-02  5064   0.504E-01    0.686E-01
RMM:   3    -0.237898643639E+03   -0.11812E-02   -0.13884E-02  3546   0.240E-01
     81 T=   958. E= -.23828758E+03 F= -.23789864E+03 E0= -.23789864E+03  EK= 0.78000E+01 SP= -.83E+01 SK= 0.75E-01 mag=     -0.000
       N       E                     dE             d eps       ncg     rms          rms(c)
DAV:   1    -0.237781579530E+03    0.11588E+00   -0.72913E-02  5968   0.220E+00    0.149E+00
RMM:   2    -0.237785761474E+03   -0.41819E-02   -0.53415E-02  5024   0.491E-01    0.649E-01
RMM:   3    -0.237786473900E+03   -0.71243E-03   -0.13170E-02  3612   0.238E-01
     82 T=   922. E= -.23826985E+03 F= -.23778647E+03 E0= -.23778647E+03  EK= 0.75053E+01 SP= -.81E+01 SK= 0.10E+00 mag=      0.000
       N       E                     dE             d eps       ncg     rms          rms(c)
DAV:   1    -0.237669677000E+03    0.11608E+00   -0.68914E-02  6128   0.215E+00    0.355E-01
RMM:   2    -0.237675680215E+03   -0.60032E-02   -0.59897E-02  5003   0.495E-01    0.280E-01
RMM:   3    -0.237676626901E+03   -0.94669E-03   -0.11040E-02  3319   0.225E-01
     83 T=   883. E= -.23825175E+03 F= -.23767663E+03 E0= -.23767663E+03  EK= 0.71936E+01 SP= -.79E+01 SK= 0.13E+00 mag=      0.000
       N       E                     dE             d eps       ncg     rms          rms(c)
DAV:   1    -0.237565181973E+03    0.11050E+00   -0.73043E-02  6096   0.209E+00    0.593E-01
RMM:   2    -0.237570381591E+03   -0.51996E-02   -0.54172E-02  5031   0.475E-01    0.599E-01
RMM:   3    -0.237571460505E+03   -0.10789E-02   -0.11113E-02  3314   0.217E-01
     84 T=   844. E= -.23823484E+03 F= -.23757146E+03 E0= -.23757146E+03  EK= 0.68767E+01 SP= -.77E+01 SK= 0.15E+00 mag=      0.000
       N       E                     dE             d eps       ncg     rms          rms(c)
DAV:   1    -0.237469419349E+03    0.10096E+00   -0.54826E-02  5952   0.206E+00    0.880E-01
RMM:   2    -0.237473559758E+03   -0.41404E-02   -0.46015E-02  5036   0.457E-01    0.319E-01
RMM:   3    -0.237474415359E+03   -0.85560E-03   -0.10641E-02  3321   0.210E-01
     85 T=   806. E= -.23822017E+03 F= -.23747442E+03 E0= -.23747442E+03  EK= 0.65666E+01 SP= -.75E+01 SK= 0.15E+00 mag=     -0.000
       N       E                     dE             d eps       ncg     rms          rms(c)
DAV:   1    -0.237382387296E+03    0.91172E-01   -0.59334E-02  5960   0.201E+00    0.576E-01
RMM:   2    -0.237387622417E+03   -0.52351E-02   -0.48311E-02  5066   0.460E-01    0.217E-01
RMM:   3    -0.237388500824E+03   -0.87841E-03   -0.92612E-03  3240   0.205E-01
     86 T=   771. E= -.23820582E+03 F= -.23738850E+03 E0= -.23738850E+03  EK= 0.62762E+01 SP= -.72E+01 SK= 0.15E+00 mag=     -0.000
       N       E                     dE             d eps       ncg     rms          rms(c)
DAV:   1    -0.237310972425E+03    0.76650E-01   -0.60531E-02  6008   0.199E+00    0.195E-01
RMM:   2    -0.237315958694E+03   -0.49863E-02   -0.47645E-02  5024   0.441E-01    0.271E-01
RMM:   3    -0.237316883033E+03   -0.92434E-03   -0.92637E-03  3245   0.201E-01
     87 T=   739. E= -.23819211E+03 F= -.23731688E+03 E0= -.23731688E+03  EK= 0.60143E+01 SP= -.70E+01 SK= 0.14E+00 mag=     -0.000
       N       E                     dE             d eps       ncg     rms          rms(c)
DAV:   1    -0.237256749252E+03    0.59209E-01   -0.47445E-02  5952   0.194E+00    0.593E-01
RMM:   2    -0.237261025942E+03   -0.42767E-02   -0.42525E-02  5047   0.426E-01    0.565E-01
RMM:   3    -0.237261836504E+03   -0.81056E-03   -0.88794E-03  3202   0.192E-01
     88 T=   711. E= -.23818009E+03 F= -.23726184E+03 E0= -.23726184E+03  EK= 0.57865E+01 SP= -.68E+01 SK= 0.12E+00 mag=      0.000
       N       E                     dE             d eps       ncg     rms          rms(c)
DAV:   1    -0.237221950256E+03    0.39076E-01   -0.58838E-02  6032   0.188E+00    0.212E+00
RMM:   2    -0.237225399770E+03   -0.34495E-02   -0.40635E-02  5030   0.421E-01    0.101E+00
RMM:   3    -0.237225656361E+03   -0.25659E-03   -0.94540E-03  3251   0.201E-01
     89 T=   687. E= -.23816990E+03 F= -.23722566E+03 E0= -.23722566E+03  EK= 0.55979E+01 SP= -.66E+01 SK= 0.95E-01 mag=      0.000
       N       E                     dE             d eps       ncg     rms          rms(c)
DAV:   1    -0.237204941473E+03    0.20458E-01   -0.54108E-02  5968   0.186E+00    0.653E-01
RMM:   2    -0.237209089096E+03   -0.41476E-02   -0.43871E-02  5029   0.433E-01    0.607E-01
RMM:   3    -0.237209676500E+03   -0.58740E-03   -0.85138E-03  3237   0.197E-01
     90 T=   670. E= -.23815997E+03 F= -.23720968E+03 E0= -.23720968E+03  EK= 0.54533E+01 SP= -.65E+01 SK= 0.70E-01 mag=     -0.000
       N       E                     dE             d eps       ncg     rms          rms(c)
DAV:   1    -0.237213940268E+03   -0.48512E-02   -0.88226E-02  6336   0.184E+00    0.146E+00
RMM:   2    -0.237214918886E+03   -0.97862E-03   -0.48399E-02  4943   0.438E-01    0.541E-01
RMM:   3    -0.237214130687E+03    0.78820E-03   -0.12757E-02  3771   0.214E-01
     91 T=   657. E= -.23815223E+03 F= -.23721413E+03 E0= -.23721413E+03  EK= 0.53517E+01 SP= -.63E+01 SK= 0.47E-01 mag=     -0.000
       N       E                     dE             d eps       ncg     rms          rms(c)
DAV:   1    -0.237236965086E+03   -0.22046E-01   -0.12428E-01  6208   0.188E+00    0.528E-01
RMM:   2    -0.237240619776E+03   -0.36547E-02   -0.61552E-02  4821   0.474E-01    0.562E-01
RMM:   3    -0.237240676312E+03   -0.56536E-04   -0.10317E-02  3639   0.217E-01
     92 T=   650. E= -.23814638E+03 F= -.23724068E+03 E0= -.23724068E+03  EK= 0.52954E+01 SP= -.62E+01 SK= 0.27E-01 mag=     -0.000
       N       E                     dE             d eps       ncg     rms          rms(c)
DAV:   1    -0.237285348624E+03   -0.44729E-01   -0.73655E-02  6048   0.183E+00    0.125E+00
RMM:   2    -0.237285473158E+03   -0.12453E-03   -0.64824E-02  4824   0.465E-01    0.981E-01
RMM:   3    -0.237286122456E+03   -0.64930E-03   -0.14326E-02  3683   0.230E-01
     93 T=   649. E= -.23813476E+03 F= -.23728612E+03 E0= -.23728612E+03  EK= 0.52889E+01 SP= -.61E+01 SK= 0.12E-01 mag=      0.000
       N       E                     dE             d eps       ncg     rms          rms(c)
DAV:   1    -0.237365096265E+03   -0.79623E-01   -0.43282E-02  6072   0.178E+00    0.215E+00
RMM:   2    -0.237354743459E+03    0.10353E-01   -0.48873E-02  4692   0.417E-01    0.106E+00
RMM:   3    -0.237352930990E+03    0.18125E-02   -0.22525E-02  4073   0.249E-01
     94 T=   654. E= -.23812804E+03 F= -.23735293E+03 E0= -.23735293E+03  EK= 0.53233E+01 SP= -.61E+01 SK= 0.34E-02 mag=      0.000
       N       E                     dE             d eps       ncg     rms          rms(c)
DAV:   1    -0.237444190634E+03   -0.89447E-01   -0.10559E-01  6392   0.191E+00    0.623E-01
RMM:   2    -0.237440166680E+03    0.40240E-02   -0.60377E-02  4729   0.499E-01    0.431E-01
RMM:   3    -0.237439422232E+03    0.74445E-03   -0.15781E-02  4089   0.242E-01
     95 T=   663. E= -.23812377E+03 F= -.23743942E+03 E0= -.23743942E+03  EK= 0.53989E+01 SP= -.61E+01 SK= 0.72E-04 mag=     -0.000
       N       E                     dE             d eps       ncg     rms          rms(c)
DAV:   1    -0.237536721087E+03   -0.96554E-01   -0.14451E-01  6472   0.186E+00    0.632E-01
RMM:   2    -0.237541394165E+03   -0.46731E-02   -0.51860E-02  4857   0.468E-01    0.628E-01
RMM:   3    -0.237541991946E+03   -0.59778E-03   -0.83480E-03  3508   0.202E-01
     96 T=   678. E= -.23811514E+03 F= -.23754199E+03 E0= -.23754199E+03  EK= 0.55177E+01 SP= -.61E+01 SK= 0.14E-02 mag=     -0.000
       N       E                     dE             d eps       ncg     rms          rms(c)
DAV:   1    -0.237655591704E+03   -0.11420E+00   -0.67270E-02  6128   0.182E+00    0.497E-01
RMM:   2    -0.237659303119E+03   -0.37114E-02   -0.65428E-02  4835   0.458E-01    0.402E-01
RMM:   3    -0.237660229497E+03   -0.92638E-03   -0.10377E-02  3545   0.217E-01
     97 T=   696. E= -.23810931E+03 F= -.23766023E+03 E0= -.23766023E+03  EK= 0.56708E+01 SP= -.61E+01 SK= 0.60E-02 mag=     -0.000
       N       E                     dE             d eps       ncg     rms          rms(c)
DAV:   1    -0.237788244218E+03   -0.12894E+00   -0.52268E-02  5928   0.189E+00    0.658E-01
RMM:   2    -0.237790849042E+03   -0.26048E-02   -0.44526E-02  4725   0.414E-01    0.291E-01
RMM:   3    -0.237791454583E+03   -0.60554E-03   -0.82737E-03  3213   0.193E-01
     98 T=   719. E= -.23810373E+03 F= -.23779145E+03 E0= -.23779145E+03  EK= 0.58559E+01 SP= -.62E+01 SK= 0.12E-01 mag=      0.000
       N       E                     dE             d eps       ncg     rms          rms(c)
DAV:   1    -0.237926528358E+03   -0.13568E+00   -0.49583E-02  6008   0.189E+00    0.631E-01
RMM:   2    -0.237930483765E+03   -0.39554E-02   -0.39496E-02  5001   0.427E-01    0.205E-01
RMM:   3    -0.237931125938E+03   -0.64217E-03   -0.74244E-03  3155   0.182E-01
     99 T=   745. E= -.23809596E+03 F= -.23793113E+03 E0= -.23793113E+03  EK= 0.60681E+01 SP= -.63E+01 SK= 0.18E-01 mag=      0.000
       N       E                     dE             d eps       ncg     rms          rms(c)
DAV:   1    -0.238070031614E+03   -0.13955E+00   -0.41920E-02  5760   0.194E+00    0.231E-01
RMM:   2    -0.238074143346E+03   -0.41117E-02   -0.40690E-02  5036   0.416E-01    0.176E-01
RMM:   3    -0.238074891957E+03   -0.74861E-03   -0.78138E-03  3151   0.184E-01
    100 T=   773. E= -.23808902E+03 F= -.23807489E+03 E0= -.23807489E+03  EK= 0.62964E+01 SP= -.63E+01 SK= 0.22E-01 mag=     -0.000
       N       E                     dE             d eps       ncg     rms          rms(c)
DAV:   1    -0.238213825194E+03   -0.13968E+00   -0.37210E-02  5736   0.197E+00    0.323E-01
RMM:   2    -0.238217640243E+03   -0.38150E-02   -0.39534E-02  4978   0.398E-01    0.328E-01
RMM:   3    -0.238218351265E+03   -0.71102E-03   -0.76050E-03  3152   0.181E-01
    101 T=   802. E= -.23808187E+03 F= -.23821835E+03 E0= -.23821835E+03  EK= 0.65328E+01 SP= -.64E+01 SK= 0.23E-01 mag=     -0.000
       N       E                     dE             d eps       ncg     rms          rms(c)
DAV:   1    -0.238351996224E+03   -0.13436E+00   -0.55386E-02  5840   0.200E+00    0.312E-01
RMM:   2    -0.238356395238E+03   -0.43990E-02   -0.41465E-02  4971   0.414E-01    0.203E-01
RMM:   3    -0.238357188533E+03   -0.79329E-03   -0.82705E-03  3241   0.186E-01
    102 T=   831. E= -.23807415E+03 F= -.23835719E+03 E0= -.23835719E+03  EK= 0.67677E+01 SP= -.65E+01 SK= 0.22E-01 mag=      0.000
       N       E                     dE             d eps       ncg     rms          rms(c)
DAV:   1    -0.238481609871E+03   -0.12521E+00   -0.56163E-02  5816   0.204E+00    0.381E-01
RMM:   2    -0.238485981898E+03   -0.43720E-02   -0.41780E-02  4983   0.422E-01    0.210E-01
RMM:   3    -0.238486792184E+03   -0.81029E-03   -0.83125E-03  3235   0.188E-01
    103 T=   858. E= -.23806645E+03 F= -.23848679E+03 E0= -.23848679E+03  EK= 0.69898E+01 SP= -.66E+01 SK= 0.17E-01 mag=      0.000
       N       E                     dE             d eps       ncg     rms          rms(c)
DAV:   1    -0.238596175887E+03   -0.11019E+00   -0.50411E-02  5896   0.208E+00    0.319E-01
RMM:   2    -0.238601358857E+03   -0.51830E-02   -0.48436E-02  4974   0.427E-01    0.192E-01
RMM:   3    -0.238602199387E+03   -0.84053E-03   -0.86365E-03  3204   0.193E-01
    104 T=   883. E= -.23805671E+03 F= -.23860220E+03 E0= -.23860220E+03  EK= 0.71896E+01 SP= -.67E+01 SK= 0.11E-01 mag=      0.000
       N       E                     dE             d eps       ncg     rms          rms(c)
DAV:   1    -0.238694411499E+03   -0.93053E-01   -0.73144E-02  6072   0.211E+00    0.222E-01
RMM:   2    -0.238699740585E+03   -0.53291E-02   -0.49046E-02  4936   0.445E-01    0.206E-01
RMM:   3    -0.238700734848E+03   -0.99426E-03   -0.10084E-02  3413   0.205E-01
    105 T=   903. E= -.23804541E+03 F= -.23870073E+03 E0= -.23870073E+03  EK= 0.73574E+01 SP= -.67E+01 SK= 0.54E-02 mag=     -0.000
       N       E                     dE             d eps       ncg     rms          rms(c)
DAV:   1    -0.238774507521E+03   -0.74767E-01   -0.58617E-02  5992   0.212E+00    0.248E-01
RMM:   2    -0.238779903288E+03   -0.53958E-02   -0.49086E-02  4973   0.448E-01    0.354E-01
RMM:   3    -0.238780821481E+03   -0.91819E-03   -0.92398E-03  3237   0.199E-01
    106 T=   919. E= -.23803299E+03 F= -.23878082E+03 E0= -.23878082E+03  EK= 0.74854E+01 SP= -.67E+01 SK= 0.12E-02 mag=      0.000
       N       E                     dE             d eps       ncg     rms          rms(c)
DAV:   1    -0.238835805624E+03   -0.55902E-01   -0.78793E-02  6072   0.215E+00    0.306E-01
RMM:   2    -0.238841430368E+03   -0.56247E-02   -0.50981E-02  4971   0.464E-01    0.438E-01
RMM:   3    -0.238842448645E+03   -0.10183E-02   -0.10190E-02  3395   0.208E-01
    107 T=   929. E= -.23801911E+03 F= -.23884245E+03 E0= -.23884245E+03  EK= 0.75693E+01 SP= -.67E+01 SK= 0.10E-03 mag=      0.000
       N       E                     dE             d eps       ncg     rms          rms(c)
DAV:   1    -0.238881316894E+03   -0.39887E-01   -0.53292E-02  5992   0.217E+00    0.405E-01
RMM:   2    -0.238886642540E+03   -0.53256E-02   -0.49275E-02  5013   0.468E-01    0.459E-01
RMM:   3    -0.238887652297E+03   -0.10098E-02   -0.10105E-02  3299   0.209E-01
    108 T=   934. E= -.23800325E+03 F= -.23888765E+03 E0= -.23888765E+03  EK= 0.76086E+01 SP= -.67E+01 SK= 0.32E-02 mag=      0.000
       N       E                     dE             d eps       ncg     rms          rms(c)
DAV:   1    -0.238912911125E+03   -0.26269E-01   -0.68105E-02  6008   0.217E+00    0.947E-01
RMM:   2    -0.238918464858E+03   -0.55537E-02   -0.51429E-02  4976   0.475E-01    0.807E-01
RMM:   3    -0.238919448887E+03   -0.98403E-03   -0.11036E-02  3441   0.215E-01
    109 T=   934. E= -.23798726E+03 F= -.23891945E+03 E0= -.23891945E+03  EK= 0.76030E+01 SP= -.67E+01 SK= 0.11E-01 mag=      0.000
       N       E                     dE             d eps       ncg     rms          rms(c)
DAV:   1    -0.238939069954E+03   -0.20605E-01   -0.75127E-02  6016   0.228E+00    0.337E+00
RMM:   2    -0.238942284212E+03   -0.32143E-02   -0.52528E-02  5017   0.482E-01    0.171E+00
RMM:   3    -0.238942611464E+03   -0.32725E-03   -0.14287E-02  3553   0.241E-01
    110 T=   928. E= -.23797388E+03 F= -.23894261E+03 E0= -.23894261E+03  EK= 0.75552E+01 SP= -.66E+01 SK= 0.23E-01 mag=     -0.000
       N       E                     dE             d eps       ncg     rms          rms(c)
DAV:   1    -0.238957055687E+03   -0.14771E-01   -0.73087E-02  6160   0.217E+00    0.121E+00
RMM:   2    -0.238961638739E+03   -0.45831E-02   -0.60905E-02  4981   0.504E-01    0.100E+00
RMM:   3    -0.238961871618E+03   -0.23288E-03   -0.12303E-02  3533   0.231E-01
    111 T=   918. E= -.23795916E+03 F= -.23896187E+03 E0= -.23896187E+03  EK= 0.74760E+01 SP= -.65E+01 SK= 0.38E-01 mag=      0.000
       N       E                     dE             d eps       ncg     rms          rms(c)
DAV:   1    -0.238982572338E+03   -0.20934E-01   -0.11517E-01  6320   0.218E+00    0.133E+00
RMM:   2    -0.238983649418E+03   -0.10771E-02   -0.62004E-02  4802   0.498E-01    0.447E-01
RMM:   3    -0.238983283098E+03    0.36632E-03   -0.15647E-02  3905   0.235E-01
    112 T=   905. E= -.23794434E+03 F= -.23898328E+03 E0= -.23898328E+03  EK= 0.73734E+01 SP= -.64E+01 SK= 0.55E-01 mag=      0.000
       N       E                     dE             d eps       ncg     rms          rms(c)
DAV:   1    -0.239005267010E+03   -0.21618E-01   -0.11619E-01  6264   0.215E+00    0.427E-01
RMM:   2    -0.239010268675E+03   -0.50017E-02   -0.69766E-02  4859   0.521E-01    0.463E-01
RMM:   3    -0.239010548128E+03   -0.27945E-03   -0.11115E-02  3518   0.227E-01
    113 T=   891. E= -.23793155E+03 F= -.23901055E+03 E0= -.23901055E+03  EK= 0.72530E+01 SP= -.62E+01 SK= 0.72E-01 mag=      0.000
       N       E                     dE             d eps       ncg     rms          rms(c)
DAV:   1    -0.239038451600E+03   -0.28183E-01   -0.79328E-02  6208   0.213E+00    0.727E-01
RMM:   2    -0.239043375285E+03   -0.49237E-02   -0.79917E-02  4861   0.506E-01    0.709E-01
RMM:   3    -0.239044514456E+03   -0.11392E-02   -0.13082E-02  3592   0.237E-01
    114 T=   875. E= -.23791730E+03 F= -.23904451E+03 E0= -.23904451E+03  EK= 0.71233E+01 SP= -.61E+01 SK= 0.89E-01 mag=     -0.000
       N       E                     dE             d eps       ncg     rms          rms(c)
DAV:   1    -0.239085972725E+03   -0.42597E-01   -0.69944E-02  6216   0.208E+00    0.111E+00
RMM:   2    -0.239087341145E+03   -0.13684E-02   -0.61660E-02  4796   0.466E-01    0.437E-01
RMM:   3    -0.239088036867E+03   -0.69572E-03   -0.12953E-02  3601   0.226E-01
    115 T=   858. E= -.23790556E+03 F= -.23908804E+03 E0= -.23908804E+03  EK= 0.69878E+01 SP= -.59E+01 SK= 0.10E+00 mag=     -0.000
       N       E                     dE             d eps       ncg     rms          rms(c)
DAV:   1    -0.239132511507E+03   -0.45170E-01   -0.69509E-02  6088   0.211E+00    0.799E-01
RMM:   2    -0.239138339503E+03   -0.58280E-02   -0.58160E-02  4855   0.482E-01    0.309E-01
RMM:   3    -0.239139060579E+03   -0.72108E-03   -0.10006E-02  3365   0.212E-01
    116 T=   841. E= -.23789471E+03 F= -.23913906E+03 E0= -.23913906E+03  EK= 0.68501E+01 SP= -.57E+01 SK= 0.11E+00 mag=     -0.000
       N       E                     dE             d eps       ncg     rms          rms(c)
DAV:   1    -0.239186885688E+03   -0.48546E-01   -0.75562E-02  6256   0.208E+00    0.266E-01
RMM:   2    -0.239193166986E+03   -0.62813E-02   -0.58966E-02  4932   0.471E-01    0.292E-01
RMM:   3    -0.239194213626E+03   -0.10466E-02   -0.10714E-02  3410   0.214E-01
    117 T=   824. E= -.23788293E+03 F= -.23919421E+03 E0= -.23919421E+03  EK= 0.67128E+01 SP= -.55E+01 SK= 0.12E+00 mag=      0.000
       N       E                     dE             d eps       ncg     rms          rms(c)
DAV:   1    -0.239242181363E+03   -0.49014E-01   -0.52534E-02  6032   0.207E+00    0.567E-01
RMM:   2    -0.239246505145E+03   -0.43238E-02   -0.48389E-02  4895   0.446E-01    0.543E-01
RMM:   3    -0.239247360458E+03   -0.85531E-03   -0.97119E-03  3359   0.203E-01
    118 T=   807. E= -.23787294E+03 F= -.23924736E+03 E0= -.23924736E+03  EK= 0.65710E+01 SP= -.53E+01 SK= 0.13E+00 mag=      0.000
       N       E                     dE             d eps       ncg     rms          rms(c)
DAV:   1    -0.239289282023E+03   -0.42777E-01   -0.48585E-02  5968   0.204E+00    0.123E+00
RMM:   2    -0.239293754319E+03   -0.44723E-02   -0.45093E-02  4970   0.435E-01    0.499E-01
RMM:   3    -0.239294440950E+03   -0.68663E-03   -0.89328E-03  3218   0.196E-01
    119 T=   789. E= -.23786434E+03 F= -.23929444E+03 E0= -.23929444E+03  EK= 0.64247E+01 SP= -.51E+01 SK= 0.13E+00 mag=      0.000
       N       E                     dE             d eps       ncg     rms          rms(c)
DAV:   1    -0.239326028929E+03   -0.32275E-01   -0.50813E-02  6040   0.203E+00    0.403E-01
RMM:   2    -0.239331219319E+03   -0.51904E-02   -0.47615E-02  4976   0.442E-01    0.252E-01
RMM:   3    -0.239332062858E+03   -0.84354E-03   -0.90278E-03  3324   0.197E-01
    120 T=   771. E= -.23785493E+03 F= -.23933206E+03 E0= -.23933206E+03  EK= 0.62765E+01 SP= -.49E+01 SK= 0.12E+00 mag=     -0.000
       N       E                     dE             d eps       ncg     rms          rms(c)
DAV:   1    -0.239352503548E+03   -0.21284E-01   -0.44469E-02  5992   0.200E+00    0.439E-01
RMM:   2    -0.239356764555E+03   -0.42610E-02   -0.43111E-02  4938   0.415E-01    0.480E-01
RMM:   3    -0.239357532950E+03   -0.76839E-03   -0.80855E-03  3194   0.184E-01
    121 T=   752. E= -.23784635E+03 F= -.23935753E+03 E0= -.23935753E+03  EK= 0.61255E+01 SP= -.47E+01 SK= 0.11E+00 mag=     -0.000
       N       E                     dE             d eps       ncg     rms          rms(c)
DAV:   1    -0.239366676500E+03   -0.99119E-02   -0.46407E-02  6016   0.198E+00    0.105E+00
RMM:   2    -0.239370652349E+03   -0.39758E-02   -0.39651E-02  4928   0.410E-01    0.851E-01
RMM:   3    -0.239371224983E+03   -0.57263E-03   -0.85793E-03  3270   0.188E-01
    122 T=   734. E= -.23783908E+03 F= -.23937122E+03 E0= -.23937122E+03  EK= 0.59748E+01 SP= -.45E+01 SK= 0.99E-01 mag=      0.000
       N       E                     dE             d eps       ncg     rms          rms(c)
DAV:   1    -0.239370818648E+03   -0.16630E-03   -0.49204E-02  6032   0.192E+00    0.250E+00
RMM:   2    -0.239373605458E+03   -0.27868E-02   -0.40715E-02  4930   0.407E-01    0.125E+00
RMM:   3    -0.239373946246E+03   -0.34079E-03   -0.94782E-03  3283   0.194E-01
    123 T=   716. E= -.23783169E+03 F= -.23937395E+03 E0= -.23937395E+03  EK= 0.58295E+01 SP= -.44E+01 SK= 0.83E-01 mag=      0.000
       N       E                     dE             d eps       ncg     rms          rms(c)
DAV:   1    -0.239365878011E+03    0.77274E-02   -0.42845E-02  5800   0.192E+00    0.592E-01
RMM:   2    -0.239369418974E+03   -0.35410E-02   -0.41431E-02  4881   0.416E-01    0.554E-01
RMM:   3    -0.239370001648E+03   -0.58267E-03   -0.81976E-03  3256   0.188E-01
    124 T=   699. E= -.23782436E+03 F= -.23937000E+03 E0= -.23937000E+03  EK= 0.56961E+01 SP= -.42E+01 SK= 0.65E-01 mag=     -0.000
       N       E                     dE             d eps       ncg     rms          rms(c)
DAV:   1    -0.239359911661E+03    0.95073E-02   -0.43878E-02  6104   0.185E+00    0.490E-01
RMM:   2    -0.239363104932E+03   -0.31933E-02   -0.38182E-02  4935   0.398E-01    0.228E-01
RMM:   3    -0.239363419263E+03   -0.31433E-03   -0.69810E-03  3035   0.172E-01
    125 T=   685. E= -.23781704E+03 F= -.23936342E+03 E0= -.23936342E+03  EK= 0.55805E+01 SP= -.41E+01 SK= 0.47E-01 mag=     -0.000
       N       E                     dE             d eps       ncg     rms          rms(c)
DAV:   1    -0.239352615765E+03    0.10489E-01   -0.60396E-02  5896   0.187E+00    0.326E-01
RMM:   2    -0.239357773634E+03   -0.51579E-02   -0.52318E-02  4872   0.425E-01    0.293E-01
RMM:   3    -0.239358555255E+03   -0.78162E-03   -0.89397E-03  3470   0.195E-01
    126 T=   674. E= -.23781181E+03 F= -.23935856E+03 E0= -.23935856E+03  EK= 0.54862E+01 SP= -.40E+01 SK= 0.30E-01 mag=      0.000
       N       E                     dE             d eps       ncg     rms          rms(c)
DAV:   1    -0.239357468877E+03    0.30476E-03   -0.43907E-02  5880   0.187E+00    0.429E-01
RMM:   2    -0.239358631443E+03   -0.11626E-02   -0.44241E-02  4804   0.406E-01    0.422E-01
RMM:   3    -0.239359186976E+03   -0.55553E-03   -0.89973E-03  3424   0.192E-01
    127 T=   666. E= -.23780533E+03 F= -.23935919E+03 E0= -.23935919E+03  EK= 0.54213E+01 SP= -.39E+01 SK= 0.16E-01 mag=      0.000
       N       E                     dE             d eps       ncg     rms          rms(c)
DAV:   1    -0.239366859243E+03   -0.82278E-02   -0.58327E-02  6096   0.180E+00    0.756E-01
RMM:   2    -0.239369083103E+03   -0.22239E-02   -0.38558E-02  4800   0.397E-01    0.248E-01
RMM:   3    -0.239369437537E+03   -0.35443E-03   -0.82426E-03  3351   0.184E-01
    128 T=   662. E= -.23779970E+03 F= -.23936944E+03 E0= -.23936944E+03  EK= 0.53883E+01 SP= -.38E+01 SK= 0.63E-02 mag=     -0.000
       N       E                     dE             d eps       ncg     rms          rms(c)
DAV:   1    -0.239384927083E+03   -0.15844E-01   -0.42389E-02  5960   0.186E+00    0.514E-01
RMM:   2    -0.239389797680E+03   -0.48706E-02   -0.48457E-02  4963   0.414E-01    0.165E-01
RMM:   3    -0.239390345862E+03   -0.54818E-03   -0.67817E-03  3093   0.178E-01
    129 T=   662. E= -.23779622E+03 F= -.23939035E+03 E0= -.23939035E+03  EK= 0.53870E+01 SP= -.38E+01 SK= 0.91E-03 mag=     -0.000
       N       E                     dE             d eps       ncg     rms          rms(c)
DAV:   1    -0.239417705011E+03   -0.27907E-01   -0.61506E-02  6048   0.184E+00    0.233E-01
RMM:   2    -0.239421538671E+03   -0.38337E-02   -0.43517E-02  4902   0.404E-01    0.222E-01
RMM:   3    -0.239422237590E+03   -0.69892E-03   -0.77219E-03  3285   0.180E-01
    130 T=   666. E= -.23779108E+03 F= -.23942224E+03 E0= -.23942224E+03  EK= 0.54213E+01 SP= -.38E+01 SK= 0.33E-03 mag=     -0.000
       N       E                     dE             d eps       ncg     rms          rms(c)
DAV:   1    -0.239460075469E+03   -0.38537E-01   -0.44246E-02  5976   0.181E+00    0.298E-01
RMM:   2    -0.239463352744E+03   -0.32773E-02   -0.35207E-02  4919   0.394E-01    0.373E-01
RMM:   3    -0.239463997615E+03   -0.64487E-03   -0.69362E-03  3145   0.171E-01
    131 T=   674. E= -.23778665E+03 F= -.23946400E+03 E0= -.23946400E+03  EK= 0.54875E+01 SP= -.38E+01 SK= 0.41E-02 mag=      0.000
       N       E                     dE             d eps       ncg     rms          rms(c)
DAV:   1    -0.239506990629E+03   -0.43638E-01   -0.33798E-02  5688   0.187E+00    0.576E-01
RMM:   2    -0.239510633459E+03   -0.36428E-02   -0.36759E-02  5004   0.394E-01    0.550E-01
RMM:   3    -0.239511216099E+03   -0.58264E-03   -0.65650E-03  3041   0.167E-01
    132 T=   685. E= -.23778353E+03 F= -.23951122E+03 E0= -.23951122E+03  EK= 0.55796E+01 SP= -.39E+01 SK= 0.11E-01 mag=     -0.000
       N       E                     dE             d eps       ncg     rms          rms(c)
DAV:   1    -0.239557546746E+03   -0.46913E-01   -0.61552E-02  6016   0.196E+00    0.276E+00
RMM:   2    -0.239560166424E+03   -0.26197E-02   -0.38494E-02  4935   0.400E-01    0.138E+00
RMM:   3    -0.239560439419E+03   -0.27299E-03   -0.94421E-03  3387   0.196E-01
    133 T=   699. E= -.23778109E+03 F= -.23956044E+03 E0= -.23956044E+03  EK= 0.56938E+01 SP= -.39E+01 SK= 0.21E-01 mag=      0.000
       N       E                     dE             d eps       ncg     rms          rms(c)
DAV:   1    -0.239603088893E+03   -0.42922E-01   -0.47557E-02  5992   0.194E+00    0.114E+00
RMM:   2    -0.239606547685E+03   -0.34588E-02   -0.45520E-02  5017   0.431E-01    0.910E-01
RMM:   3    -0.239606762465E+03   -0.21478E-03   -0.85983E-03  3259   0.192E-01
    134 T=   715. E= -.23777681E+03 F= -.23960676E+03 E0= -.23960676E+03  EK= 0.58263E+01 SP= -.40E+01 SK= 0.32E-01 mag=     -0.000
       N       E                     dE             d eps       ncg     rms          rms(c)
DAV:   1    -0.239645180943E+03   -0.38633E-01   -0.83939E-02  6256   0.190E+00    0.130E+00
RMM:   2    -0.239646128683E+03   -0.94774E-03   -0.46961E-02  4864   0.424E-01    0.473E-01
RMM:   3    -0.239645862188E+03    0.26650E-03   -0.11496E-02  3549   0.200E-01
    135 T=   733. E= -.23777322E+03 F= -.23964586E+03 E0= -.23964586E+03  EK= 0.59681E+01 SP= -.41E+01 SK= 0.42E-01 mag=     -0.000
       N       E                     dE             d eps       ncg     rms          rms(c)
DAV:   1    -0.239669884392E+03   -0.23756E-01   -0.78966E-02  6096   0.199E+00    0.325E-01
RMM:   2    -0.239673445730E+03   -0.35613E-02   -0.55545E-02  4905   0.459E-01    0.416E-01
RMM:   3    -0.239673665943E+03   -0.22021E-03   -0.83415E-03  3294   0.197E-01
    136 T=   751. E= -.23777051E+03 F= -.23967367E+03 E0= -.23967367E+03  EK= 0.61127E+01 SP= -.43E+01 SK= 0.51E-01 mag=     -0.000
       N       E                     dE             d eps       ncg     rms          rms(c)
DAV:   1    -0.239682437312E+03   -0.89916E-02   -0.61011E-02  6008   0.199E+00    0.787E-01
RMM:   2    -0.239685129889E+03   -0.26926E-02   -0.60548E-02  4944   0.448E-01    0.724E-01
RMM:   3    -0.239685815850E+03   -0.68596E-03   -0.93759E-03  3315   0.201E-01
    137 T=   769. E= -.23776258E+03 F= -.23968582E+03 E0= -.23968582E+03  EK= 0.62590E+01 SP= -.44E+01 SK= 0.58E-01 mag=      0.000
       N       E                     dE             d eps       ncg     rms          rms(c)
DAV:   1    -0.239683330449E+03    0.17994E-02   -0.52606E-02  5928   0.195E+00    0.154E+00
RMM:   2    -0.239681738991E+03    0.15915E-02   -0.48105E-02  4872   0.426E-01    0.693E-01
RMM:   3    -0.239681752407E+03   -0.13416E-04   -0.12097E-02  3506   0.209E-01
    138 T=   785. E= -.23775715E+03 F= -.23968175E+03 E0= -.23968175E+03  EK= 0.63955E+01 SP= -.45E+01 SK= 0.62E-01 mag=     -0.000
       N       E                     dE             d eps       ncg     rms          rms(c)
DAV:   1    -0.239656652429E+03    0.25087E-01   -0.75376E-02  6088   0.206E+00    0.622E-01
RMM:   2    -0.239660869558E+03   -0.42171E-02   -0.57115E-02  4923   0.467E-01    0.310E-01
RMM:   3    -0.239661050520E+03   -0.18096E-03   -0.90393E-03  3414   0.206E-01
    139 T=   801. E= -.23775376E+03 F= -.23966105E+03 E0= -.23966105E+03  EK= 0.65190E+01 SP= -.47E+01 SK= 0.63E-01 mag=     -0.000
       N       E                     dE             d eps       ncg     rms          rms(c)
DAV:   1    -0.239617635171E+03    0.43234E-01   -0.86475E-02  6256   0.205E+00    0.380E-01
RMM:   2    -0.239623051682E+03   -0.54165E-02   -0.59383E-02  4925   0.461E-01    0.514E-01
RMM:   3    -0.239623879451E+03   -0.82777E-03   -0.91122E-03  3376   0.205E-01
    140 T=   815. E= -.23774486E+03 F= -.23962388E+03 E0= -.23962388E+03  EK= 0.66341E+01 SP= -.48E+01 SK= 0.61E-01 mag=      0.000
       N       E                     dE             d eps       ncg     rms          rms(c)
DAV:   1    -0.239570856715E+03    0.52195E-01   -0.49102E-02  5920   0.204E+00    0.105E+00
RMM:   2    -0.239572373759E+03   -0.15170E-02   -0.54333E-02  4899   0.454E-01    0.841E-01
RMM:   3    -0.239573042395E+03   -0.66864E-03   -0.14256E-02  3742   0.224E-01
    141 T=   827. E= -.23773716E+03 F= -.23957304E+03 E0= -.23957304E+03  EK= 0.67336E+01 SP= -.50E+01 SK= 0.58E-01 mag=      0.000
       N       E                     dE             d eps       ncg     rms          rms(c)
DAV:   1    -0.239512737280E+03    0.59636E-01   -0.67465E-02  6016   0.210E+00    0.211E+00
RMM:   2    -0.239513058500E+03   -0.32122E-03   -0.50520E-02  4773   0.463E-01    0.994E-01
RMM:   3    -0.239513096748E+03   -0.38248E-04   -0.15416E-02  4045   0.234E-01
    142 T=   838. E= -.23772863E+03 F= -.23951310E+03 E0= -.23951310E+03  EK= 0.68212E+01 SP= -.51E+01 SK= 0.53E-01 mag=      0.000
       N       E                     dE             d eps       ncg     rms          rms(c)
DAV:   1    -0.239447030884E+03    0.66028E-01   -0.76820E-02  6096   0.204E+00    0.434E-01
RMM:   2    -0.239449314918E+03   -0.22840E-02   -0.55773E-02  4752   0.476E-01    0.378E-01
RMM:   3    -0.239449832312E+03   -0.51739E-03   -0.10883E-02  3666   0.223E-01
    143 T=   847. E= -.23771813E+03 F= -.23944983E+03 E0= -.23944983E+03  EK= 0.69012E+01 SP= -.52E+01 SK= 0.46E-01 mag=     -0.000
       N       E                     dE             d eps       ncg     rms          rms(c)
DAV:   1    -0.239380631195E+03    0.68684E-01   -0.69998E-02  6032   0.207E+00    0.809E-01
RMM:   2    -0.239386286247E+03   -0.56551E-02   -0.56207E-02  4922   0.475E-01    0.744E-01
RMM:   3    -0.239387181891E+03   -0.89564E-03   -0.10111E-02  3485   0.216E-01
    144 T=   856. E= -.23770959E+03 F= -.23938718E+03 E0= -.23938718E+03  EK= 0.69712E+01 SP= -.53E+01 SK= 0.38E-01 mag=     -0.000
       N       E                     dE             d eps       ncg     rms          rms(c)
DAV:   1    -0.239325333583E+03    0.60953E-01   -0.66461E-02  5976   0.209E+00    0.195E+00
RMM:   2    -0.239329630286E+03   -0.42967E-02   -0.53075E-02  4947   0.466E-01    0.890E-01
RMM:   3    -0.239330439872E+03   -0.80959E-03   -0.10903E-02  3512   0.218E-01
    145 T=   864. E= -.23769962E+03 F= -.23933044E+03 E0= -.23933044E+03  EK= 0.70376E+01 SP= -.54E+01 SK= 0.30E-01 mag=      0.000
       N       E                     dE             d eps       ncg     rms          rms(c)
DAV:   1    -0.239276750586E+03    0.52880E-01   -0.50084E-02  5960   0.211E+00    0.480E-01
RMM:   2    -0.239281948642E+03   -0.51981E-02   -0.52438E-02  4967   0.474E-01    0.462E-01
RMM:   3    -0.239282827749E+03   -0.87911E-03   -0.98806E-03  3409   0.215E-01
    146 T=   872. E= -.23768796E+03 F= -.23928283E+03 E0= -.23928283E+03  EK= 0.71019E+01 SP= -.55E+01 SK= 0.23E-01 mag=      0.000
       N       E                     dE             d eps       ncg     rms          rms(c)
DAV:   1    -0.239241094892E+03    0.40854E-01   -0.66402E-02  6072   0.208E+00    0.113E+00
RMM:   2    -0.239245549444E+03   -0.44546E-02   -0.46961E-02  4931   0.457E-01    0.903E-01
RMM:   3    -0.239246267170E+03   -0.71773E-03   -0.10301E-02  3413   0.211E-01
    147 T=   879. E= -.23767774E+03 F= -.23924627E+03 E0= -.23924627E+03  EK= 0.71608E+01 SP= -.56E+01 SK= 0.15E-01 mag=      0.000
       N       E                     dE             d eps       ncg     rms          rms(c)
DAV:   1    -0.239218988623E+03    0.26561E-01   -0.51464E-02  5984   0.208E+00    0.219E+00
RMM:   2    -0.239221522890E+03   -0.25343E-02   -0.44800E-02  5053   0.448E-01    0.107E+00
RMM:   3    -0.239221724830E+03   -0.20194E-03   -0.11276E-02  3422   0.214E-01
    148 T=   886. E= -.23766813E+03 F= -.23922172E+03 E0= -.23922172E+03  EK= 0.72143E+01 SP= -.57E+01 SK= 0.89E-02 mag=     -0.000
       N       E                     dE             d eps       ncg     rms          rms(c)
DAV:   1    -0.239202835255E+03    0.18688E-01   -0.58854E-02  6024   0.211E+00    0.481E-01
RMM:   2    -0.239207526211E+03   -0.46910E-02   -0.54151E-02  4992   0.471E-01    0.487E-01
RMM:   3    -0.239208209993E+03   -0.68378E-03   -0.98570E-03  3407   0.216E-01
    149 T=   892. E= -.23765766E+03 F= -.23920821E+03 E0= -.23920821E+03  EK= 0.72609E+01 SP= -.57E+01 SK= 0.39E-02 mag=      0.000
       N       E                     dE             d eps       ncg     rms          rms(c)
DAV:   1    -0.239198113229E+03    0.94130E-02   -0.67963E-02  6176   0.208E+00    0.721E-01
RMM:   2    -0.239203483438E+03   -0.53702E-02   -0.53764E-02  4970   0.460E-01    0.631E-01
RMM:   3    -0.239204375838E+03   -0.89240E-03   -0.10012E-02  3396   0.212E-01
    150 T=   896. E= -.23764677E+03 F= -.23920438E+03 E0= -.23920438E+03  EK= 0.72973E+01 SP= -.57E+01 SK= 0.87E-03 mag=      0.000
       N       E                     dE             d eps       ncg     rms          rms(c)
DAV:   1    -0.239202752047E+03    0.73139E-03   -0.64946E-02  6040   0.209E+00    0.115E+00
RMM:   2    -0.239207386453E+03   -0.46344E-02   -0.52036E-02  4975   0.468E-01    0.481E-01
RMM:   3    -0.239208258984E+03   -0.87253E-03   -0.10156E-02  3402   0.214E-01
    151 T=   899. E= -.23763765E+03 F= -.23920826E+03 E0= -.23920826E+03  EK= 0.73182E+01 SP= -.57E+01 SK= 0.26E-04 mag=      0.000
       N       E                     dE             d eps       ncg     rms          rms(c)
DAV:   1    -0.239210138667E+03   -0.27522E-02   -0.49779E-02  6032   0.210E+00    0.484E-01
RMM:   2    -0.239214968158E+03   -0.48295E-02   -0.46768E-02  5002   0.460E-01    0.236E-01
RMM:   3    -0.239215872304E+03   -0.90415E-03   -0.95371E-03  3302   0.207E-01
    152 T=   899. E= -.23762804E+03 F= -.23921587E+03 E0= -.23921587E+03  EK= 0.73210E+01 SP= -.57E+01 SK= 0.16E-02 mag=      0.000
       N       E                     dE             d eps       ncg     rms          rms(c)
DAV:   1    -0.239220016596E+03   -0.50484E-02   -0.63760E-02  6016   0.208E+00    0.233E-01
RMM:   2    -0.239224785363E+03   -0.47688E-02   -0.45541E-02  5044   0.455E-01    0.330E-01
RMM:   3    -0.239225716493E+03   -0.93113E-03   -0.95506E-03  3288   0.205E-01
    153 T=   897. E= -.23761682E+03 F= -.23922572E+03 E0= -.23922572E+03  EK= 0.73054E+01 SP= -.57E+01 SK= 0.56E-02 mag=      0.000
       N       E                     dE             d eps       ncg     rms          rms(c)
DAV:   1    -0.239230049723E+03   -0.52644E-02   -0.49601E-02  6016   0.210E+00    0.668E-01
RMM:   2    -0.239234720059E+03   -0.46703E-02   -0.44773E-02  5097   0.449E-01    0.611E-01
RMM:   3    -0.239235552996E+03   -0.83294E-03   -0.92940E-03  3249   0.200E-01
    154 T=   892. E= -.23760663E+03 F= -.23923555E+03 E0= -.23923555E+03  EK= 0.72671E+01 SP= -.56E+01 SK= 0.12E-01 mag=     -0.000
       N       E                     dE             d eps       ncg     rms          rms(c)
DAV:   1    -0.239239211021E+03   -0.44910E-02   -0.67015E-02  6032   0.209E+00    0.203E+00
RMM:   2    -0.239243223760E+03   -0.40127E-02   -0.46574E-02  5095   0.448E-01    0.958E-01
RMM:   3    -0.239243768631E+03   -0.54487E-03   -0.98729E-03  3334   0.206E-01
    155 T=   885. E= -.23759703E+03 F= -.23924377E+03 E0= -.23924377E+03  EK= 0.72064E+01 SP= -.56E+01 SK= 0.20E-01 mag=     -0.000
       N       E                     dE             d eps       ncg     rms          rms(c)
DAV:   1    -0.239245473042E+03   -0.22493E-02   -0.60077E-02  5984   0.207E+00    0.468E-01
RMM:   2    -0.239250421010E+03   -0.49480E-02   -0.48595E-02  5072   0.458E-01    0.500E-01
RMM:   3    -0.239251258112E+03   -0.83710E-03   -0.93534E-03  3318   0.208E-01
    156 T=   875. E= -.23758701E+03 F= -.23925126E+03 E0= -.23925126E+03  EK= 0.71273E+01 SP= -.55E+01 SK= 0.28E-01 mag=     -0.000
       N       E                     dE             d eps       ncg     rms          rms(c)
DAV:   1    -0.239255651474E+03   -0.52305E-02   -0.50349E-02  5984   0.204E+00    0.194E+00
RMM:   2    -0.239258124257E+03   -0.24728E-02   -0.42560E-02  4990   0.441E-01    0.137E+00
RMM:   3    -0.239258199885E+03   -0.75627E-04   -0.12352E-02  3425   0.219E-01
    157 T=   864. E= -.23757620E+03 F= -.23925820E+03 E0= -.23925820E+03  EK= 0.70333E+01 SP= -.54E+01 SK= 0.37E-01 mag=      0.000
       N       E                     dE             d eps       ncg     rms          rms(c)
DAV:   1    -0.239271115770E+03   -0.12992E-01   -0.60018E-02  6032   0.206E+00    0.292E+00
RMM:   2    -0.239269280052E+03    0.18357E-02   -0.49887E-02  4973   0.458E-01    0.150E+00
RMM:   3    -0.239268498455E+03    0.78160E-03   -0.17668E-02  4229   0.248E-01
    158 T=   851. E= -.23756534E+03 F= -.23926850E+03 E0= -.23926850E+03  EK= 0.69305E+01 SP= -.53E+01 SK= 0.45E-01 mag=      0.000
       N       E                     dE             d eps       ncg     rms          rms(c)
DAV:   1    -0.239285346121E+03   -0.16066E-01   -0.69649E-02  6216   0.207E+00    0.632E-01
RMM:   2    -0.239285786052E+03   -0.43993E-03   -0.53574E-02  4794   0.501E-01    0.568E-01
RMM:   3    -0.239286051999E+03   -0.26595E-03   -0.13426E-02  3922   0.245E-01
    159 T=   838. E= -.23755449E+03 F= -.23928605E+03 E0= -.23928605E+03  EK= 0.68260E+01 SP= -.51E+01 SK= 0.52E-01 mag=     -0.000
       N       E                     dE             d eps       ncg     rms          rms(c)
DAV:   1    -0.239310654427E+03   -0.24868E-01   -0.81155E-02  6256   0.202E+00    0.664E-01
RMM:   2    -0.239314836457E+03   -0.41820E-02   -0.49798E-02  4853   0.478E-01    0.591E-01
RMM:   3    -0.239315522508E+03   -0.68605E-03   -0.96584E-03  3495   0.216E-01
    160 T=   826. E= -.23754327E+03 F= -.23931552E+03 E0= -.23931552E+03  EK= 0.67277E+01 SP= -.50E+01 SK= 0.58E-01 mag=      0.000
       N       E                     dE             d eps       ncg     rms          rms(c)
DAV:   1    -0.239355492962E+03   -0.40657E-01   -0.62203E-02  6096   0.198E+00    0.658E-01
RMM:   2    -0.239360835551E+03   -0.53426E-02   -0.55942E-02  4929   0.477E-01    0.299E-01
RMM:   3    -0.239361798254E+03   -0.96270E-03   -0.10550E-02  3518   0.221E-01
    161 T=   816. E= -.23753266E+03 F= -.23936180E+03 E0= -.23936180E+03  EK= 0.66421E+01 SP= -.49E+01 SK= 0.61E-01 mag=      0.000
       N       E                     dE             d eps       ncg     rms          rms(c)
DAV:   1    -0.239423665648E+03   -0.62830E-01   -0.59061E-02  5952   0.197E+00    0.670E-01
RMM:   2    -0.239427261943E+03   -0.35963E-02   -0.46914E-02  4857   0.453E-01    0.297E-01
RMM:   3    -0.239428179565E+03   -0.91762E-03   -0.10468E-02  3504   0.213E-01
    162 T=   807. E= -.23752156E+03 F= -.23942818E+03 E0= -.23942818E+03  EK= 0.65755E+01 SP= -.47E+01 SK= 0.63E-01 mag=     -0.000
       N       E                     dE             d eps       ncg     rms          rms(c)
DAV:   1    -0.239513153940E+03   -0.85892E-01   -0.40654E-02  5872   0.195E+00    0.305E-01
RMM:   2    -0.239516802942E+03   -0.36490E-02   -0.40658E-02  4932   0.438E-01    0.146E-01
RMM:   3    -0.239517600522E+03   -0.79758E-03   -0.89929E-03  3273   0.202E-01
    163 T=   802. E= -.23750972E+03 F= -.23951760E+03 E0= -.23951760E+03  EK= 0.65323E+01 SP= -.46E+01 SK= 0.64E-01 mag=     -0.000
       N       E                     dE             d eps       ncg     rms          rms(c)
DAV:   1    -0.239624358168E+03   -0.10756E+00   -0.47470E-02  5824   0.195E+00    0.315E-01
RMM:   2    -0.239628589853E+03   -0.42317E-02   -0.40734E-02  5028   0.436E-01    0.272E-01
RMM:   3    -0.239629421353E+03   -0.83150E-03   -0.86855E-03  3194   0.196E-01
    164 T=   800. E= -.23749866E+03 F= -.23962942E+03 E0= -.23962942E+03  EK= 0.65111E+01 SP= -.44E+01 SK= 0.64E-01 mag=     -0.000
       N       E                     dE             d eps       ncg     rms          rms(c)
DAV:   1    -0.239756268237E+03   -0.12768E+00   -0.50263E-02  5928   0.197E+00    0.303E-01
RMM:   2    -0.239760061891E+03   -0.37937E-02   -0.36541E-02  5036   0.420E-01    0.164E-01
RMM:   3    -0.239760876746E+03   -0.81486E-03   -0.84719E-03  3164   0.190E-01
    165 T=   799. E= -.23748821E+03 F= -.23976088E+03 E0= -.23976088E+03  EK= 0.65092E+01 SP= -.43E+01 SK= 0.64E-01 mag=      0.000
       N       E                     dE             d eps       ncg     rms          rms(c)
DAV:   1    -0.239903181378E+03   -0.14312E+00   -0.45650E-02  5888   0.194E+00    0.315E-01
RMM:   2    -0.239907043660E+03   -0.38623E-02   -0.36122E-02  5042   0.418E-01    0.191E-01
RMM:   3    -0.239907815354E+03   -0.77169E-03   -0.80033E-03  3104   0.185E-01
    166 T=   801. E= -.23747764E+03 F= -.23990782E+03 E0= -.23990782E+03  EK= 0.65230E+01 SP= -.42E+01 SK= 0.64E-01 mag=      0.000
       N       E                     dE             d eps       ncg     rms          rms(c)
DAV:   1    -0.240059857517E+03   -0.15281E+00   -0.45975E-02  5784   0.197E+00    0.246E-01
RMM:   2    -0.240064002092E+03   -0.41446E-02   -0.37791E-02  5091   0.419E-01    0.190E-01
RMM:   3    -0.240064807114E+03   -0.80502E-03   -0.80394E-03  3102   0.188E-01
    167 T=   804. E= -.23746690E+03 F= -.24006481E+03 E0= -.24006481E+03  EK= 0.65463E+01 SP= -.40E+01 SK= 0.65E-01 mag=     -0.000
       N       E                     dE             d eps       ncg     rms          rms(c)
DAV:   1    -0.240220087858E+03   -0.15609E+00   -0.54797E-02  6016   0.197E+00    0.184E-01
RMM:   2    -0.240224365022E+03   -0.42772E-02   -0.39494E-02  5044   0.424E-01    0.195E-01
RMM:   3    -0.240225174311E+03   -0.80929E-03   -0.83154E-03  3203   0.191E-01
    168 T=   807. E= -.23745618E+03 F= -.24022517E+03 E0= -.24022517E+03  EK= 0.65717E+01 SP= -.39E+01 SK= 0.66E-01 mag=     -0.000
       N       E                     dE             d eps       ncg     rms          rms(c)
DAV:   1    -0.240377885523E+03   -0.15352E+00   -0.41813E-02  5744   0.197E+00    0.195E-01
RMM:   2    -0.240382067463E+03   -0.41819E-02   -0.37683E-02  5040   0.413E-01    0.257E-01
RMM:   3    -0.240382847330E+03   -0.77987E-03   -0.77740E-03  3071   0.185E-01
    169 T=   810. E= -.23744558E+03 F= -.24038285E+03 E0= -.24038285E+03  EK= 0.65923E+01 SP= -.37E+01 SK= 0.67E-01 mag=     -0.000
       N       E                     dE             d eps       ncg     rms          rms(c)
DAV:   1    -0.240527737970E+03   -0.14567E+00   -0.44484E-02  5864   0.197E+00    0.217E-01
RMM:   2    -0.240531749411E+03   -0.40114E-02   -0.36049E-02  5027   0.413E-01    0.286E-01
RMM:   3    -0.240532529724E+03   -0.78031E-03   -0.77906E-03  3102   0.182E-01
    170 T=   811. E= -.23743534E+03 F= -.24053253E+03 E0= -.24053253E+03  EK= 0.66023E+01 SP= -.36E+01 SK= 0.69E-01 mag=      0.000
       N       E                     dE             d eps       ncg     rms          rms(c)
DAV:   1    -0.240662524779E+03   -0.13078E+00   -0.39815E-02  5688   0.199E+00    0.218E-01
RMM:   2    -0.240666445769E+03   -0.39210E-02   -0.35765E-02  5023   0.418E-01    0.296E-01
RMM:   3    -0.240667228576E+03   -0.78281E-03   -0.78454E-03  3065   0.183E-01
    171 T=   810. E= -.23742486E+03 F= -.24066723E+03 E0= -.24066723E+03  EK= 0.65954E+01 SP= -.34E+01 SK= 0.71E-01 mag=     -0.000
       N       E                     dE             d eps       ncg     rms          rms(c)
DAV:   1    -0.240779069115E+03   -0.11262E+00   -0.34505E-02  5792   0.200E+00    0.326E-01
RMM:   2    -0.240782998605E+03   -0.39295E-02   -0.35676E-02  5076   0.419E-01    0.341E-01
RMM:   3    -0.240783737460E+03   -0.73885E-03   -0.74745E-03  3056   0.180E-01
    172 T=   807. E= -.23741422E+03 F= -.24078374E+03 E0= -.24078374E+03  EK= 0.65687E+01 SP= -.33E+01 SK= 0.73E-01 mag=     -0.000
       N       E                     dE             d eps       ncg     rms          rms(c)
DAV:   1    -0.240875604316E+03   -0.92606E-01   -0.42181E-02  5624   0.196E+00    0.301E-01
RMM:   2    -0.240879655193E+03   -0.40509E-02   -0.36538E-02  5036   0.406E-01    0.283E-01
RMM:   3    -0.240880392519E+03   -0.73733E-03   -0.75640E-03  3076   0.182E-01
    173 T=   801. E= -.23740370E+03 F= -.24088039E+03 E0= -.24088039E+03  EK= 0.65217E+01 SP= -.31E+01 SK= 0.73E-01 mag=      0.000
       N       E                     dE             d eps       ncg     rms          rms(c)
DAV:   1    -0.240951532486E+03   -0.71877E-01   -0.30982E-02  5488   0.194E+00    0.366E-01
RMM:   2    -0.240955449634E+03   -0.39171E-02   -0.35029E-02  5046   0.397E-01    0.115E-01
RMM:   3    -0.240956156603E+03   -0.70697E-03   -0.71633E-03  2996   0.176E-01
    174 T=   792. E= -.23739528E+03 F= -.24095616E+03 E0= -.24095616E+03  EK= 0.64528E+01 SP= -.30E+01 SK= 0.73E-01 mag=      0.000
       N       E                     dE             d eps       ncg     rms          rms(c)
DAV:   1    -0.241005192578E+03   -0.49743E-01   -0.41084E-02  5744   0.192E+00    0.506E-01
RMM:   2    -0.241009113691E+03   -0.39211E-02   -0.35934E-02  5020   0.391E-01    0.163E-01
RMM:   3    -0.241009802235E+03   -0.68854E-03   -0.72602E-03  3055   0.175E-01
    175 T=   782. E= -.23738683E+03 F= -.24100980E+03 E0= -.24100980E+03  EK= 0.63652E+01 SP= -.28E+01 SK= 0.70E-01 mag=      0.000
       N       E                     dE             d eps       ncg     rms          rms(c)
DAV:   1    -0.241036606401E+03   -0.27493E-01   -0.47899E-02  5760   0.193E+00    0.209E-01
RMM:   2    -0.241040741105E+03   -0.41347E-02   -0.37318E-02  5036   0.406E-01    0.163E-01
RMM:   3    -0.241041499372E+03   -0.75827E-03   -0.76157E-03  3072   0.179E-01
    176 T=   769. E= -.23737655E+03 F= -.24104150E+03 E0= -.24104150E+03  EK= 0.62633E+01 SP= -.27E+01 SK= 0.66E-01 mag=     -0.000
       N       E                     dE             d eps       ncg     rms          rms(c)
DAV:   1    -0.241048848196E+03   -0.81071E-02   -0.48501E-02  5728   0.189E+00    0.304E-01
RMM:   2    -0.241052794664E+03   -0.39465E-02   -0.36010E-02  4993   0.393E-01    0.357E-01
RMM:   3    -0.241053515780E+03   -0.72112E-03   -0.73190E-03  3119   0.174E-01
    177 T=   755. E= -.23736633E+03 F= -.24105352E+03 E0= -.24105352E+03  EK= 0.61500E+01 SP= -.25E+01 SK= 0.59E-01 mag=     -0.000
       N       E                     dE             d eps       ncg     rms          rms(c)
DAV:   1    -0.241042134404E+03    0.10660E-01   -0.41591E-02  5840   0.188E+00    0.858E-01
RMM:   2    -0.241046173905E+03   -0.40395E-02   -0.38175E-02  5053   0.398E-01    0.700E-01
RMM:   3    -0.241046772372E+03   -0.59847E-03   -0.76691E-03  3042   0.182E-01
    178 T=   740. E= -.23735630E+03 F= -.24104677E+03 E0= -.24104677E+03  EK= 0.60286E+01 SP= -.24E+01 SK= 0.50E-01 mag=      0.000
       N       E                     dE             d eps       ncg     rms          rms(c)
DAV:   1    -0.241019204284E+03    0.26970E-01   -0.61602E-02  5920   0.187E+00    0.209E+00
RMM:   2    -0.241022413366E+03   -0.32091E-02   -0.40819E-02  4976   0.403E-01    0.103E+00
RMM:   3    -0.241022990240E+03   -0.57687E-03   -0.92295E-03  3308   0.190E-01
    179 T=   725. E= -.23734770E+03 F= -.24102299E+03 E0= -.24102299E+03  EK= 0.59023E+01 SP= -.23E+01 SK= 0.40E-01 mag=     -0.000
       N       E                     dE             d eps       ncg     rms          rms(c)
DAV:   1    -0.240979314533E+03    0.43099E-01   -0.48299E-02  5664   0.186E+00    0.488E-01
RMM:   2    -0.240982978888E+03   -0.36644E-02   -0.39107E-02  5008   0.410E-01    0.473E-01
RMM:   3    -0.240983613907E+03   -0.63502E-03   -0.75251E-03  3117   0.180E-01
    180 T=   709. E= -.23733846E+03 F= -.24098361E+03 E0= -.24098361E+03  EK= 0.57770E+01 SP= -.22E+01 SK= 0.29E-01 mag=     -0.000
       N       E                     dE             d eps       ncg     rms          rms(c)
DAV:   1    -0.240927349833E+03    0.55629E-01   -0.57182E-02  6016   0.180E+00    0.438E-01
RMM:   2    -0.240930998307E+03   -0.36485E-02   -0.38634E-02  4994   0.401E-01    0.203E-01
RMM:   3    -0.240931593871E+03   -0.59556E-03   -0.76432E-03  3152   0.177E-01
    181 T=   695. E= -.23732937E+03 F= -.24093159E+03 E0= -.24093159E+03  EK= 0.56568E+01 SP= -.21E+01 SK= 0.19E-01 mag=     -0.000
       N       E                     dE             d eps       ncg     rms          rms(c)
DAV:   1    -0.240863547768E+03    0.67451E-01   -0.43198E-02  5736   0.180E+00    0.269E-01
RMM:   2    -0.240867965173E+03   -0.44174E-02   -0.43643E-02  5002   0.405E-01    0.263E-01
RMM:   3    -0.240868717702E+03   -0.75253E-03   -0.80558E-03  3217   0.183E-01
    182 T=   681. E= -.23732234E+03 F= -.24086872E+03 E0= -.24086872E+03  EK= 0.55434E+01 SP= -.20E+01 SK= 0.93E-02 mag=     -0.000
       N       E                     dE             d eps       ncg     rms          rms(c)
DAV:   1    -0.240795130042E+03    0.72835E-01   -0.49558E-02  5912   0.180E+00    0.339E-01
RMM:   2    -0.240797150046E+03   -0.20200E-02   -0.35981E-02  4942   0.393E-01    0.366E-01
RMM:   3    -0.240797670588E+03   -0.52054E-03   -0.73562E-03  3161   0.175E-01
    183 T=   669. E= -.23731453E+03 F= -.24079767E+03 E0= -.24079767E+03  EK= 0.54440E+01 SP= -.20E+01 SK= 0.27E-02 mag=      0.000
       N       E                     dE             d eps       ncg     rms          rms(c)
DAV:   1    -0.240716710563E+03    0.80439E-01   -0.35851E-02  5816   0.174E+00    0.387E-01
RMM:   2    -0.240719779204E+03   -0.30686E-02   -0.31950E-02  5005   0.381E-01
    184 T=   659. E= -.23729741E+03 F= -.24071978E+03 E0= -.24071978E+03  EK= 0.53696E+01 SP= -.19E+01 SK= 0.15E-04 mag=      0.000
       N       E                     dE             d eps       ncg     rms          rms(c)
DAV:   1    -0.240632322176E+03    0.84388E-01   -0.69615E-02  6232   0.189E+00    0.635E-01
RMM:   2    -0.240637667392E+03   -0.53452E-02   -0.61842E-02  4936   0.503E-01    0.121E-01
RMM:   3    -0.240639055162E+03   -0.13878E-02   -0.14464E-02  3997   0.256E-01
    185 T=   652. E= -.23728358E+03 F= -.24063906E+03 E0= -.24063906E+03  EK= 0.53124E+01 SP= -.20E+01 SK= 0.22E-02 mag=      0.000
       N       E                     dE             d eps       ncg     rms          rms(c)
DAV:   1    -0.240553451085E+03    0.84216E-01   -0.55658E-02  5888   0.179E+00    0.263E-01
RMM:   2    -0.240556313588E+03   -0.28625E-02   -0.35515E-02  4540   0.418E-01    0.178E-01
RMM:   3    -0.240557458796E+03   -0.11452E-02   -0.13399E-02  4147   0.213E-01
    186 T=   647. E= -.23727991E+03 F= -.24055746E+03 E0= -.24055746E+03  EK= 0.52682E+01 SP= -.20E+01 SK= 0.10E-01 mag=     -0.000
       N       E                     dE             d eps       ncg     rms          rms(c)
DAV:   1    -0.240473634231E+03    0.82679E-01   -0.39267E-02  5960   0.174E+00    0.200E-01
RMM:   2    -0.240477467508E+03   -0.38333E-02   -0.37300E-02  4927   0.410E-01    0.209E-01
RMM:   3    -0.240478186778E+03   -0.71927E-03   -0.75690E-03  3120   0.187E-01
    187 T=   645. E= -.23727584E+03 F= -.24047819E+03 E0= -.24047819E+03  EK= 0.52514E+01 SP= -.21E+01 SK= 0.24E-01 mag=     -0.000
       N       E                     dE             d eps       ncg     rms          rms(c)
DAV:   1    -0.240400062493E+03    0.77405E-01   -0.48309E-02  5928   0.174E+00    0.265E-01
RMM:   2    -0.240403893678E+03   -0.38312E-02   -0.37221E-02  4977   0.410E-01    0.188E-01
RMM:   3    -0.240404674736E+03   -0.78106E-03   -0.80918E-03  3234   0.183E-01
    188 T=   647. E= -.23726978E+03 F= -.24040467E+03 E0= -.24040467E+03  EK= 0.52676E+01 SP= -.22E+01 SK= 0.44E-01 mag=     -0.000
       N       E                     dE             d eps       ncg     rms          rms(c)
DAV:   1    -0.240335674361E+03    0.68219E-01   -0.52887E-02  5888   0.178E+00    0.267E-01
RMM:   2    -0.240339618983E+03   -0.39446E-02   -0.37512E-02  5070   0.417E-01    0.194E-01
RMM:   3    -0.240340432670E+03   -0.81369E-03   -0.83796E-03  3256   0.188E-01
    189 T=   653. E= -.23726451E+03 F= -.24034043E+03 E0= -.24034043E+03  EK= 0.53179E+01 SP= -.23E+01 SK= 0.69E-01 mag=      0.000
       N       E                     dE             d eps       ncg     rms          rms(c)
DAV:   1    -0.240283197345E+03    0.56422E-01   -0.47322E-02  5904   0.179E+00    0.224E-01
RMM:   2    -0.240286967325E+03   -0.37700E-02   -0.36521E-02  4967   0.398E-01    0.237E-01
RMM:   3    -0.240287582699E+03   -0.61537E-03   -0.66592E-03  3066   0.173E-01
    190 T=   664. E= -.23725973E+03 F= -.24028758E+03 E0= -.24028758E+03  EK= 0.54049E+01 SP= -.25E+01 SK= 0.98E-01 mag=      0.000
       N       E                     dE             d eps       ncg     rms          rms(c)
DAV:   1    -0.240243946283E+03    0.43021E-01   -0.58207E-02  5888   0.178E+00    0.204E-01
RMM:   2    -0.240248226606E+03   -0.42803E-02   -0.40489E-02  5004   0.408E-01    0.292E-01
RMM:   3    -0.240248944836E+03   -0.71823E-03   -0.75401E-03  3197   0.178E-01
    191 T=   679. E= -.23725462E+03 F= -.24024894E+03 E0= -.24024894E+03  EK= 0.55320E+01 SP= -.27E+01 SK= 0.13E+00 mag=      0.000
       N       E                     dE             d eps       ncg     rms          rms(c)
DAV:   1    -0.240221372742E+03    0.26854E-01   -0.49806E-02  5872   0.185E+00    0.362E-01
RMM:   2    -0.240225268136E+03   -0.38954E-02   -0.37793E-02  5018   0.414E-01    0.402E-01
RMM:   3    -0.240225986033E+03   -0.71790E-03   -0.75754E-03  3120   0.180E-01
    192 T=   700. E= -.23724958E+03 F= -.24022599E+03 E0= -.24022599E+03  EK= 0.57001E+01 SP= -.29E+01 SK= 0.16E+00 mag=     -0.000
       N       E                     dE             d eps       ncg     rms          rms(c)
DAV:   1    -0.240213652911E+03    0.11615E-01   -0.52372E-02  5984   0.191E+00    0.124E+00
RMM:   2    -0.240217138350E+03   -0.34854E-02   -0.38261E-02  5049   0.429E-01    0.936E-01
RMM:   3    -0.240217560925E+03   -0.42258E-03   -0.84405E-03  3220   0.198E-01
    193 T=   725. E= -.23724368E+03 F= -.24021756E+03 E0= -.24021756E+03  EK= 0.59076E+01 SP= -.31E+01 SK= 0.18E+00 mag=      0.000
       N       E                     dE             d eps       ncg     rms          rms(c)
DAV:   1    -0.240219222616E+03   -0.20843E-02   -0.55769E-02  5992   0.191E+00    0.278E+00
RMM:   2    -0.240220487094E+03   -0.12645E-02   -0.39973E-02  5048   0.448E-01    0.142E+00
RMM:   3    -0.240220652427E+03   -0.16533E-03   -0.11734E-02  3461   0.229E-01
    194 T=   755. E= -.23723904E+03 F= -.24022065E+03 E0= -.24022065E+03  EK= 0.61473E+01 SP= -.34E+01 SK= 0.20E+00 mag=      0.000
       N       E                     dE             d eps       ncg     rms          rms(c)
DAV:   1    -0.240227571339E+03   -0.70842E-02   -0.77016E-02  5912   0.201E+00    0.724E-01
RMM:   2    -0.240230714290E+03   -0.31430E-02   -0.48700E-02  4721   0.519E-01    0.604E-01
RMM:   3    -0.240231726764E+03   -0.10125E-02   -0.16283E-02  4405   0.257E-01
    195 T=   787. E= -.23723553E+03 F= -.24023173E+03 E0= -.24023173E+03  EK= 0.64122E+01 SP= -.36E+01 SK= 0.21E+00 mag=     -0.000
       N       E                     dE             d eps       ncg     rms          rms(c)
DAV:   1    -0.240242396907E+03   -0.11683E-01   -0.83132E-02  6152   0.193E+00    0.575E-01
RMM:   2    -0.240244405697E+03   -0.20088E-02   -0.45654E-02  4500   0.467E-01    0.203E-01
RMM:   3    -0.240245231332E+03   -0.82563E-03   -0.14783E-02  4248   0.236E-01
    196 T=   822. E= -.23723190E+03 F= -.24024523E+03 E0= -.24024523E+03  EK= 0.66930E+01 SP= -.39E+01 SK= 0.21E+00 mag=     -0.000
       N       E                     dE             d eps       ncg     rms          rms(c)
DAV:   1    -0.240248303241E+03   -0.38975E-02   -0.70192E-02  5984   0.204E+00    0.258E-01
RMM:   2    -0.240253787793E+03   -0.54846E-02   -0.55196E-02  4742   0.475E-01    0.295E-01
RMM:   3    -0.240254895432E+03   -0.11076E-02   -0.12320E-02  4072   0.232E-01
    197 T=   857. E= -.23722923E+03 F= -.24025490E+03 E0= -.24025490E+03  EK= 0.69757E+01 SP= -.41E+01 SK= 0.20E+00 mag=     -0.000
       N       E                     dE             d eps       ncg     rms          rms(c)
DAV:   1    -0.240252341048E+03    0.14467E-02   -0.73752E-02  6048   0.209E+00    0.559E-01
RMM:   2    -0.240254742200E+03   -0.24012E-02   -0.50843E-02  4735   0.460E-01    0.532E-01
RMM:   3    -0.240255485362E+03   -0.74316E-03   -0.13765E-02  4009   0.234E-01
    198 T=   891. E= -.23722192E+03 F= -.24025549E+03 E0= -.24025549E+03  EK= 0.72525E+01 SP= -.44E+01 SK= 0.18E+00 mag=      0.000
       N       E                     dE             d eps       ncg     rms          rms(c)
DAV:   1    -0.240240341766E+03    0.14400E-01   -0.78452E-02  6144   0.207E+00    0.131E+00
RMM:   2    -0.240242237850E+03   -0.18961E-02   -0.47614E-02  4772   0.452E-01    0.525E-01
RMM:   3    -0.240242649978E+03   -0.41213E-03   -0.13338E-02  3920   0.234E-01
    199 T=   922. E= -.23721449E+03 F= -.24024265E+03 E0= -.24024265E+03  EK= 0.75054E+01 SP= -.46E+01 SK= 0.15E+00 mag=      0.000
       N       E                     dE             d eps       ncg     rms          rms(c)
DAV:   1    -0.240206187953E+03    0.36050E-01   -0.71749E-02  5952   0.217E+00    0.495E-01
RMM:   2    -0.240211880074E+03   -0.56921E-02   -0.56615E-02  4900   0.491E-01    0.263E-01
RMM:   3    -0.240212715963E+03   -0.83589E-03   -0.10683E-02  3642   0.225E-01
    200 T=   948. E= -.23720816E+03 F= -.24021272E+03 E0= -.24021272E+03  EK= 0.77198E+01 SP= -.48E+01 SK= 0.11E+00 mag=     -0.000
       N       E                     dE             d eps       ncg     rms          rms(c)
DAV:   1    -0.240158711949E+03    0.53168E-01   -0.81409E-02  6120   0.217E+00    0.389E-01
RMM:   2    -0.240163941056E+03   -0.52291E-02   -0.56078E-02  4932   0.471E-01    0.470E-01
RMM:   3    -0.240164984869E+03   -0.10438E-02   -0.10949E-02  3567   0.222E-01
    201 T=   969. E= -.23719571E+03 F= -.24016498E+03 E0= -.24016498E+03  EK= 0.78931E+01 SP= -.50E+01 SK= 0.77E-01 mag=     -0.000
       N       E                     dE             d eps       ncg     rms          rms(c)
DAV:   1    -0.240096041738E+03    0.67899E-01   -0.84395E-02  5920   0.214E+00    0.954E-01
RMM:   2    -0.240101098861E+03   -0.50571E-02   -0.56685E-02  4964   0.483E-01    0.815E-01
RMM:   3    -0.240102012285E+03   -0.91342E-03   -0.12821E-02  3670   0.232E-01
    202 T=   984. E= -.23718318E+03 F= -.24010201E+03 E0= -.24010201E+03  EK= 0.80136E+01 SP= -.51E+01 SK= 0.46E-01 mag=      0.000
       N       E                     dE             d eps       ncg     rms          rms(c)
DAV:   1    -0.240019862003E+03    0.81237E-01   -0.96779E-02  6024   0.225E+00    0.263E+00
RMM:   2    -0.240024713712E+03   -0.48517E-02   -0.62223E-02  4967   0.503E-01    0.125E+00
RMM:   3    -0.240024982921E+03   -0.26921E-03   -0.14697E-02  3773   0.242E-01
    203 T=   992. E= -.23716981E+03 F= -.24002498E+03 E0= -.24002498E+03  EK= 0.80773E+01 SP= -.52E+01 SK= 0.22E-01 mag=      0.000
       N       E                     dE             d eps       ncg     rms          rms(c)
DAV:   1    -0.239932898484E+03    0.91815E-01   -0.11457E-01  6184   0.214E+00    0.571E-01
RMM:   2    -0.239937909418E+03   -0.50109E-02   -0.60494E-02  4894   0.497E-01    0.630E-01
RMM:   3    -0.239938790971E+03   -0.88155E-03   -0.11652E-02  3626   0.231E-01
    204 T=   993. E= -.23715477E+03 F= -.23993879E+03 E0= -.23993879E+03  EK= 0.80864E+01 SP= -.53E+01 SK= 0.64E-02 mag=     -0.000
       N       E                     dE             d eps       ncg     rms          rms(c)
DAV:   1    -0.239841389240E+03    0.96520E-01   -0.77438E-02  6024   0.214E+00    0.196E+00
RMM:   2    -0.239845845293E+03   -0.44561E-02   -0.58727E-02  4951   0.481E-01    0.142E+00
RMM:   3    -0.239846593355E+03   -0.74806E-03   -0.14206E-02  3607   0.236E-01
    205 T=   987. E= -.23714206E+03 F= -.23984659E+03 E0= -.23984659E+03  EK= 0.80391E+01 SP= -.53E+01 SK= 0.16E-03 mag=      0.000
       N       E                     dE             d eps       ncg     rms          rms(c)
DAV:   1    -0.239755341901E+03    0.90503E-01   -0.72628E-02  5984   0.221E+00    0.304E+00
RMM:   2    -0.239754028823E+03    0.13131E-02   -0.61281E-02  4886   0.486E-01    0.156E+00
RMM:   3    -0.239753795779E+03    0.23304E-03   -0.22176E-02  4370   0.266E-01
    206 T=   976. E= -.23712505E+03 F= -.23975380E+03 E0= -.23975380E+03  EK= 0.79491E+01 SP= -.53E+01 SK= 0.27E-02 mag=      0.000
       N       E                     dE             d eps       ncg     rms          rms(c)
DAV:   1    -0.239664616386E+03    0.89412E-01   -0.94271E-02  6216   0.212E+00    0.635E-01
RMM:   2    -0.239663844034E+03    0.77235E-03   -0.57627E-02  4510   0.522E-01    0.515E-01
RMM:   3    -0.239664454849E+03   -0.61082E-03   -0.22347E-02  4680   0.287E-01
    207 T=   960. E= -.23710807E+03 F= -.23966445E+03 E0= -.23966445E+03  EK= 0.78199E+01 SP= -.53E+01 SK= 0.12E-01 mag=     -0.000
       N       E                     dE             d eps       ncg     rms          rms(c)
DAV:   1    -0.239575948350E+03    0.87896E-01   -0.73266E-02  6056   0.213E+00    0.793E-01
RMM:   2    -0.239581341229E+03   -0.53929E-02   -0.59335E-02  4707   0.507E-01    0.715E-01
RMM:   3    -0.239582243099E+03   -0.90187E-03   -0.12263E-02  3798   0.240E-01
    208 T=   940. E= -.23709605E+03 F= -.23958224E+03 E0= -.23958224E+03  EK= 0.76558E+01 SP= -.52E+01 SK= 0.27E-01 mag=      0.000
       N       E                     dE             d eps       ncg     rms          rms(c)
DAV:   1    -0.239503484180E+03    0.77857E-01   -0.10082E-01  6312   0.207E+00    0.139E+00
RMM:   2    -0.239509333586E+03   -0.58494E-02   -0.55651E-02  4862   0.488E-01    0.559E-01
RMM:   3    -0.239510216580E+03   -0.88299E-03   -0.11505E-02  3687   0.231E-01
    209 T=   918. E= -.23708199E+03 F= -.23951022E+03 E0= -.23951022E+03  EK= 0.74734E+01 SP= -.51E+01 SK= 0.44E-01 mag=      0.000
       N       E                     dE             d eps       ncg     rms          rms(c)
DAV:   1    -0.239444213712E+03    0.65120E-01   -0.68960E-02  5976   0.208E+00    0.502E-01
RMM:   2    -0.239450592677E+03   -0.63790E-02   -0.58774E-02  4910   0.497E-01    0.271E-01
RMM:   3    -0.239451659807E+03   -0.10671E-02   -0.11643E-02  3624   0.230E-01
    210 T=   894. E= -.23706826E+03 F= -.23945166E+03 E0= -.23945166E+03  EK= 0.72803E+01 SP= -.50E+01 SK= 0.61E-01 mag=     -0.000
       N       E                     dE             d eps       ncg     rms          rms(c)
DAV:   1    -0.239401750065E+03    0.48843E-01   -0.75669E-02  6040   0.204E+00    0.327E-01
RMM:   2    -0.239406677294E+03   -0.49272E-02   -0.53442E-02  4895   0.468E-01    0.417E-01
RMM:   3    -0.239407776773E+03   -0.10995E-02   -0.11444E-02  3667   0.222E-01
    211 T=   870. E= -.23705395E+03 F= -.23940778E+03 E0= -.23940778E+03  EK= 0.70856E+01 SP= -.48E+01 SK= 0.77E-01 mag=     -0.000
       N       E                     dE             d eps       ncg     rms          rms(c)
DAV:   1    -0.239375612992E+03    0.31064E-01   -0.55206E-02  6032   0.200E+00    0.899E-01
RMM:   2    -0.239379700894E+03   -0.40879E-02   -0.43081E-02  4955   0.441E-01    0.753E-01
RMM:   3    -0.239380416121E+03   -0.71523E-03   -0.10379E-02  3393   0.209E-01
    212 T=   847. E= -.23704067E+03 F= -.23938042E+03 E0= -.23938042E+03  EK= 0.68957E+01 SP= -.46E+01 SK= 0.89E-01 mag=     -0.000
       N       E                     dE             d eps       ncg     rms          rms(c)
DAV:   1    -0.239367493375E+03    0.12208E-01   -0.70315E-02  6016   0.200E+00    0.227E+00
RMM:   2    -0.239370964329E+03   -0.34710E-02   -0.46682E-02  4978   0.444E-01    0.109E+00
RMM:   3    -0.239371286852E+03   -0.32252E-03   -0.11129E-02  3499   0.214E-01
    213 T=   825. E= -.23702882E+03 F= -.23937129E+03 E0= -.23937129E+03  EK= 0.67173E+01 SP= -.45E+01 SK= 0.96E-01 mag=      0.000
       N       E                     dE             d eps       ncg     rms          rms(c)
DAV:   1    -0.239374936913E+03   -0.39726E-02   -0.60020E-02  6120   0.199E+00    0.466E-01
RMM:   2    -0.239378826555E+03   -0.38896E-02   -0.45925E-02  5017   0.455E-01    0.484E-01
RMM:   3    -0.239379522898E+03   -0.69634E-03   -0.93843E-03  3290   0.209E-01
    214 T=   805. E= -.23701718E+03 F= -.23937952E+03 E0= -.23937952E+03  EK= 0.65556E+01 SP= -.43E+01 SK= 0.10E+00 mag=      0.000
       N       E                     dE             d eps       ncg     rms          rms(c)
DAV:   1    -0.239397296842E+03   -0.18470E-01   -0.63390E-02  6008   0.197E+00    0.940E-01
RMM:   2    -0.239401752862E+03   -0.44560E-02   -0.45597E-02  4995   0.443E-01    0.776E-01
RMM:   3    -0.239402492783E+03   -0.73992E-03   -0.90344E-03  3280   0.202E-01
    215 T=   787. E= -.23700542E+03 F= -.23940249E+03 E0= -.23940249E+03  EK= 0.64118E+01 SP= -.41E+01 SK= 0.99E-01 mag=     -0.000
       N       E                     dE             d eps       ncg     rms          rms(c)
DAV:   1    -0.239435967994E+03   -0.34215E-01   -0.47157E-02  5976   0.195E+00    0.177E+00
RMM:   2    -0.239438700521E+03   -0.27325E-02   -0.41574E-02  5063   0.438E-01    0.868E-01
RMM:   3    -0.239439296406E+03   -0.59588E-03   -0.10158E-02  3328   0.204E-01
    216 T=   772. E= -.23699533E+03 F= -.23943930E+03 E0= -.23943930E+03  EK= 0.62863E+01 SP= -.39E+01 SK= 0.94E-01 mag=     -0.000
       N       E                     dE             d eps       ncg     rms          rms(c)
DAV:   1    -0.239480573227E+03   -0.41873E-01   -0.55069E-02  6000   0.194E+00    0.381E-01
RMM:   2    -0.239484434472E+03   -0.38612E-02   -0.41093E-02  5039   0.430E-01    0.357E-01
RMM:   3    -0.239485120816E+03   -0.68634E-03   -0.81648E-03  3252   0.195E-01
    217 T=   759. E= -.23698536E+03 F= -.23948512E+03 E0= -.23948512E+03  EK= 0.61783E+01 SP= -.38E+01 SK= 0.87E-01 mag=      0.000
       N       E                     dE             d eps       ncg     rms          rms(c)
DAV:   1    -0.239532617090E+03   -0.48183E-01   -0.42272E-02  5840   0.190E+00    0.890E-01
RMM:   2    -0.239536237670E+03   -0.36206E-02   -0.40047E-02  4989   0.411E-01    0.711E-01
RMM:   3    -0.239536805881E+03   -0.56821E-03   -0.86496E-03  3141   0.193E-01
    218 T=   747. E= -.23697529E+03 F= -.23953681E+03 E0= -.23953681E+03  EK= 0.60867E+01 SP= -.36E+01 SK= 0.77E-01 mag=     -0.000
       N       E                     dE             d eps       ncg     rms          rms(c)
DAV:   1    -0.239589010978E+03   -0.52773E-01   -0.52911E-02  5952   0.189E+00    0.155E+00
RMM:   2    -0.239591172694E+03   -0.21617E-02   -0.39283E-02  5053   0.421E-01    0.724E-01
RMM:   3    -0.239591405478E+03   -0.23278E-03   -0.94813E-03  3276   0.198E-01
    219 T=   738. E= -.23696735E+03 F= -.23959141E+03 E0= -.23959141E+03  EK= 0.60078E+01 SP= -.35E+01 SK= 0.66E-01 mag=     -0.000
       N       E                     dE             d eps       ncg     rms          rms(c)
DAV:   1    -0.239639823603E+03   -0.48651E-01   -0.52875E-02  5968   0.193E+00    0.301E-01
RMM:   2    -0.239643464912E+03   -0.36413E-02   -0.40491E-02  5078   0.426E-01    0.305E-01
RMM:   3    -0.239644105607E+03   -0.64069E-03   -0.80896E-03  3173   0.192E-01
    220 T=   729. E= -.23695946E+03 F= -.23964411E+03 E0= -.23964411E+03  EK= 0.59402E+01 SP= -.33E+01 SK= 0.55E-01 mag=      0.000
       N       E                     dE             d eps       ncg     rms          rms(c)
DAV:   1    -0.239688910606E+03   -0.45446E-01   -0.48705E-02  5968   0.188E+00    0.758E-01
RMM:   2    -0.239692050339E+03   -0.31397E-02   -0.39574E-02  4985   0.408E-01    0.641E-01
RMM:   3    -0.239692536142E+03   -0.48580E-03   -0.80501E-03  3130   0.187E-01
    221 T=   723. E= -.23694946E+03 F= -.23969254E+03 E0= -.23969254E+03  EK= 0.58845E+01 SP= -.32E+01 SK= 0.43E-01 mag=     -0.000
       N       E                     dE             d eps       ncg     rms          rms(c)
DAV:   1    -0.239733416789E+03   -0.41366E-01   -0.46252E-02  5888   0.186E+00    0.143E+00
RMM:   2    -0.239734682421E+03   -0.12656E-02   -0.39154E-02  5051   0.409E-01    0.643E-01
RMM:   3    -0.239734619825E+03    0.62596E-04   -0.97900E-03  3255   0.197E-01
    222 T=   717. E= -.23694204E+03 F= -.23973462E+03 E0= -.23973462E+03  EK= 0.58350E+01 SP= -.31E+01 SK= 0.32E-01 mag=     -0.000
       N       E                     dE             d eps       ncg     rms          rms(c)
DAV:   1    -0.239764052624E+03   -0.29370E-01   -0.55314E-02  6040   0.191E+00    0.311E-01
RMM:   2    -0.239767745109E+03   -0.36925E-02   -0.43835E-02  5096   0.435E-01    0.302E-01
RMM:   3    -0.239768215763E+03   -0.47065E-03   -0.78215E-03  3151   0.194E-01
    223 T=   711. E= -.23693651E+03 F= -.23976822E+03 E0= -.23976822E+03  EK= 0.57908E+01 SP= -.30E+01 SK= 0.22E-01 mag=      0.000
       N       E                     dE             d eps       ncg     rms          rms(c)
DAV:   1    -0.239788276921E+03   -0.20532E-01   -0.53031E-02  5968   0.187E+00    0.725E-01
RMM:   2    -0.239790826259E+03   -0.25493E-02   -0.43432E-02  5043   0.414E-01    0.644E-01
RMM:   3    -0.239791282560E+03   -0.45630E-03   -0.83819E-03  3149   0.190E-01
    224 T=   707. E= -.23692675E+03 F= -.23979128E+03 E0= -.23979128E+03  EK= 0.57567E+01 SP= -.29E+01 SK= 0.14E-01 mag=     -0.000
       N       E                     dE             d eps       ncg     rms          rms(c)
DAV:   1    -0.239804132984E+03   -0.13307E-01   -0.48746E-02  6056   0.183E+00    0.135E+00
RMM:   2    -0.239803885586E+03    0.24740E-03   -0.36395E-02  5006   0.406E-01    0.596E-01
RMM:   3    -0.239803675414E+03    0.21017E-03   -0.10443E-02  3324   0.202E-01
    225 T=   703. E= -.23692009E+03 F= -.23980368E+03 E0= -.23980368E+03  EK= 0.57258E+01 SP= -.28E+01 SK= 0.69E-02 mag=     -0.000
       N       E                     dE             d eps       ncg     rms          rms(c)
DAV:   1    -0.239801225070E+03    0.26605E-02   -0.52154E-02  6096   0.191E+00    0.424E-01
RMM:   2    -0.239804778277E+03   -0.35532E-02   -0.45006E-02  5090   0.443E-01    0.310E-01
RMM:   3    -0.239805043566E+03   -0.26529E-03   -0.71819E-03  3075   0.189E-01
    226 T=   700. E= -.23691597E+03 F= -.23980504E+03 E0= -.23980504E+03  EK= 0.56986E+01 SP= -.28E+01 SK= 0.23E-02 mag=      0.000
       N       E                     dE             d eps       ncg     rms          rms(c)
DAV:   1    -0.239790878660E+03    0.13900E-01   -0.57321E-02  6184   0.186E+00    0.544E-01
RMM:   2    -0.239794090987E+03   -0.32123E-02   -0.46935E-02  4981   0.423E-01    0.557E-01
RMM:   3    -0.239794705819E+03   -0.61483E-03   -0.76677E-03  3135   0.188E-01
    227 T=   698. E= -.23690661E+03 F= -.23979471E+03 E0= -.23979471E+03  EK= 0.56826E+01 SP= -.28E+01 SK= 0.15E-03 mag=     -0.000
       N       E                     dE             d eps       ncg     rms          rms(c)
DAV:   1    -0.239771447850E+03    0.22643E-01   -0.46990E-02  5720   0.182E+00    0.695E-01
RMM:   2    -0.239773462368E+03   -0.20145E-02   -0.38522E-02  4985   0.412E-01    0.276E-01
RMM:   3    -0.239774035389E+03   -0.57302E-03   -0.86180E-03  3246   0.192E-01
    228 T=   697. E= -.23689924E+03 F= -.23977404E+03 E0= -.23977404E+03  EK= 0.56723E+01 SP= -.28E+01 SK= 0.59E-03 mag=     -0.000
       N       E                     dE             d eps       ncg     rms          rms(c)
DAV:   1    -0.239739047139E+03    0.34415E-01   -0.41912E-02  5944   0.187E+00    0.638E-01
RMM:   2    -0.239743052324E+03   -0.40052E-02   -0.41033E-02  5001   0.419E-01    0.243E-01
RMM:   3    -0.239743593367E+03   -0.54104E-03   -0.68032E-03  3042   0.178E-01
    229 T=   696. E= -.23689476E+03 F= -.23974359E+03 E0= -.23974359E+03  EK= 0.56674E+01 SP= -.28E+01 SK= 0.37E-02 mag=     -0.000
       N       E                     dE             d eps       ncg     rms          rms(c)
DAV:   1    -0.239701192852E+03    0.41859E-01   -0.53361E-02  5880   0.186E+00    0.252E-01
RMM:   2    -0.239705048047E+03   -0.38552E-02   -0.40205E-02  4983   0.406E-01    0.207E-01
RMM:   3    -0.239705742432E+03   -0.69438E-03   -0.74534E-03  3152   0.182E-01
    230 T=   697. E= -.23688711E+03 F= -.23970574E+03 E0= -.23970574E+03  EK= 0.56765E+01 SP= -.29E+01 SK= 0.96E-02 mag=      0.000
       N       E                     dE             d eps       ncg     rms          rms(c)
DAV:   1    -0.239658948375E+03    0.46100E-01   -0.38939E-02  5808   0.183E+00    0.355E-01
RMM:   2    -0.239662339079E+03   -0.33907E-02   -0.36315E-02  4981   0.396E-01    0.400E-01
RMM:   3    -0.239662984450E+03   -0.64537E-03   -0.68384E-03  3059   0.174E-01
    231 T=   700. E= -.23687810E+03 F= -.23966298E+03 E0= -.23966298E+03  EK= 0.57003E+01 SP= -.29E+01 SK= 0.18E-01 mag=      0.000
       N       E                     dE             d eps       ncg     rms          rms(c)
DAV:   1    -0.239614018455E+03    0.48321E-01   -0.40195E-02  5696   0.188E+00    0.656E-01
RMM:   2    -0.239617546437E+03   -0.35280E-02   -0.34818E-02  5035   0.407E-01    0.593E-01
RMM:   3    -0.239618152994E+03   -0.60656E-03   -0.70783E-03  3017   0.175E-01
    232 T=   705. E= -.23687134E+03 F= -.23961815E+03 E0= -.23961815E+03  EK= 0.57377E+01 SP= -.30E+01 SK= 0.28E-01 mag=     -0.000
       N       E                     dE             d eps       ncg     rms          rms(c)
DAV:   1    -0.239569415554E+03    0.48131E-01   -0.61810E-02  6064   0.192E+00    0.276E+00
RMM:   2    -0.239571240651E+03   -0.18251E-02   -0.38384E-02  5045   0.415E-01    0.137E+00
RMM:   3    -0.239571273910E+03   -0.33259E-04   -0.95808E-03  3172   0.201E-01
    233 T=   711. E= -.23686570E+03 F= -.23957127E+03 E0= -.23957127E+03  EK= 0.57895E+01 SP= -.31E+01 SK= 0.40E-01 mag=     -0.000
       N       E                     dE             d eps       ncg     rms          rms(c)
DAV:   1    -0.239519829082E+03    0.51412E-01   -0.55533E-02  5928   0.197E+00    0.104E+00
RMM:   2    -0.239523007956E+03   -0.31789E-02   -0.48601E-02  5127   0.460E-01    0.853E-01
RMM:   3    -0.239522964059E+03    0.43897E-04   -0.93067E-03  3232   0.204E-01
    234 T=   719. E= -.23685815E+03 F= -.23952296E+03 E0= -.23952296E+03  EK= 0.58588E+01 SP= -.32E+01 SK= 0.53E-01 mag=     -0.000
       N       E                     dE             d eps       ncg     rms          rms(c)
DAV:   1    -0.239474498354E+03    0.48510E-01   -0.93880E-02  6416   0.190E+00    0.114E+00
RMM:   2    -0.239473736397E+03    0.76196E-03   -0.46656E-02  5004   0.451E-01    0.368E-01
RMM:   3    -0.239473074248E+03    0.66215E-03   -0.11872E-02  3536   0.204E-01
    235 T=   730. E= -.23685202E+03 F= -.23947307E+03 E0= -.23947307E+03  EK= 0.59411E+01 SP= -.34E+01 SK= 0.66E-01 mag=     -0.000
       N       E                     dE             d eps       ncg     rms          rms(c)
DAV:   1    -0.239417836314E+03    0.55900E-01   -0.97632E-02  6184   0.202E+00    0.366E-01
RMM:   2    -0.239421759146E+03   -0.39228E-02   -0.58432E-02  5012   0.482E-01    0.389E-01
RMM:   3    -0.239421739921E+03    0.19225E-04   -0.82806E-03  3224   0.200E-01
    236 T=   741. E= -.23684802E+03 F= -.23942174E+03 E0= -.23942174E+03  EK= 0.60348E+01 SP= -.35E+01 SK= 0.79E-01 mag=      0.000
       N       E                     dE             d eps       ncg     rms          rms(c)
DAV:   1    -0.239362993400E+03    0.58766E-01   -0.69323E-02  6280   0.197E+00    0.574E-01
RMM:   2    -0.239366192042E+03   -0.31986E-02   -0.64093E-02  4921   0.467E-01    0.609E-01
RMM:   3    -0.239366985040E+03   -0.79300E-03   -0.96027E-03  3302   0.209E-01
    237 T=   755. E= -.23683688E+03 F= -.23936699E+03 E0= -.23936699E+03  EK= 0.61456E+01 SP= -.37E+01 SK= 0.90E-01 mag=      0.000
       N       E                     dE             d eps       ncg     rms          rms(c)
DAV:   1    -0.239309987700E+03    0.56204E-01   -0.47542E-02  5992   0.190E+00    0.648E-01
RMM:   2    -0.239310189554E+03   -0.20185E-03   -0.49016E-02  4920   0.438E-01    0.300E-01
RMM:   3    -0.239310630590E+03   -0.44104E-03   -0.94207E-03  3286   0.202E-01
    238 T=   769. E= -.23682913E+03 F= -.23931063E+03 E0= -.23931063E+03  EK= 0.62631E+01 SP= -.39E+01 SK= 0.98E-01 mag=     -0.000
       N       E                     dE             d eps       ncg     rms          rms(c)
DAV:   1    -0.239247110670E+03    0.63079E-01   -0.66038E-02  6072   0.199E+00    0.848E-01
RMM:   2    -0.239252143865E+03   -0.50332E-02   -0.49210E-02  5007   0.468E-01    0.297E-01
RMM:   3    -0.239252757713E+03   -0.61385E-03   -0.81273E-03  3166   0.195E-01
    239 T=   784. E= -.23682535E+03 F= -.23925276E+03 E0= -.23925276E+03  EK= 0.63842E+01 SP= -.41E+01 SK= 0.10E+00 mag=     -0.000
       N       E                     dE             d eps       ncg     rms          rms(c)
DAV:   1    -0.239188727816E+03    0.63416E-01   -0.61948E-02  6160   0.198E+00    0.338E-01
RMM:   2    -0.239193787268E+03   -0.50595E-02   -0.51743E-02  5002   0.444E-01    0.179E-01
RMM:   3    -0.239194574712E+03   -0.78744E-03   -0.83941E-03  3144   0.196E-01
    240 T=   800. E= -.23681626E+03 F= -.23919457E+03 E0= -.23919457E+03  EK= 0.65170E+01 SP= -.42E+01 SK= 0.11E+00 mag=      0.000
       N       E                     dE             d eps       ncg     rms          rms(c)
DAV:   1    -0.239132745441E+03    0.61042E-01   -0.58562E-02  5936   0.197E+00    0.306E-01
RMM:   2    -0.239136974352E+03   -0.42289E-02   -0.43907E-02  5014   0.445E-01    0.370E-01
RMM:   3    -0.239137844463E+03   -0.87011E-03   -0.90660E-03  3269   0.198E-01
    241 T=   817. E= -.23680616E+03 F= -.23913784E+03 E0= -.23913784E+03  EK= 0.66561E+01 SP= -.44E+01 SK= 0.10E+00 mag=      0.000
       N       E                     dE             d eps       ncg     rms          rms(c)
DAV:   1    -0.239077075308E+03    0.59899E-01   -0.48614E-02  5968   0.203E+00    0.567E-01
RMM:   2    -0.239082021927E+03   -0.49466E-02   -0.45537E-02  5099   0.446E-01    0.562E-01
RMM:   3    -0.239082763602E+03   -0.74167E-03   -0.79883E-03  3066   0.188E-01
    242 T=   834. E= -.23679937E+03 F= -.23908276E+03 E0= -.23908276E+03  EK= 0.67938E+01 SP= -.46E+01 SK= 0.97E-01 mag=      0.000
       N       E                     dE             d eps       ncg     rms          rms(c)
DAV:   1    -0.239023408708E+03    0.58613E-01   -0.70024E-02  6208   0.203E+00    0.174E+00
RMM:   2    -0.239028153770E+03   -0.47451E-02   -0.47571E-02  5047   0.435E-01    0.781E-01
RMM:   3    -0.239028862431E+03   -0.70866E-03   -0.93861E-03  3260   0.200E-01
    243 T=   851. E= -.23679289E+03 F= -.23902886E+03 E0= -.23902886E+03  EK= 0.69288E+01 SP= -.48E+01 SK= 0.88E-01 mag=      0.000
       N       E                     dE             d eps       ncg     rms          rms(c)
DAV:   1    -0.238968430501E+03    0.59723E-01   -0.56232E-02  5944   0.208E+00    0.413E-01
RMM:   2    -0.238973469466E+03   -0.50390E-02   -0.47492E-02  5089   0.459E-01    0.387E-01
RMM:   3    -0.238974263549E+03   -0.79408E-03   -0.88603E-03  3200   0.198E-01
    244 T=   867. E= -.23678520E+03 F= -.23897426E+03 E0= -.23897426E+03  EK= 0.70569E+01 SP= -.49E+01 SK= 0.76E-01 mag=     -0.000
       N       E                     dE             d eps       ncg     rms          rms(c)
DAV:   1    -0.238912402819E+03    0.61067E-01   -0.56488E-02  5920   0.210E+00    0.141E+00
RMM:   2    -0.238915284272E+03   -0.28815E-02   -0.44920E-02  5066   0.456E-01    0.105E+00
RMM:   3    -0.238915653456E+03   -0.36918E-03   -0.11863E-02  3346   0.211E-01
    245 T=   881. E= -.23677415E+03 F= -.23891565E+03 E0= -.23891565E+03  EK= 0.71728E+01 SP= -.51E+01 SK= 0.62E-01 mag=      0.000
       N       E                     dE             d eps       ncg     rms          rms(c)
DAV:   1    -0.238854962385E+03    0.60322E-01   -0.65837E-02  6208   0.208E+00    0.237E+00
RMM:   2    -0.238852361638E+03    0.26007E-02   -0.49577E-02  4984   0.459E-01    0.113E+00
RMM:   3    -0.238851522604E+03    0.83903E-03   -0.17508E-02  4026   0.243E-01
    246 T=   892. E= -.23676694E+03 F= -.23885152E+03 E0= -.23885152E+03  EK= 0.72638E+01 SP= -.52E+01 SK= 0.48E-01 mag=      0.000
       N       E                     dE             d eps       ncg     rms          rms(c)
DAV:   1    -0.238781100671E+03    0.71261E-01   -0.10221E-01  6168   0.218E+00    0.488E-01
RMM:   2    -0.238781174127E+03   -0.73456E-04   -0.63490E-02  4811   0.534E-01    0.464E-01
RMM:   3    -0.238781261685E+03   -0.87559E-04   -0.14900E-02  3995   0.252E-01
    247 T=   900. E= -.23676082E+03 F= -.23878126E+03 E0= -.23878126E+03  EK= 0.73284E+01 SP= -.53E+01 SK= 0.34E-01 mag=      0.000
       N       E                     dE             d eps       ncg     rms          rms(c)
DAV:   1    -0.238696993091E+03    0.84181E-01   -0.10017E-01  6328   0.211E+00    0.842E-01
RMM:   2    -0.238703193908E+03   -0.62008E-02   -0.60859E-02  4964   0.500E-01    0.805E-01
RMM:   3    -0.238703998056E+03   -0.80415E-03   -0.92291E-03  3337   0.212E-01
    248 T=   905. E= -.23674802E+03 F= -.23870400E+03 E0= -.23870400E+03  EK= 0.73711E+01 SP= -.54E+01 SK= 0.22E-01 mag=      0.000
       N       E                     dE             d eps       ncg     rms          rms(c)
DAV:   1    -0.238616994181E+03    0.86200E-01   -0.70248E-02  6016   0.210E+00    0.186E+00
RMM:   2    -0.238621937589E+03   -0.49434E-02   -0.63357E-02  4902   0.487E-01    0.838E-01
RMM:   3    -0.238622766992E+03   -0.82940E-03   -0.11819E-02  3580   0.233E-01
    249 T=   907. E= -.23673900E+03 F= -.23862277E+03 E0= -.23862277E+03  EK= 0.73824E+01 SP= -.55E+01 SK= 0.12E-01 mag=     -0.000
       N       E                     dE             d eps       ncg     rms          rms(c)
DAV:   1    -0.238534532171E+03    0.87405E-01   -0.53606E-02  5936   0.211E+00    0.521E-01
RMM:   2    -0.238540646623E+03   -0.61145E-02   -0.61412E-02  4897   0.486E-01    0.412E-01
RMM:   3    -0.238541629930E+03   -0.98331E-03   -0.11018E-02  3533   0.225E-01
    250 T=   905. E= -.23673063E+03 F= -.23854163E+03 E0= -.23854163E+03  EK= 0.73691E+01 SP= -.56E+01 SK= 0.55E-02 mag=     -0.000
       N       E                     dE             d eps       ncg     rms          rms(c)
DAV:   1    -0.238460583839E+03    0.80063E-01   -0.81617E-02  6128   0.210E+00    0.981E-01
RMM:   2    -0.238464664206E+03   -0.40804E-02   -0.51623E-02  4958   0.486E-01    0.828E-01
RMM:   3    -0.238465390511E+03   -0.72630E-03   -0.11493E-02  3610   0.222E-01
    251 T=   901. E= -.23671822E+03 F= -.23846539E+03 E0= -.23846539E+03  EK= 0.73407E+01 SP= -.56E+01 SK= 0.14E-02 mag=     -0.000
       N       E                     dE             d eps       ncg     rms          rms(c)
DAV:   1    -0.238398810330E+03    0.65854E-01   -0.61168E-02  6040   0.210E+00    0.217E+00
RMM:   2    -0.238399644787E+03   -0.83446E-03   -0.49242E-02  5029   0.468E-01    0.100E+00
RMM:   3    -0.238399193482E+03    0.45130E-03   -0.14760E-02  3884   0.233E-01
    252 T=   896. E= -.23670638E+03 F= -.23839919E+03 E0= -.23839919E+03  EK= 0.72987E+01 SP= -.56E+01 SK= 0.54E-05 mag=      0.000
       N       E                     dE             d eps       ncg     rms          rms(c)
DAV:   1    -0.238344704240E+03    0.54941E-01   -0.87584E-02  6152   0.211E+00    0.475E-01
RMM:   2    -0.238348252141E+03   -0.35479E-02   -0.57724E-02  4938   0.492E-01    0.532E-01
RMM:   3    -0.238348641798E+03   -0.38966E-03   -0.10280E-02  3494   0.224E-01
    253 T=   890. E= -.23669649E+03 F= -.23834864E+03 E0= -.23834864E+03  EK= 0.72487E+01 SP= -.56E+01 SK= 0.94E-03 mag=      0.000
       N       E                     dE             d eps       ncg     rms          rms(c)
DAV:   1    -0.238310863748E+03    0.37388E-01   -0.66436E-02  6064   0.208E+00    0.130E+00
RMM:   2    -0.238314451917E+03   -0.35882E-02   -0.59823E-02  5021   0.479E-01    0.104E+00
RMM:   3    -0.238315015521E+03   -0.56360E-03   -0.11604E-02  3428   0.222E-01
    254 T=   884. E= -.23668456E+03 F= -.23831502E+03 E0= -.23831502E+03  EK= 0.71977E+01 SP= -.56E+01 SK= 0.38E-02 mag=     -0.000
       N       E                     dE             d eps       ncg     rms          rms(c)
DAV:   1    -0.238305704195E+03    0.87477E-02   -0.61673E-02  5984   0.206E+00    0.235E+00
RMM:   2    -0.238302858360E+03    0.28458E-02   -0.52976E-02  4960   0.464E-01    0.114E+00
RMM:   3    -0.238302012796E+03    0.84556E-03   -0.17441E-02  4083   0.244E-01
    255 T=   878. E= -.23667362E+03 F= -.23830201E+03 E0= -.23830201E+03  EK= 0.71480E+01 SP= -.55E+01 SK= 0.81E-02 mag=     -0.000
       N       E                     dE             d eps       ncg     rms          rms(c)
DAV:   1    -0.238307198372E+03   -0.43400E-02   -0.76865E-02  6224   0.209E+00    0.507E-01
RMM:   2    -0.238309345745E+03   -0.21474E-02   -0.62286E-02  4934   0.505E-01    0.493E-01
RMM:   3    -0.238309487436E+03   -0.14169E-03   -0.11318E-02  3573   0.233E-01
    256 T=   872. E= -.23666425E+03 F= -.23830949E+03 E0= -.23830949E+03  EK= 0.71005E+01 SP= -.55E+01 SK= 0.14E-01 mag=     -0.000
       N       E                     dE             d eps       ncg     rms          rms(c)
DAV:   1    -0.238327611730E+03   -0.18266E-01   -0.93252E-02  6320   0.208E+00    0.884E-01
RMM:   2    -0.238332956480E+03   -0.53447E-02   -0.61360E-02  4988   0.495E-01    0.805E-01
RMM:   3    -0.238333721617E+03   -0.76514E-03   -0.97696E-03  3360   0.216E-01
    257 T=   867. E= -.23665288E+03 F= -.23833372E+03 E0= -.23833372E+03  EK= 0.70564E+01 SP= -.54E+01 SK= 0.20E-01 mag=     -0.000
       N       E                     dE             d eps       ncg     rms          rms(c)
DAV:   1    -0.238368762769E+03   -0.35806E-01   -0.59117E-02  5976   0.204E+00    0.144E+00
RMM:   2    -0.238372292156E+03   -0.35294E-02   -0.60224E-02  4988   0.476E-01    0.625E-01
RMM:   3    -0.238372933102E+03   -0.64095E-03   -0.11227E-02  3439   0.224E-01
    258 T=   861. E= -.23664261E+03 F= -.23837293E+03 E0= -.23837293E+03  EK= 0.70122E+01 SP= -.53E+01 SK= 0.27E-01 mag=     -0.000
       N       E                     dE             d eps       ncg     rms          rms(c)
DAV:   1    -0.238416766591E+03   -0.44474E-01   -0.61470E-02  5976   0.208E+00    0.609E-01
RMM:   2    -0.238421743946E+03   -0.49774E-02   -0.51019E-02  4962   0.475E-01    0.310E-01
RMM:   3    -0.238422642662E+03   -0.89872E-03   -0.10231E-02  3504   0.219E-01
    259 T=   855. E= -.23663275E+03 F= -.23842264E+03 E0= -.23842264E+03  EK= 0.69656E+01 SP= -.52E+01 SK= 0.34E-01 mag=     -0.000
       N       E                     dE             d eps       ncg     rms          rms(c)
DAV:   1    -0.238471604065E+03   -0.49860E-01   -0.56119E-02  6192   0.205E+00    0.392E-01
RMM:   2    -0.238476043048E+03   -0.44390E-02   -0.45992E-02  4995   0.457E-01    0.427E-01
RMM:   3    -0.238476892635E+03   -0.84959E-03   -0.91076E-03  3242   0.204E-01
    260 T=   849. E= -.23662101E+03 F= -.23847689E+03 E0= -.23847689E+03  EK= 0.69143E+01 SP= -.51E+01 SK= 0.41E-01 mag=     -0.000
       N       E                     dE             d eps       ncg     rms          rms(c)
DAV:   1    -0.238525407673E+03   -0.49365E-01   -0.54757E-02  6040   0.203E+00    0.526E-01
RMM:   2    -0.238529471272E+03   -0.40636E-02   -0.41352E-02  5032   0.440E-01    0.497E-01
RMM:   3    -0.238530294301E+03   -0.82303E-03   -0.91022E-03  3240   0.199E-01
    261 T=   841. E= -.23661018E+03 F= -.23853029E+03 E0= -.23853029E+03  EK= 0.68518E+01 SP= -.50E+01 SK= 0.48E-01 mag=     -0.000
       N       E                     dE             d eps       ncg     rms          rms(c)
DAV:   1    -0.238574216772E+03   -0.44745E-01   -0.45354E-02  6040   0.204E+00    0.102E+00
RMM:   2    -0.238578159762E+03   -0.39430E-02   -0.38545E-02  5116   0.430E-01    0.430E-01
RMM:   3    -0.238578836186E+03   -0.67642E-03   -0.82873E-03  3087   0.193E-01
    262 T=   832. E= -.23660019E+03 F= -.23857884E+03 E0= -.23857884E+03  EK= 0.67762E+01 SP= -.49E+01 SK= 0.54E-01 mag=     -0.000
       N       E                     dE             d eps       ncg     rms          rms(c)
DAV:   1    -0.238613666702E+03   -0.35507E-01   -0.53594E-02  5912   0.203E+00    0.510E-01
RMM:   2    -0.238618052661E+03   -0.43860E-02   -0.40492E-02  5111   0.436E-01    0.208E-01
RMM:   3    -0.238618854416E+03   -0.80176E-03   -0.83279E-03  3120   0.195E-01
    263 T=   821. E= -.23658903E+03 F= -.23861885E+03 E0= -.23861885E+03  EK= 0.66881E+01 SP= -.47E+01 SK= 0.58E-01 mag=     -0.000
       N       E                     dE             d eps       ncg     rms          rms(c)
DAV:   1    -0.238642399089E+03   -0.24346E-01   -0.38691E-02  5680   0.200E+00    0.228E-01
RMM:   2    -0.238646140829E+03   -0.37417E-02   -0.35470E-02  5056   0.419E-01    0.278E-01
RMM:   3    -0.238646954496E+03   -0.81367E-03   -0.83119E-03  3102   0.187E-01
    264 T=   809. E= -.23657751E+03 F= -.23864695E+03 E0= -.23864695E+03  EK= 0.65861E+01 SP= -.46E+01 SK= 0.61E-01 mag=     -0.000
       N       E                     dE             d eps       ncg     rms          rms(c)
DAV:   1    -0.238657571925E+03   -0.11431E-01   -0.40060E-02  5832   0.199E+00    0.592E-01
RMM:   2    -0.238661351510E+03   -0.37796E-02   -0.35455E-02  5119   0.416E-01    0.530E-01
RMM:   3    -0.238662076201E+03   -0.72469E-03   -0.82286E-03  3098   0.188E-01
    265 T=   795. E= -.23656705E+03 F= -.23866208E+03 E0= -.23866208E+03  EK= 0.64706E+01 SP= -.44E+01 SK= 0.61E-01 mag=      0.000
       N       E                     dE             d eps       ncg     rms          rms(c)
DAV:   1    -0.238660837141E+03    0.51437E-03   -0.42405E-02  5736   0.199E+00    0.146E+00
RMM:   2    -0.238664268005E+03   -0.34309E-02   -0.35515E-02  5117   0.412E-01    0.678E-01
RMM:   3    -0.238664801116E+03   -0.53311E-03   -0.78877E-03  3080   0.191E-01
    266 T=   779. E= -.23655667E+03 F= -.23866480E+03 E0= -.23866480E+03  EK= 0.63463E+01 SP= -.43E+01 SK= 0.59E-01 mag=     -0.000
       N       E                     dE             d eps       ncg     rms          rms(c)
DAV:   1    -0.238651547723E+03    0.12720E-01   -0.44501E-02  5920   0.197E+00    0.293E-01
RMM:   2    -0.238655515481E+03   -0.39678E-02   -0.36891E-02  5120   0.430E-01    0.312E-01
RMM:   3    -0.238656281035E+03   -0.76555E-03   -0.80618E-03  3098   0.192E-01
    267 T=   764. E= -.23654477E+03 F= -.23865628E+03 E0= -.23865628E+03  EK= 0.62190E+01 SP= -.42E+01 SK= 0.54E-01 mag=     -0.000
       N       E                     dE             d eps       ncg     rms          rms(c)
DAV:   1    -0.238636943594E+03    0.18572E-01   -0.33502E-02  5632   0.194E+00    0.108E+00
RMM:   2    -0.238639830331E+03   -0.28867E-02   -0.34365E-02  5065   0.408E-01    0.815E-01
RMM:   3    -0.238640198499E+03   -0.36817E-03   -0.82946E-03  3024   0.187E-01
    268 T=   748. E= -.23653214E+03 F= -.23864020E+03 E0= -.23864020E+03  EK= 0.60943E+01 SP= -.40E+01 SK= 0.47E-01 mag=      0.000
       N       E                     dE             d eps       ncg     rms          rms(c)
DAV:   1    -0.238620863418E+03    0.18967E-01   -0.52476E-02  6064   0.192E+00    0.185E+00
RMM:   2    -0.238621455620E+03   -0.59220E-03   -0.34877E-02  5135   0.418E-01    0.906E-01
RMM:   3    -0.238621304966E+03    0.15065E-03   -0.11215E-02  3317   0.209E-01
    269 T=   734. E= -.23652063E+03 F= -.23862130E+03 E0= -.23862130E+03  EK= 0.59777E+01 SP= -.39E+01 SK= 0.38E-01 mag=      0.000
       N       E                     dE             d eps       ncg     rms          rms(c)
DAV:   1    -0.238601321784E+03    0.20134E-01   -0.51282E-02  6040   0.191E+00    0.379E-01
RMM:   2    -0.238603759311E+03   -0.24375E-02   -0.40606E-02  5111   0.446E-01    0.417E-01
RMM:   3    -0.238604164053E+03   -0.40474E-03   -0.79077E-03  3152   0.200E-01
    270 T=   722. E= -.23651023E+03 F= -.23860416E+03 E0= -.23860416E+03  EK= 0.58757E+01 SP= -.38E+01 SK= 0.29E-01 mag=     -0.000
       N       E                     dE             d eps       ncg     rms          rms(c)
DAV:   1    -0.238589195630E+03    0.14564E-01   -0.48463E-02  5944   0.186E+00    0.860E-01
RMM:   2    -0.238592550307E+03   -0.33547E-02   -0.40525E-02  5059   0.420E-01    0.696E-01
RMM:   3    -0.238593117900E+03   -0.56759E-03   -0.76221E-03  3066   0.187E-01
    271 T=   712. E= -.23649873E+03 F= -.23859312E+03 E0= -.23859312E+03  EK= 0.57965E+01 SP= -.37E+01 SK= 0.20E-01 mag=      0.000
       N       E                     dE             d eps       ncg     rms          rms(c)
DAV:   1    -0.238592484323E+03    0.65984E-04   -0.37467E-02  5808   0.187E+00    0.153E+00
RMM:   2    -0.238593367896E+03   -0.88357E-03   -0.39044E-02  5130   0.434E-01    0.751E-01
RMM:   3    -0.238593652897E+03   -0.28500E-03   -0.10671E-02  3316   0.207E-01
    272 T=   705. E= -.23648866E+03 F= -.23859365E+03 E0= -.23859365E+03  EK= 0.57441E+01 SP= -.37E+01 SK= 0.12E-01 mag=      0.000
       N       E                     dE             d eps       ncg     rms          rms(c)
DAV:   1    -0.238606087401E+03   -0.12720E-01   -0.38953E-02  5696   0.188E+00    0.340E-01
RMM:   2    -0.238609044278E+03   -0.29569E-02   -0.38151E-02  5101   0.428E-01    0.320E-01
RMM:   3    -0.238609512372E+03   -0.46809E-03   -0.76453E-03  3101   0.194E-01
    273 T=   703. E= -.23648011E+03 F= -.23860951E+03 E0= -.23860951E+03  EK= 0.57226E+01 SP= -.36E+01 SK= 0.56E-02 mag=     -0.000
       N       E                     dE             d eps       ncg     rms          rms(c)
DAV:   1    -0.238638479973E+03   -0.29436E-01   -0.36118E-02  5712   0.184E+00    0.747E-01
RMM:   2    -0.238641182056E+03   -0.27021E-02   -0.37542E-02  5101   0.416E-01    0.599E-01
RMM:   3    -0.238641673435E+03   -0.49138E-03   -0.75852E-03  3010   0.185E-01
    274 T=   704. E= -.23646968E+03 F= -.23864167E+03 E0= -.23864167E+03  EK= 0.57366E+01 SP= -.36E+01 SK= 0.16E-02 mag=     -0.000
       N       E                     dE             d eps       ncg     rms          rms(c)
DAV:   1    -0.238691158404E+03   -0.49976E-01   -0.34940E-02  5736   0.185E+00    0.119E+00
RMM:   2    -0.238691814566E+03   -0.65616E-03   -0.34356E-02  5142   0.414E-01    0.569E-01
RMM:   3    -0.238691885772E+03   -0.71206E-04   -0.96928E-03  3172   0.199E-01
    275 T=   710. E= -.23646062E+03 F= -.23869189E+03 E0= -.23869189E+03  EK= 0.57841E+01 SP= -.36E+01 SK= 0.58E-04 mag=     -0.000
       N       E                     dE             d eps       ncg     rms          rms(c)
DAV:   1    -0.238754115325E+03   -0.62301E-01   -0.53313E-02  6024   0.189E+00    0.344E-01
RMM:   2    -0.238757242123E+03   -0.31268E-02   -0.38894E-02  5060   0.434E-01    0.255E-01
RMM:   3    -0.238757690728E+03   -0.44860E-03   -0.78601E-03  3164   0.194E-01
    276 T=   720. E= -.23645251E+03 F= -.23875769E+03 E0= -.23875769E+03  EK= 0.58623E+01 SP= -.36E+01 SK= 0.51E-03 mag=      0.000
       N       E                     dE             d eps       ncg     rms          rms(c)
DAV:   1    -0.238831601758E+03   -0.74360E-01   -0.42253E-02  6016   0.188E+00    0.534E-01
RMM:   2    -0.238834931243E+03   -0.33295E-02   -0.42121E-02  5096   0.425E-01    0.490E-01
RMM:   3    -0.238835584225E+03   -0.65298E-03   -0.76944E-03  3056   0.189E-01
    277 T=   733. E= -.23644233E+03 F= -.23883558E+03 E0= -.23883558E+03  EK= 0.59693E+01 SP= -.36E+01 SK= 0.24E-02 mag=     -0.000
       N       E                     dE             d eps       ncg     rms          rms(c)
DAV:   1    -0.238918633013E+03   -0.83702E-01   -0.47389E-02  5976   0.190E+00    0.842E-01
RMM:   2    -0.238920966217E+03   -0.23332E-02   -0.38548E-02  5072   0.416E-01    0.338E-01
RMM:   3    -0.238921571979E+03   -0.60576E-03   -0.93174E-03  3275   0.199E-01
    278 T=   749. E= -.23643235E+03 F= -.23892157E+03 E0= -.23892157E+03  EK= 0.60971E+01 SP= -.36E+01 SK= 0.48E-02 mag=      0.000
       N       E                     dE             d eps       ncg     rms          rms(c)
DAV:   1    -0.239005146743E+03   -0.84181E-01   -0.44143E-02  6008   0.194E+00    0.445E-01
RMM:   2    -0.239009119407E+03   -0.39727E-02   -0.39743E-02  5121   0.435E-01    0.207E-01
RMM:   3    -0.239009824911E+03   -0.70550E-03   -0.82114E-03  3175   0.195E-01
    279 T=   766. E= -.23642283E+03 F= -.23900982E+03 E0= -.23900982E+03  EK= 0.62371E+01 SP= -.37E+01 SK= 0.72E-02 mag=      0.000
       N       E                     dE             d eps       ncg     rms          rms(c)
DAV:   1    -0.239089487165E+03   -0.80368E-01   -0.51111E-02  6024   0.197E+00    0.223E-01
RMM:   2    -0.239093290717E+03   -0.38036E-02   -0.38807E-02  5055   0.424E-01    0.285E-01
RMM:   3    -0.239094093205E+03   -0.80249E-03   -0.81819E-03  3156   0.192E-01
    280 T=   784. E= -.23641142E+03 F= -.23909409E+03 E0= -.23909409E+03  EK= 0.63826E+01 SP= -.37E+01 SK= 0.88E-02 mag=      0.000
       N       E                     dE             d eps       ncg     rms          rms(c)
DAV:   1    -0.239164203205E+03   -0.70912E-01   -0.33213E-02  5560   0.198E+00    0.542E-01
RMM:   2    -0.239167537117E+03   -0.33339E-02   -0.37076E-02  5060   0.416E-01    0.485E-01
RMM:   3    -0.239168249064E+03   -0.71195E-03   -0.89097E-03  3171   0.195E-01
    281 T=   801. E= -.23640026E+03 F= -.23916825E+03 E0= -.23916825E+03  EK= 0.65221E+01 SP= -.38E+01 SK= 0.93E-02 mag=     -0.000
       N       E                     dE             d eps       ncg     rms          rms(c)
DAV:   1    -0.239223947202E+03   -0.56410E-01   -0.44038E-02  5720   0.203E+00    0.151E+00
RMM:   2    -0.239227137495E+03   -0.31903E-02   -0.38882E-02  5124   0.425E-01    0.695E-01
RMM:   3    -0.239227439723E+03   -0.30223E-03   -0.90395E-03  3179   0.197E-01
    282 T=   816. E= -.23638958E+03 F= -.23922744E+03 E0= -.23922744E+03  EK= 0.66471E+01 SP= -.38E+01 SK= 0.87E-02 mag=     -0.000
       N       E                     dE             d eps       ncg     rms          rms(c)
DAV:   1    -0.239262240745E+03   -0.35103E-01   -0.54948E-02  5984   0.204E+00    0.294E-01
RMM:   2    -0.239266985494E+03   -0.47447E-02   -0.46687E-02  5158   0.441E-01    0.345E-01
RMM:   3    -0.239267744186E+03   -0.75869E-03   -0.88403E-03  3196   0.202E-01
    283 T=   829. E= -.23637730E+03 F= -.23926774E+03 E0= -.23926774E+03  EK= 0.67523E+01 SP= -.39E+01 SK= 0.73E-02 mag=     -0.000
       N       E                     dE             d eps       ncg     rms          rms(c)
DAV:   1    -0.239284337041E+03   -0.17352E-01   -0.54045E-02  6112   0.205E+00    0.115E+00
RMM:   2    -0.239286439233E+03   -0.21022E-02   -0.41636E-02  5066   0.443E-01    0.875E-01
RMM:   3    -0.239286871714E+03   -0.43248E-03   -0.12371E-02  3412   0.220E-01
    284 T=   839. E= -.23636484E+03 F= -.23928687E+03 E0= -.23928687E+03  EK= 0.68312E+01 SP= -.39E+01 SK= 0.54E-02 mag=      0.000
       N       E                     dE             d eps       ncg     rms          rms(c)
DAV:   1    -0.239290037213E+03   -0.35980E-02   -0.50472E-02  6056   0.210E+00    0.196E+00
RMM:   2    -0.239287119400E+03    0.29178E-02   -0.43599E-02  5063   0.446E-01    0.944E-01
RMM:   3    -0.239286169188E+03    0.95021E-03   -0.17147E-02  3957   0.241E-01
    285 T=   845. E= -.23635197E+03 F= -.23928617E+03 E0= -.23928617E+03  EK= 0.68829E+01 SP= -.40E+01 SK= 0.34E-02 mag=      0.000
       N       E                     dE             d eps       ncg     rms          rms(c)
DAV:   1    -0.239267619451E+03    0.19500E-01   -0.80715E-02  6392   0.209E+00    0.457E-01
RMM:   2    -0.239267174363E+03    0.44509E-03   -0.51742E-02  4884   0.495E-01    0.382E-01
RMM:   3    -0.239267239455E+03   -0.65092E-04   -0.13594E-02  3885   0.244E-01
    286 T=   848. E= -.23633852E+03 F= -.23926724E+03 E0= -.23926724E+03  EK= 0.69076E+01 SP= -.40E+01 SK= 0.17E-02 mag=     -0.000
       N       E                     dE             d eps       ncg     rms          rms(c)
DAV:   1    -0.239228436609E+03    0.38738E-01   -0.84242E-02  6232   0.208E+00    0.596E-01
RMM:   2    -0.239233608949E+03   -0.51723E-02   -0.51470E-02  5091   0.487E-01    0.599E-01
RMM:   3    -0.239234418426E+03   -0.80948E-03   -0.91370E-03  3308   0.211E-01
    287 T=   848. E= -.23632520E+03 F= -.23923442E+03 E0= -.23923442E+03  EK= 0.69080E+01 SP= -.40E+01 SK= 0.61E-03 mag=     -0.000
       N       E                     dE             d eps       ncg     rms          rms(c)
DAV:   1    -0.239189033412E+03    0.44576E-01   -0.49905E-02  5896   0.203E+00    0.535E-01
RMM:   2    -0.239192856505E+03   -0.38231E-02   -0.54303E-02  5089   0.465E-01    0.290E-01
RMM:   3    -0.239193798814E+03   -0.94231E-03   -0.97990E-03  3291   0.216E-01
    288 T=   846. E= -.23631155E+03 F= -.23919380E+03 E0= -.23919380E+03  EK= 0.68907E+01 SP= -.40E+01 SK= 0.62E-04 mag=      0.000
       N       E                     dE             d eps       ncg     rms          rms(c)
DAV:   1    -0.239148561818E+03    0.44295E-01   -0.31568E-02  5512   0.203E+00    0.652E-01
RMM:   2    -0.239151922038E+03   -0.33602E-02   -0.41528E-02  4966   0.434E-01    0.305E-01
RMM:   3    -0.239152702684E+03   -0.78065E-03   -0.92349E-03  3218   0.206E-01
    289 T=   843. E= -.23629877E+03 F= -.23915270E+03 E0= -.23915270E+03  EK= 0.68622E+01 SP= -.40E+01 SK= 0.62E-04 mag=      0.000
       N       E                     dE             d eps       ncg     rms          rms(c)
DAV:   1    -0.239112862187E+03    0.39060E-01   -0.54620E-02  5992   0.201E+00    0.414E-01
RMM:   2    -0.239117112262E+03   -0.42501E-02   -0.40712E-02  5157   0.450E-01    0.109E-01
RMM:   3    -0.239117940043E+03   -0.82778E-03   -0.88073E-03  3188   0.199E-01
    290 T=   839. E= -.23628615E+03 F= -.23911794E+03 E0= -.23911794E+03  EK= 0.68308E+01 SP= -.40E+01 SK= 0.50E-03 mag=     -0.000
       N       E                     dE             d eps       ncg     rms          rms(c)
DAV:   1    -0.239090876780E+03    0.26235E-01   -0.47781E-02  5840   0.199E+00    0.228E-01
RMM:   2    -0.239094871483E+03   -0.39947E-02   -0.40172E-02  5168   0.432E-01    0.243E-01
RMM:   3    -0.239095672906E+03   -0.80142E-03   -0.82471E-03  3133   0.193E-01
    291 T=   835. E= -.23627427E+03 F= -.23909567E+03 E0= -.23909567E+03  EK= 0.68031E+01 SP= -.40E+01 SK= 0.13E-02 mag=     -0.000
       N       E                     dE             d eps       ncg     rms          rms(c)
DAV:   1    -0.239086854922E+03    0.80166E-02   -0.44414E-02  5896   0.198E+00    0.280E-01
RMM:   2    -0.239090670540E+03   -0.38156E-02   -0.37580E-02  5125   0.412E-01    0.289E-01
RMM:   3    -0.239091417850E+03   -0.74731E-03   -0.77551E-03  3155   0.189E-01
    292 T=   833. E= -.23626360E+03 F= -.23909142E+03 E0= -.23909142E+03  EK= 0.67849E+01 SP= -.40E+01 SK= 0.23E-02 mag=     -0.000
       N       E                     dE             d eps       ncg     rms          rms(c)
DAV:   1    -0.239103327606E+03   -0.12657E-01   -0.45036E-02  6048   0.195E+00    0.295E-01
RMM:   2    -0.239107259057E+03   -0.39315E-02   -0.37147E-02  5098   0.416E-01    0.185E-01
RMM:   3    -0.239108016698E+03   -0.75764E-03   -0.78099E-03  3087   0.186E-01
    293 T=   833. E= -.23625318E+03 F= -.23910802E+03 E0= -.23910802E+03  EK= 0.67803E+01 SP= -.39E+01 SK= 0.35E-02 mag=     -0.000
       N       E                     dE             d eps       ncg     rms          rms(c)
DAV:   1    -0.239141134540E+03   -0.33875E-01   -0.45877E-02  5984   0.196E+00    0.385E-01
RMM:   2    -0.239144957342E+03   -0.38228E-02   -0.36413E-02  5136   0.414E-01    0.195E-01
RMM:   3    -0.239145720530E+03   -0.76319E-03   -0.78384E-03  3116   0.186E-01
    294 T=   834. E= -.23624393E+03 F= -.23914572E+03 E0= -.23914572E+03  EK= 0.67889E+01 SP= -.39E+01 SK= 0.50E-02 mag=     -0.000
       N       E                     dE             d eps       ncg     rms          rms(c)
DAV:   1    -0.239196858339E+03   -0.51901E-01   -0.49480E-02  6136   0.198E+00    0.287E-01
RMM:   2    -0.239200707347E+03   -0.38490E-02   -0.35914E-02  5094   0.411E-01    0.141E-01
RMM:   3    -0.239201441667E+03   -0.73432E-03   -0.76293E-03  3116   0.185E-01
    295 T=   836. E= -.23623527E+03 F= -.23920144E+03 E0= -.23920144E+03  EK= 0.68077E+01 SP= -.38E+01 SK= 0.69E-02 mag=      0.000
       N       E                     dE             d eps       ncg     rms          rms(c)
DAV:   1    -0.239265859531E+03   -0.65152E-01   -0.49815E-02  6064   0.197E+00    0.168E-01
RMM:   2    -0.239269945852E+03   -0.40863E-02   -0.38346E-02  5126   0.419E-01    0.184E-01
RMM:   3    -0.239270731617E+03   -0.78576E-03   -0.80281E-03  3140   0.188E-01
    296 T=   839. E= -.23622624E+03 F= -.23927073E+03 E0= -.23927073E+03  EK= 0.68328E+01 SP= -.38E+01 SK= 0.93E-02 mag=     -0.000
       N       E                     dE             d eps       ncg     rms          rms(c)
DAV:   1    -0.239344929454E+03   -0.74984E-01   -0.46956E-02  5952   0.197E+00    0.214E-01
RMM:   2    -0.239348944556E+03   -0.40151E-02   -0.37204E-02  5082   0.410E-01    0.267E-01
RMM:   3    -0.239349723744E+03   -0.77919E-03   -0.79331E-03  3158   0.185E-01
    297 T=   842. E= -.23621750E+03 F= -.23934972E+03 E0= -.23934972E+03  EK= 0.68588E+01 SP= -.37E+01 SK= 0.12E-01 mag=     -0.000
       N       E                     dE             d eps       ncg     rms          rms(c)
DAV:   1    -0.239428167713E+03   -0.79223E-01   -0.45972E-02  5968   0.197E+00    0.247E-01
RMM:   2    -0.239431916802E+03   -0.37491E-02   -0.34673E-02  5041   0.404E-01    0.315E-01
RMM:   3    -0.239432676533E+03   -0.75973E-03   -0.76904E-03  3122   0.181E-01
    298 T=   845. E= -.23620857E+03 F= -.23943268E+03 E0= -.23943268E+03  EK= 0.68798E+01 SP= -.37E+01 SK= 0.16E-01 mag=     -0.000
       N       E                     dE             d eps       ncg     rms          rms(c)
DAV:   1    -0.239510671468E+03   -0.78755E-01   -0.37041E-02  5640   0.196E+00    0.327E-01
RMM:   2    -0.239514391852E+03   -0.37204E-02   -0.34301E-02  5055   0.403E-01    0.364E-01
RMM:   3    -0.239515106530E+03   -0.71468E-03   -0.72839E-03  3057   0.178E-01
    299 T=   846. E= -.23619864E+03 F= -.23951511E+03 E0= -.23951511E+03  EK= 0.68916E+01 SP= -.36E+01 SK= 0.20E-01 mag=     -0.000
       N       E                     dE             d eps       ncg     rms          rms(c)
DAV:   1    -0.239591496677E+03   -0.77105E-01   -0.32839E-02  5480   0.197E+00    0.104E+00
RMM:   2    -0.239595104812E+03   -0.36081E-02   -0.36657E-02  5080   0.408E-01    0.797E-01
RMM:   3    -0.239595636725E+03   -0.53191E-03   -0.78391E-03  3058   0.184E-01
    300 T=   846. E= -.23618836E+03 F= -.23959564E+03 E0= -.23959564E+03  EK= 0.68920E+01 SP= -.35E+01 SK= 0.25E-01 mag=     -0.000
       N       E                     dE             d eps       ncg     rms          rms(c)
DAV:   1    -0.239668709732E+03   -0.73605E-01   -0.53282E-02  5944   0.199E+00    0.250E+00
RMM:   2    -0.239670369182E+03   -0.16595E-02   -0.35295E-02  5017   0.410E-01    0.126E+00
RMM:   3    -0.239670477978E+03   -0.10880E-03   -0.10729E-02  3311   0.204E-01
    301 T=   845. E= -.23617774E+03 F= -.23967048E+03 E0= -.23967048E+03  EK= 0.68772E+01 SP= -.34E+01 SK= 0.31E-01 mag=      0.000
       N       E                     dE             d eps       ncg     rms          rms(c)
DAV:   1    -0.239735004273E+03   -0.64635E-01   -0.40435E-02  5928   0.198E+00    0.713E-01
RMM:   2    -0.239737901015E+03   -0.28967E-02   -0.41183E-02  5067   0.440E-01    0.624E-01
RMM:   3    -0.239738084448E+03   -0.18343E-03   -0.90331E-03  3154   0.197E-01
    302 T=   841. E= -.23616639E+03 F= -.23973808E+03 E0= -.23973808E+03  EK= 0.68469E+01 SP= -.33E+01 SK= 0.36E-01 mag=     -0.000
       N       E                     dE             d eps       ncg     rms          rms(c)
DAV:   1    -0.239797225471E+03   -0.59324E-01   -0.77515E-02  6232   0.195E+00    0.761E-01
RMM:   2    -0.239798110583E+03   -0.88511E-03   -0.41179E-02  4937   0.427E-01    0.237E-01
RMM:   3    -0.239797933865E+03    0.17672E-03   -0.96899E-03  3326   0.195E-01
    303 T=   835. E= -.23615516E+03 F= -.23979793E+03 E0= -.23979793E+03  EK= 0.68007E+01 SP= -.32E+01 SK= 0.42E-01 mag=     -0.000
       N       E                     dE             d eps       ncg     rms          rms(c)
DAV:   1    -0.239843334026E+03   -0.45223E-01   -0.69556E-02  6072   0.197E+00    0.312E-01
RMM:   2    -0.239848142709E+03   -0.48087E-02   -0.50448E-02  5042   0.448E-01    0.341E-01
RMM:   3    -0.239848485368E+03   -0.34266E-03   -0.74309E-03  3109   0.190E-01
    304 T=   827. E= -.23614512E+03 F= -.23984849E+03 E0= -.23984849E+03  EK= 0.67377E+01 SP= -.31E+01 SK= 0.46E-01 mag=      0.000
       N       E                     dE             d eps       ncg     rms          rms(c)
DAV:   1    -0.239886030241E+03   -0.37888E-01   -0.49270E-02  5880   0.195E+00    0.586E-01
RMM:   2    -0.239887147562E+03   -0.11173E-02   -0.55376E-02  4983   0.434E-01    0.529E-01
RMM:   3    -0.239887789096E+03   -0.64153E-03   -0.97655E-03  3214   0.202E-01
    305 T=   818. E= -.23613178E+03 F= -.23988779E+03 E0= -.23988779E+03  EK= 0.66623E+01 SP= -.30E+01 SK= 0.50E-01 mag=      0.000
       N       E                     dE             d eps       ncg     rms          rms(c)
DAV:   1    -0.239918644198E+03   -0.31497E-01   -0.47879E-02  6016   0.189E+00    0.104E+00
RMM:   2    -0.239917110417E+03    0.15338E-02   -0.38705E-02  4928   0.408E-01    0.420E-01
RMM:   3    -0.239916846612E+03    0.26380E-03   -0.11162E-02  3333   0.202E-01
    306 T=   807. E= -.23612155E+03 F= -.23991685E+03 E0= -.23991685E+03  EK= 0.65715E+01 SP= -.28E+01 SK= 0.52E-01 mag=     -0.000
       N       E                     dE             d eps       ncg     rms          rms(c)
DAV:   1    -0.239928920275E+03   -0.11810E-01   -0.71047E-02  6136   0.196E+00    0.539E-01
RMM:   2    -0.239933262996E+03   -0.43427E-02   -0.49354E-02  4993   0.447E-01    0.227E-01
RMM:   3    -0.239933376336E+03   -0.11334E-03   -0.72443E-03  3086   0.190E-01
    307 T=   794. E= -.23611300E+03 F= -.23993338E+03 E0= -.23993338E+03  EK= 0.64669E+01 SP= -.27E+01 SK= 0.52E-01 mag=      0.000
       N       E                     dE             d eps       ncg     rms          rms(c)
DAV:   1    -0.239931472698E+03    0.17903E-02   -0.68758E-02  6160   0.192E+00    0.235E-01
RMM:   2    -0.239936509047E+03   -0.50363E-02   -0.51688E-02  5011   0.432E-01    0.355E-01
RMM:   3    -0.239937279646E+03   -0.77060E-03   -0.78923E-03  3150   0.191E-01
    308 T=   781. E= -.23610023E+03 F= -.23993728E+03 E0= -.23993728E+03  EK= 0.63572E+01 SP= -.26E+01 SK= 0.50E-01 mag=      0.000
       N       E                     dE             d eps       ncg     rms          rms(c)
DAV:   1    -0.239926002234E+03    0.10507E-01   -0.45681E-02  5864   0.187E+00    0.642E-01
RMM:   2    -0.239928063040E+03   -0.20608E-02   -0.44280E-02  4965   0.419E-01    0.545E-01
RMM:   3    -0.239928703858E+03   -0.64082E-03   -0.95619E-03  3238   0.196E-01
    309 T=   766. E= -.23609038E+03 F= -.23992870E+03 E0= -.23992870E+03  EK= 0.62382E+01 SP= -.24E+01 SK= 0.46E-01 mag=      0.000
       N       E                     dE             d eps       ncg     rms          rms(c)
DAV:   1    -0.239905352060E+03    0.22711E-01   -0.42440E-02  5904   0.190E+00    0.133E+00
RMM:   2    -0.239907229223E+03   -0.18772E-02   -0.36143E-02  4931   0.408E-01    0.593E-01
RMM:   3    -0.239907242706E+03   -0.13483E-04   -0.84903E-03  3179   0.187E-01
    310 T=   751. E= -.23608220E+03 F= -.23990724E+03 E0= -.23990724E+03  EK= 0.61133E+01 SP= -.23E+01 SK= 0.39E-01 mag=      0.000
       N       E                     dE             d eps       ncg     rms          rms(c)
DAV:   1    -0.239869613120E+03    0.37616E-01   -0.67428E-02  6168   0.184E+00    0.357E-01
RMM:   2    -0.239873306687E+03   -0.36936E-02   -0.42550E-02  5073   0.420E-01    0.265E-01
RMM:   3    -0.239873716261E+03   -0.40957E-03   -0.73082E-03  3080   0.184E-01
    311 T=   736. E= -.23607159E+03 F= -.23987372E+03 E0= -.23987372E+03  EK= 0.59903E+01 SP= -.22E+01 SK= 0.32E-01 mag=      0.000
       N       E                     dE             d eps       ncg     rms          rms(c)
DAV:   1    -0.239824137457E+03    0.49169E-01   -0.51245E-02  5904   0.186E+00    0.532E-01
RMM:   2    -0.239828077913E+03   -0.39405E-02   -0.43133E-02  5018   0.416E-01    0.521E-01
RMM:   3    -0.239828823181E+03   -0.74527E-03   -0.77058E-03  3040   0.183E-01
    312 T=   721. E= -.23606274E+03 F= -.23982882E+03 E0= -.23982882E+03  EK= 0.58679E+01 SP= -.21E+01 SK= 0.23E-01 mag=     -0.000
       N       E                     dE             d eps       ncg     rms          rms(c)
DAV:   1    -0.239771497251E+03    0.56581E-01   -0.31121E-02  5664   0.183E+00    0.966E-01
RMM:   2    -0.239774512048E+03   -0.30148E-02   -0.39792E-02  4994   0.391E-01    0.402E-01
RMM:   3    -0.239775167574E+03   -0.65553E-03   -0.78637E-03  3100   0.181E-01
    313 T=   706. E= -.23605406E+03 F= -.23977517E+03 E0= -.23977517E+03  EK= 0.57525E+01 SP= -.20E+01 SK= 0.15E-01 mag=     -0.000
       N       E                     dE             d eps       ncg     rms          rms(c)
DAV:   1    -0.239711809569E+03    0.62702E-01   -0.57439E-02  5992   0.185E+00    0.399E-01
RMM:   2    -0.239715665336E+03   -0.38558E-02   -0.37033E-02  4995   0.417E-01    0.204E-01
RMM:   3    -0.239716383877E+03   -0.71854E-03   -0.78621E-03  3169   0.181E-01
    314 T=   694. E= -.23604423E+03 F= -.23971638E+03 E0= -.23971638E+03  EK= 0.56509E+01 SP= -.20E+01 SK= 0.76E-02 mag=      0.000
       N       E                     dE             d eps       ncg     rms          rms(c)
DAV:   1    -0.239653217263E+03    0.62448E-01   -0.44915E-02  5896   0.182E+00    0.286E-01
RMM:   2    -0.239656821070E+03   -0.36038E-02   -0.33075E-02  4973   0.394E-01    0.347E-01
RMM:   3    -0.239657529957E+03   -0.70889E-03   -0.70454E-03  2985   0.173E-01
    315 T=   684. E= -.23603535E+03 F= -.23965753E+03 E0= -.23965753E+03  EK= 0.55676E+01 SP= -.19E+01 SK= 0.23E-02 mag=     -0.000
       N       E                     dE             d eps       ncg     rms          rms(c)
DAV:   1    -0.239598588666E+03    0.58232E-01   -0.35684E-02  5808   0.183E+00    0.898E-01
RMM:   2    -0.239601958443E+03   -0.33698E-02   -0.35101E-02  5027   0.388E-01    0.698E-01
RMM:   3    -0.239602530457E+03   -0.57201E-03   -0.82392E-03  3052   0.180E-01
    316 T=   677. E= -.23602530E+03 F= -.23960253E+03 E0= -.23960253E+03  EK= 0.55095E+01 SP= -.19E+01 SK= 0.26E-04 mag=      0.000
       N       E                     dE             d eps       ncg     rms          rms(c)
DAV:   1    -0.239554450035E+03    0.47508E-01   -0.65709E-02  6080   0.180E+00    0.202E+00
RMM:   2    -0.239556585100E+03   -0.21351E-02   -0.35369E-02  5004   0.396E-01    0.100E+00
RMM:   3    -0.239556857302E+03   -0.27220E-03   -0.98983E-03  3239   0.192E-01
    317 T=   673. E= -.23601742E+03 F= -.23955686E+03 E0= -.23955686E+03  EK= 0.54797E+01 SP= -.19E+01 SK= 0.15E-02 mag=      0.000
       N       E                     dE             d eps       ncg     rms          rms(c)
DAV:   1    -0.239522657649E+03    0.33927E-01   -0.51017E-02  5952   0.184E+00    0.453E-01
RMM:   2    -0.239525662210E+03   -0.30046E-02   -0.39014E-02  4955   0.421E-01    0.453E-01
RMM:   3    -0.239526160590E+03   -0.49838E-03   -0.78714E-03  3157   0.187E-01
    318 T=   674. E= -.23601000E+03 F= -.23952616E+03 E0= -.23952616E+03  EK= 0.54859E+01 SP= -.20E+01 SK= 0.71E-02 mag=     -0.000
       N       E                     dE             d eps       ncg     rms          rms(c)
DAV:   1    -0.239507853392E+03    0.17809E-01   -0.59052E-02  6112   0.180E+00    0.444E-01
RMM:   2    -0.239512062266E+03   -0.42089E-02   -0.39686E-02  5002   0.410E-01    0.427E-01
RMM:   3    -0.239512725824E+03   -0.66356E-03   -0.77209E-03  3041   0.180E-01
    319 T=   680. E= -.23599930E+03 F= -.23951273E+03 E0= -.23951273E+03  EK= 0.55344E+01 SP= -.20E+01 SK= 0.16E-01 mag=     -0.000
       N       E                     dE             d eps       ncg     rms          rms(c)
DAV:   1    -0.239514171248E+03   -0.21090E-02   -0.55237E-02  5944   0.184E+00    0.387E-01
RMM:   2    -0.239518625704E+03   -0.44545E-02   -0.48805E-02  4968   0.430E-01    0.243E-01
RMM:   3    -0.239519600324E+03   -0.97462E-03   -0.97582E-03  3381   0.202E-01
    320 T=   690. E= -.23599155E+03 F= -.23951960E+03 E0= -.23951960E+03  EK= 0.56216E+01 SP= -.21E+01 SK= 0.28E-01 mag=     -0.000
       N       E                     dE             d eps       ncg     rms          rms(c)
DAV:   1    -0.239542442310E+03   -0.23817E-01   -0.57335E-02  5992   0.187E+00    0.443E-01
RMM:   2    -0.239545366840E+03   -0.29245E-02   -0.39129E-02  4884   0.416E-01    0.223E-01
RMM:   3    -0.239546120656E+03   -0.75382E-03   -0.89148E-03  3363   0.192E-01
    321 T=   706. E= -.23598345E+03 F= -.23954612E+03 E0= -.23954612E+03  EK= 0.57494E+01 SP= -.22E+01 SK= 0.42E-01 mag=      0.000
       N       E                     dE             d eps       ncg     rms          rms(c)
DAV:   1    -0.239584921163E+03   -0.39554E-01   -0.54703E-02  6072   0.186E+00    0.362E-01
RMM:   2    -0.239588793522E+03   -0.38724E-02   -0.37324E-02  4926   0.411E-01    0.129E-01
RMM:   3    -0.239589523973E+03   -0.73045E-03   -0.79320E-03  3137   0.185E-01
    322 T=   726. E= -.23597375E+03 F= -.23958952E+03 E0= -.23958952E+03  EK= 0.59151E+01 SP= -.24E+01 SK= 0.55E-01 mag=      0.000
       N       E                     dE             d eps       ncg     rms          rms(c)
DAV:   1    -0.239639485086E+03   -0.50692E-01   -0.49899E-02  5840   0.191E+00    0.234E-01
RMM:   2    -0.239644133888E+03   -0.46488E-02   -0.44469E-02  5009   0.424E-01    0.132E-01
RMM:   3    -0.239645020287E+03   -0.88640E-03   -0.89318E-03  3183   0.190E-01
    323 T=   750. E= -.23596550E+03 F= -.23964502E+03 E0= -.23964502E+03  EK= 0.61084E+01 SP= -.25E+01 SK= 0.66E-01 mag=     -0.000
       N       E                     dE             d eps       ncg     rms          rms(c)
DAV:   1    -0.239700869949E+03   -0.56736E-01   -0.62156E-02  5936   0.196E+00    0.240E-01
RMM:   2    -0.239705066015E+03   -0.41961E-02   -0.40233E-02  4956   0.411E-01    0.208E-01
RMM:   3    -0.239705892539E+03   -0.82652E-03   -0.85636E-03  3253   0.188E-01
    324 T=   776. E= -.23595712E+03 F= -.23970589E+03 E0= -.23970589E+03  EK= 0.63212E+01 SP= -.26E+01 SK= 0.73E-01 mag=     -0.000
       N       E                     dE             d eps       ncg     rms          rms(c)
DAV:   1    -0.239758922027E+03   -0.53856E-01   -0.50014E-02  5968   0.198E+00    0.196E-01
RMM:   2    -0.239763168055E+03   -0.42460E-02   -0.38515E-02  4989   0.415E-01    0.199E-01
RMM:   3    -0.239763954527E+03   -0.78647E-03   -0.79128E-03  3119   0.183E-01
    325 T=   803. E= -.23594749E+03 F= -.23976395E+03 E0= -.23976395E+03  EK= 0.65421E+01 SP= -.28E+01 SK= 0.75E-01 mag=     -0.000
       N       E                     dE             d eps       ncg     rms          rms(c)
DAV:   1    -0.239807521774E+03   -0.44354E-01   -0.42826E-02  5728   0.201E+00    0.206E-01
RMM:   2    -0.239811827846E+03   -0.43061E-02   -0.40206E-02  5035   0.416E-01    0.243E-01
RMM:   3    -0.239812651703E+03   -0.82386E-03   -0.82824E-03  3155   0.187E-01
    326 T=   830. E= -.23593819E+03 F= -.23981265E+03 E0= -.23981265E+03  EK= 0.67577E+01 SP= -.30E+01 SK= 0.71E-01 mag=     -0.000
       N       E                     dE             d eps       ncg     rms          rms(c)
DAV:   1    -0.239839341985E+03   -0.27514E-01   -0.61791E-02  6048   0.207E+00    0.258E-01
RMM:   2    -0.239844033504E+03   -0.46915E-02   -0.42576E-02  5025   0.429E-01    0.312E-01
RMM:   3    -0.239844906654E+03   -0.87315E-03   -0.87871E-03  3259   0.193E-01
    327 T=   854. E= -.23592882E+03 F= -.23984491E+03 E0= -.23984491E+03  EK= 0.69556E+01 SP= -.31E+01 SK= 0.64E-01 mag=      0.000
       N       E                     dE             d eps       ncg     rms          rms(c)
DAV:   1    -0.239848838765E+03   -0.48053E-02   -0.50789E-02  6008   0.209E+00    0.383E-01
RMM:   2    -0.239853318160E+03   -0.44794E-02   -0.41751E-02  5049   0.433E-01    0.432E-01
RMM:   3    -0.239854168204E+03   -0.85004E-03   -0.86586E-03  3228   0.194E-01
    328 T=   875. E= -.23591797E+03 F= -.23985417E+03 E0= -.23985417E+03  EK= 0.71243E+01 SP= -.32E+01 SK= 0.53E-01 mag=      0.000
       N       E                     dE             d eps       ncg     rms          rms(c)
DAV:   1    -0.239831768707E+03    0.21549E-01   -0.57094E-02  5960   0.217E+00    0.113E+00
RMM:   2    -0.239836313745E+03   -0.45450E-02   -0.43940E-02  5041   0.453E-01    0.897E-01
RMM:   3    -0.239837027615E+03   -0.71387E-03   -0.94158E-03  3276   0.203E-01
    329 T=   891. E= -.23590565E+03 F= -.23983703E+03 E0= -.23983703E+03  EK= 0.72548E+01 SP= -.34E+01 SK= 0.40E-01 mag=      0.000
       N       E                     dE             d eps       ncg     rms          rms(c)
DAV:   1    -0.239789671968E+03    0.46642E-01   -0.61577E-02  6048   0.216E+00    0.303E+00
RMM:   2    -0.239792230284E+03   -0.25583E-02   -0.47752E-02  5064   0.455E-01    0.154E+00
RMM:   3    -0.239792590739E+03   -0.36046E-03   -0.12834E-02  3497   0.231E-01
    330 T=   901. E= -.23589394E+03 F= -.23979259E+03 E0= -.23979259E+03  EK= 0.73389E+01 SP= -.35E+01 SK= 0.28E-01 mag=     -0.000
       N       E                     dE             d eps       ncg     rms          rms(c)
DAV:   1    -0.239717610345E+03    0.74620E-01   -0.75747E-02  6096   0.220E+00    0.901E-01
RMM:   2    -0.239721676887E+03   -0.40665E-02   -0.55528E-02  4937   0.515E-01    0.770E-01
RMM:   3    -0.239722220144E+03   -0.54326E-03   -0.13269E-02  3815   0.241E-01
    331 T=   906. E= -.23588028E+03 F= -.23972222E+03 E0= -.23972222E+03  EK= 0.73770E+01 SP= -.36E+01 SK= 0.17E-01 mag=      0.000
       N       E                     dE             d eps       ncg     rms          rms(c)
DAV:   1    -0.239628727672E+03    0.92949E-01   -0.85896E-02  6368   0.213E+00    0.104E+00
RMM:   2    -0.239629748880E+03   -0.10212E-02   -0.54773E-02  4868   0.484E-01    0.344E-01
RMM:   3    -0.239629587515E+03    0.16136E-03   -0.13381E-02  3668   0.230E-01
    332 T=   905. E= -.23586645E+03 F= -.23962959E+03 E0= -.23962959E+03  EK= 0.73693E+01 SP= -.36E+01 SK= 0.85E-02 mag=      0.000
       N       E                     dE             d eps       ncg     rms          rms(c)
DAV:   1    -0.239514608118E+03    0.11514E+00   -0.10029E-01  6168   0.221E+00    0.379E-01
RMM:   2    -0.239520545214E+03   -0.59371E-02   -0.70343E-02  4918   0.521E-01    0.427E-01
RMM:   3    -0.239521065472E+03   -0.52026E-03   -0.11341E-02  3633   0.233E-01
    333 T=   899. E= -.23585564E+03 F= -.23952107E+03 E0= -.23952107E+03  EK= 0.73186E+01 SP= -.37E+01 SK= 0.31E-02 mag=     -0.000
       N       E                     dE             d eps       ncg     rms          rms(c)
DAV:   1    -0.239399806012E+03    0.12074E+00   -0.78077E-02  6104   0.220E+00    0.868E-01
RMM:   2    -0.239401189974E+03   -0.13840E-02   -0.73402E-02  4914   0.507E-01    0.760E-01
RMM:   3    -0.239401977507E+03   -0.78753E-03   -0.14902E-02  3760   0.245E-01
    334 T=   889. E= -.23583935E+03 F= -.23940198E+03 E0= -.23940198E+03  EK= 0.72403E+01 SP= -.37E+01 SK= 0.52E-03 mag=      0.000
       N       E                     dE             d eps       ncg     rms          rms(c)
DAV:   1    -0.239287881588E+03    0.11331E+00   -0.59009E-02  6216   0.209E+00    0.166E+00
RMM:   2    -0.239282975352E+03    0.49062E-02   -0.55740E-02  4870   0.472E-01    0.732E-01
RMM:   3    -0.239282109455E+03    0.86590E-03   -0.17824E-02  4162   0.247E-01
    335 T=   877. E= -.23582608E+03 F= -.23928211E+03 E0= -.23928211E+03  EK= 0.71381E+01 SP= -.37E+01 SK= 0.43E-04 mag=     -0.000
       N       E                     dE             d eps       ncg     rms          rms(c)
DAV:   1    -0.239164901609E+03    0.11807E+00   -0.10929E-01  6392   0.219E+00    0.626E-01
RMM:   2    -0.239168021231E+03   -0.31196E-02   -0.64201E-02  4871   0.521E-01    0.337E-01
RMM:   3    -0.239167886266E+03    0.13496E-03   -0.11434E-02  3557   0.235E-01
    336 T=   862. E= -.23581573E+03 F= -.23916789E+03 E0= -.23916789E+03  EK= 0.70219E+01 SP= -.37E+01 SK= 0.97E-03 mag=     -0.000
       N       E                     dE             d eps       ncg     rms          rms(c)
DAV:   1    -0.239056876899E+03    0.11114E+00   -0.10483E-01  6496   0.209E+00    0.441E-01
RMM:   2    -0.239063238952E+03   -0.63621E-02   -0.66799E-02  4967   0.504E-01    0.544E-01
RMM:   3    -0.239064205613E+03   -0.96666E-03   -0.10465E-02  3475   0.222E-01
    337 T=   848. E= -.23580046E+03 F= -.23906421E+03 E0= -.23906421E+03  EK= 0.69079E+01 SP= -.36E+01 SK= 0.26E-02 mag=      0.000
       N       E                     dE             d eps       ncg     rms          rms(c)
DAV:   1    -0.238973885046E+03    0.89354E-01   -0.57580E-02  5992   0.203E+00    0.942E-01
RMM:   2    -0.238975551914E+03   -0.16669E-02   -0.65596E-02  4943   0.478E-01    0.750E-01
RMM:   3    -0.238976392378E+03   -0.84046E-03   -0.13097E-02  3608   0.232E-01
    338 T=   834. E= -.23578999E+03 F= -.23897639E+03 E0= -.23897639E+03  EK= 0.67953E+01 SP= -.36E+01 SK= 0.43E-02 mag=     -0.000
       N       E                     dE             d eps       ncg     rms          rms(c)
DAV:   1    -0.238905439506E+03    0.70112E-01   -0.56693E-02  6136   0.210E+00    0.185E+00
RMM:   2    -0.238906461245E+03   -0.10217E-02   -0.47761E-02  4872   0.461E-01    0.867E-01
RMM:   3    -0.238906235135E+03    0.22611E-03   -0.12303E-02  3559   0.219E-01
    339 T=   822. E= -.23578069E+03 F= -.23890624E+03 E0= -.23890624E+03  EK= 0.66925E+01 SP= -.36E+01 SK= 0.57E-02 mag=     -0.000
       N       E                     dE             d eps       ncg     rms          rms(c)
DAV:   1    -0.238850513888E+03    0.55947E-01   -0.99183E-02  6384   0.201E+00    0.464E-01
RMM:   2    -0.238853850579E+03   -0.33367E-02   -0.53947E-02  4947   0.472E-01    0.355E-01
RMM:   3    -0.238854189431E+03   -0.33885E-03   -0.93676E-03  3375   0.211E-01
    340 T=   811. E= -.23576977E+03 F= -.23885419E+03 E0= -.23885419E+03  EK= 0.66055E+01 SP= -.35E+01 SK= 0.66E-02 mag=     -0.000
       N       E                     dE             d eps       ncg     rms          rms(c)
DAV:   1    -0.238812601104E+03    0.41249E-01   -0.61368E-02  6088   0.201E+00    0.763E-01
RMM:   2    -0.238817568701E+03   -0.49676E-02   -0.58528E-02  5039   0.469E-01    0.699E-01
RMM:   3    -0.238818413563E+03   -0.84486E-03   -0.93421E-03  3299   0.209E-01
    341 T=   802. E= -.23576239E+03 F= -.23881841E+03 E0= -.23881841E+03  EK= 0.65295E+01 SP= -.35E+01 SK= 0.70E-02 mag=     -0.000
       N       E                     dE             d eps       ncg     rms          rms(c)
DAV:   1    -0.238795239892E+03    0.22329E-01   -0.55879E-02  6088   0.201E+00    0.146E+00
RMM:   2    -0.238798259173E+03   -0.30193E-02   -0.49155E-02  4947   0.442E-01    0.627E-01
RMM:   3    -0.238798952876E+03   -0.69370E-03   -0.98483E-03  3411   0.205E-01
    342 T=   795. E= -.23575408E+03 F= -.23879895E+03 E0= -.23879895E+03  EK= 0.64710E+01 SP= -.34E+01 SK= 0.69E-02 mag=     -0.000
       N       E                     dE             d eps       ncg     rms          rms(c)
DAV:   1    -0.238790314048E+03    0.79451E-02   -0.42708E-02  5992   0.198E+00    0.363E-01
RMM:   2    -0.238794480427E+03   -0.41664E-02   -0.45477E-02  4984   0.443E-01    0.294E-01
RMM:   3    -0.238795166210E+03   -0.68578E-03   -0.81781E-03  3196   0.195E-01
    343 T=   790. E= -.23574431E+03 F= -.23879517E+03 E0= -.23879517E+03  EK= 0.64309E+01 SP= -.34E+01 SK= 0.64E-02 mag=     -0.000
       N       E                     dE             d eps       ncg     rms          rms(c)
DAV:   1    -0.238801791743E+03   -0.73113E-02   -0.44720E-02  6040   0.198E+00    0.681E-01
RMM:   2    -0.238805428365E+03   -0.36366E-02   -0.41907E-02  5017   0.430E-01    0.619E-01
RMM:   3    -0.238806094737E+03   -0.66637E-03   -0.83422E-03  3143   0.191E-01
    344 T=   787. E= -.23573684E+03 F= -.23880609E+03 E0= -.23880609E+03  EK= 0.64056E+01 SP= -.33E+01 SK= 0.58E-02 mag=      0.000
       N       E                     dE             d eps       ncg     rms          rms(c)
DAV:   1    -0.238829408990E+03   -0.23981E-01   -0.41452E-02  5968   0.199E+00    0.158E+00
RMM:   2    -0.238831392724E+03   -0.19837E-02   -0.37187E-02  5077   0.414E-01    0.721E-01
RMM:   3    -0.238831543340E+03   -0.15062E-03   -0.94631E-03  3200   0.194E-01
    345 T=   786. E= -.23572994E+03 F= -.23883154E+03 E0= -.23883154E+03  EK= 0.63970E+01 SP= -.33E+01 SK= 0.50E-02 mag=      0.000
       N       E                     dE             d eps       ncg     rms          rms(c)
DAV:   1    -0.238867439776E+03   -0.36047E-01   -0.51248E-02  5936   0.199E+00    0.341E-01
RMM:   2    -0.238871188812E+03   -0.37490E-02   -0.44397E-02  5095   0.438E-01    0.390E-01
RMM:   3    -0.238871628404E+03   -0.43959E-03   -0.72381E-03  3083   0.187E-01
    346 T=   787. E= -.23572384E+03 F= -.23887163E+03 E0= -.23887163E+03  EK= 0.64051E+01 SP= -.33E+01 SK= 0.44E-02 mag=     -0.000
       N       E                     dE             d eps       ncg     rms          rms(c)
DAV:   1    -0.238921718982E+03   -0.50530E-01   -0.33514E-02  5768   0.196E+00    0.112E+00
RMM:   2    -0.238923166167E+03   -0.14472E-02   -0.42901E-02  5020   0.416E-01    0.867E-01
RMM:   3    -0.238923454172E+03   -0.28800E-03   -0.10467E-02  3205   0.198E-01
    347 T=   789. E= -.23571684E+03 F= -.23892345E+03 E0= -.23892345E+03  EK= 0.64283E+01 SP= -.32E+01 SK= 0.38E-02 mag=     -0.000
       N       E                     dE             d eps       ncg     rms          rms(c)
DAV:   1    -0.238991636195E+03   -0.68470E-01   -0.52680E-02  6120   0.196E+00    0.192E+00
RMM:   2    -0.238987430725E+03    0.42055E-02   -0.42307E-02  4904   0.421E-01    0.912E-01
RMM:   3    -0.238986196332E+03    0.12344E-02   -0.17195E-02  4013   0.230E-01
    348 T=   794. E= -.23571025E+03 F= -.23898620E+03 E0= -.23898620E+03  EK= 0.64641E+01 SP= -.32E+01 SK= 0.35E-02 mag=      0.000
       N       E                     dE             d eps       ncg     rms          rms(c)
DAV:   1    -0.239057758716E+03   -0.70328E-01   -0.72370E-02  6272   0.201E+00    0.459E-01
RMM:   2    -0.239057609062E+03    0.14965E-03   -0.55405E-02  4855   0.484E-01    0.396E-01
RMM:   3    -0.239057324974E+03    0.28409E-03   -0.10800E-02  3534   0.219E-01
    349 T=   799. E= -.23570550E+03 F= -.23905732E+03 E0= -.23905732E+03  EK= 0.65074E+01 SP= -.32E+01 SK= 0.33E-02 mag=     -0.000
       N       E                     dE             d eps       ncg     rms          rms(c)
DAV:   1    -0.239124642701E+03   -0.67034E-01   -0.10251E-01  6272   0.200E+00    0.574E-01
RMM:   2    -0.239130329161E+03   -0.56865E-02   -0.60132E-02  4880   0.480E-01    0.620E-01
RMM:   3    -0.239131078205E+03   -0.74904E-03   -0.87093E-03  3411   0.203E-01
    350 T=   805. E= -.23569883E+03 F= -.23913108E+03 E0= -.23913108E+03  EK= 0.65552E+01 SP= -.31E+01 SK= 0.34E-02 mag=     -0.000
       N       E                     dE             d eps       ncg     rms          rms(c)
DAV:   1    -0.239200070801E+03   -0.69742E-01   -0.37320E-02  5792   0.197E+00    0.586E-01
RMM:   2    -0.239202565472E+03   -0.24947E-02   -0.61619E-02  4851   0.451E-01    0.489E-01
RMM:   3    -0.239203418797E+03   -0.85333E-03   -0.10329E-02  3400   0.213E-01
    351 T=   810. E= -.23569321E+03 F= -.23920342E+03 E0= -.23920342E+03  EK= 0.65993E+01 SP= -.31E+01 SK= 0.37E-02 mag=      0.000
       N       E                     dE             d eps       ncg     rms          rms(c)
DAV:   1    -0.239263758966E+03   -0.61193E-01   -0.54183E-02  5944   0.202E+00    0.945E-01
RMM:   2    -0.239266871617E+03   -0.31127E-02   -0.41874E-02  4739   0.435E-01    0.389E-01
RMM:   3    -0.239267451131E+03   -0.57951E-03   -0.89185E-03  3477   0.200E-01
    352 T=   814. E= -.23568848E+03 F= -.23926745E+03 E0= -.23926745E+03  EK= 0.66319E+01 SP= -.31E+01 SK= 0.43E-02 mag=     -0.000
       N       E                     dE             d eps       ncg     rms          rms(c)
DAV:   1    -0.239312565433E+03   -0.45694E-01   -0.44339E-02  5888   0.200E+00    0.595E-01
RMM:   2    -0.239317077484E+03   -0.45121E-02   -0.44776E-02  5027   0.435E-01    0.182E-01
RMM:   3    -0.239317677837E+03   -0.60035E-03   -0.70918E-03  3024   0.185E-01
    353 T=   817. E= -.23568224E+03 F= -.23931768E+03 E0= -.23931768E+03  EK= 0.66492E+01 SP= -.30E+01 SK= 0.50E-02 mag=      0.000
       N       E                     dE             d eps       ncg     rms          rms(c)
DAV:   1    -0.239343714488E+03   -0.26637E-01   -0.60810E-02  5888   0.202E+00    0.197E-01
RMM:   2    -0.239347945109E+03   -0.42306E-02   -0.44334E-02  4951   0.431E-01    0.265E-01
RMM:   3    -0.239348721437E+03   -0.77633E-03   -0.82861E-03  3289   0.191E-01
    354 T=   816. E= -.23567538E+03 F= -.23934872E+03 E0= -.23934872E+03  EK= 0.66444E+01 SP= -.30E+01 SK= 0.59E-02 mag=      0.000
       N       E                     dE             d eps       ncg     rms          rms(c)
DAV:   1    -0.239351940460E+03   -0.39954E-02   -0.33752E-02  5584   0.205E+00    0.515E-01
RMM:   2    -0.239355836529E+03   -0.38961E-02   -0.40254E-02  5009   0.413E-01    0.512E-01
RMM:   3    -0.239356511910E+03   -0.67538E-03   -0.76102E-03  3094   0.182E-01
    355 T=   812. E= -.23566896E+03 F= -.23935651E+03 E0= -.23935651E+03  EK= 0.66128E+01 SP= -.29E+01 SK= 0.66E-02 mag=      0.000
       N       E                     dE             d eps       ncg     rms          rms(c)
DAV:   1    -0.239334801297E+03    0.21035E-01   -0.56611E-02  5864   0.201E+00    0.974E-01
RMM:   2    -0.239338875958E+03   -0.40747E-02   -0.39742E-02  4957   0.415E-01    0.377E-01
RMM:   3    -0.239339551914E+03   -0.67596E-03   -0.77353E-03  3206   0.184E-01
    356 T=   805. E= -.23566194E+03 F= -.23933955E+03 E0= -.23933955E+03  EK= 0.65549E+01 SP= -.29E+01 SK= 0.71E-02 mag=      0.000
       N       E                     dE             d eps       ncg     rms          rms(c)
DAV:   1    -0.239293171476E+03    0.45704E-01   -0.36972E-02  5592   0.202E+00    0.515E-01
RMM:   2    -0.239297347450E+03   -0.41760E-02   -0.40676E-02  5039   0.420E-01    0.220E-01
RMM:   3    -0.239298063946E+03   -0.71650E-03   -0.76371E-03  3091   0.184E-01
    357 T=   795. E= -.23565439E+03 F= -.23929806E+03 E0= -.23929806E+03  EK= 0.64726E+01 SP= -.28E+01 SK= 0.71E-02 mag=     -0.000
       N       E                     dE             d eps       ncg     rms          rms(c)
DAV:   1    -0.239229375529E+03    0.67972E-01   -0.43764E-02  5592   0.201E+00    0.214E-01
RMM:   2    -0.239233446625E+03   -0.40711E-02   -0.39838E-02  5016   0.415E-01    0.298E-01
RMM:   3    -0.239234163658E+03   -0.71703E-03   -0.75235E-03  3146   0.183E-01
    358 T=   782. E= -.23564517E+03 F= -.23923416E+03 E0= -.23923416E+03  EK= 0.63712E+01 SP= -.28E+01 SK= 0.65E-02 mag=      0.000
       N       E                     dE             d eps       ncg     rms          rms(c)
DAV:   1    -0.239149169633E+03    0.84277E-01   -0.41552E-02  5576   0.202E+00    0.737E-01
RMM:   2    -0.239153473324E+03   -0.43037E-02   -0.41683E-02  5072   0.423E-01    0.664E-01
RMM:   3    -0.239154182493E+03   -0.70917E-03   -0.81181E-03  3141   0.189E-01
    359 T=   769. E= -.23563468E+03 F= -.23915418E+03 E0= -.23915418E+03  EK= 0.62592E+01 SP= -.27E+01 SK= 0.51E-02 mag=     -0.000
       N       E                     dE             d eps       ncg     rms          rms(c)
DAV:   1    -0.239060975042E+03    0.92498E-01   -0.54646E-02  6040   0.199E+00    0.223E+00
RMM:   2    -0.239064507772E+03   -0.35327E-02   -0.40233E-02  5074   0.425E-01    0.110E+00
RMM:   3    -0.239065025975E+03   -0.51820E-03   -0.92702E-03  3278   0.198E-01
    360 T=   755. E= -.23562363E+03 F= -.23906503E+03 E0= -.23906503E+03  EK= 0.61453E+01 SP= -.27E+01 SK= 0.34E-02 mag=     -0.000
       N       E                     dE             d eps       ncg     rms          rms(c)
DAV:   1    -0.238969990469E+03    0.94517E-01   -0.51724E-02  6008   0.197E+00    0.650E-01
RMM:   2    -0.238974223527E+03   -0.42331E-02   -0.43765E-02  5121   0.442E-01    0.617E-01
RMM:   3    -0.238974858197E+03   -0.63467E-03   -0.82242E-03  3154   0.194E-01
    361 T=   742. E= -.23561207E+03 F= -.23897486E+03 E0= -.23897486E+03  EK= 0.60401E+01 SP= -.27E+01 SK= 0.16E-02 mag=     -0.000
       N       E                     dE             d eps       ncg     rms          rms(c)
DAV:   1    -0.238888533339E+03    0.85690E-01   -0.67134E-02  6240   0.198E+00    0.128E+00
RMM:   2    -0.238891174701E+03   -0.26414E-02   -0.44123E-02  5006   0.438E-01    0.499E-01
RMM:   3    -0.238891012872E+03    0.16183E-03   -0.10277E-02  3327   0.204E-01
    362 T=   731. E= -.23559909E+03 F= -.23889101E+03 E0= -.23889101E+03  EK= 0.59538E+01 SP= -.27E+01 SK= 0.30E-03 mag=     -0.000
       N       E                     dE             d eps       ncg     rms          rms(c)
DAV:   1    -0.238817639054E+03    0.73536E-01   -0.88190E-02  6200   0.200E+00    0.435E-01
RMM:   2    -0.238822102141E+03   -0.44631E-02   -0.55604E-02  5016   0.482E-01    0.490E-01
RMM:   3    -0.238822567913E+03   -0.46577E-03   -0.99886E-03  3476   0.214E-01
    363 T=   724. E= -.23558691E+03 F= -.23882257E+03 E0= -.23882257E+03  EK= 0.58949E+01 SP= -.27E+01 SK= 0.71E-04 mag=      0.000
       N       E                     dE             d eps       ncg     rms          rms(c)
DAV:   1    -0.238773715736E+03    0.48386E-01   -0.47528E-02  5968   0.194E+00    0.135E+00
RMM:   2    -0.238773789499E+03   -0.73763E-04   -0.57706E-02  5002   0.459E-01    0.984E-01
RMM:   3    -0.238774439158E+03   -0.64966E-03   -0.15770E-02  3771   0.230E-01
    364 T=   721. E= -.23557427E+03 F= -.23877444E+03 E0= -.23877444E+03  EK= 0.58706E+01 SP= -.27E+01 SK= 0.13E-02 mag=     -0.000
       N       E                     dE             d eps       ncg     rms          rms(c)
DAV:   1    -0.238763018169E+03    0.10771E-01   -0.49060E-02  6160   0.194E+00    0.214E+00
RMM:   2    -0.238753472324E+03    0.95458E-02   -0.51320E-02  4791   0.441E-01    0.107E+00
RMM:   3    -0.238752389214E+03    0.10831E-02   -0.26107E-02  4156   0.266E-01
    365 T=   723. E= -.23556263E+03 F= -.23875239E+03 E0= -.23875239E+03  EK= 0.58858E+01 SP= -.27E+01 SK= 0.40E-02 mag=     -0.000
       N       E                     dE             d eps       ncg     rms          rms(c)
DAV:   1    -0.238762314914E+03   -0.88426E-02   -0.88670E-02  6408   0.200E+00    0.621E-01
RMM:   2    -0.238756078089E+03    0.62368E-02   -0.54185E-02  4607   0.524E-01    0.368E-01
RMM:   3    -0.238756135783E+03   -0.57694E-04   -0.27427E-02  4816   0.295E-01
    366 T=   730. E= -.23555132E+03 F= -.23875614E+03 E0= -.23875614E+03  EK= 0.59407E+01 SP= -.27E+01 SK= 0.81E-02 mag=      0.000
       N       E                     dE             d eps       ncg     rms          rms(c)
DAV:   1    -0.238781746653E+03   -0.25669E-01   -0.10520E-01  6456   0.199E+00    0.620E-01
RMM:   2    -0.238783667637E+03   -0.19210E-02   -0.47052E-02  4492   0.499E-01    0.496E-01
RMM:   3    -0.238784785787E+03   -0.11181E-02   -0.18440E-02  4755   0.274E-01
    367 T=   741. E= -.23554009E+03 F= -.23878479E+03 E0= -.23878479E+03  EK= 0.60339E+01 SP= -.28E+01 SK= 0.13E-01 mag=      0.000
       N       E                     dE             d eps       ncg     rms          rms(c)
DAV:   1    -0.238829917375E+03   -0.46250E-01   -0.55202E-02  6232   0.195E+00    0.366E-01
RMM:   2    -0.238833813339E+03   -0.38960E-02   -0.43071E-02  4447   0.462E-01    0.136E-01
RMM:   3    -0.238835019436E+03   -0.12061E-02   -0.13269E-02  4383   0.247E-01
    368 T=   756. E= -.23553067E+03 F= -.23883502E+03 E0= -.23883502E+03  EK= 0.61591E+01 SP= -.29E+01 SK= 0.17E-01 mag=      0.000
       N       E                     dE             d eps       ncg     rms          rms(c)
DAV:   1    -0.238895790437E+03   -0.61977E-01   -0.37234E-02  5736   0.196E+00    0.443E-01
RMM:   2    -0.238899087130E+03   -0.32967E-02   -0.33907E-02  4545   0.414E-01    0.199E-01
RMM:   3    -0.238900006721E+03   -0.91959E-03   -0.10506E-02  3585   0.214E-01
    369 T=   775. E= -.23552068E+03 F= -.23890001E+03 E0= -.23890001E+03  EK= 0.63093E+01 SP= -.30E+01 SK= 0.21E-01 mag=      0.000
       N       E                     dE             d eps       ncg     rms          rms(c)
DAV:   1    -0.238969140133E+03   -0.70053E-01   -0.40204E-02  5848   0.199E+00    0.404E-01
RMM:   2    -0.238972540611E+03   -0.34005E-02   -0.33124E-02  4845   0.432E-01    0.120E-01
RMM:   3    -0.238973574100E+03   -0.10335E-02   -0.11100E-02  3581   0.212E-01
    370 T=   795. E= -.23550964E+03 F= -.23897357E+03 E0= -.23897357E+03  EK= 0.64761E+01 SP= -.30E+01 SK= 0.22E-01 mag=      0.000
       N       E                     dE             d eps       ncg     rms          rms(c)
DAV:   1    -0.239041828119E+03   -0.69288E-01   -0.43936E-02  5872   0.204E+00    0.227E-01
RMM:   2    -0.239045782700E+03   -0.39546E-02   -0.35396E-02  4979   0.436E-01    0.179E-01
RMM:   3    -0.239046775553E+03   -0.99285E-03   -0.98469E-03  3403   0.199E-01
    371 T=   816. E= -.23549860E+03 F= -.23904678E+03 E0= -.23904678E+03  EK= 0.66457E+01 SP= -.31E+01 SK= 0.21E-01 mag=     -0.000
       N       E                     dE             d eps       ncg     rms          rms(c)
DAV:   1    -0.239106506282E+03   -0.60724E-01   -0.42090E-02  5872   0.206E+00    0.232E-01
RMM:   2    -0.239110370752E+03   -0.38645E-02   -0.35703E-02  4973   0.420E-01    0.265E-01
RMM:   3    -0.239111278789E+03   -0.90804E-03   -0.90932E-03  3300   0.194E-01
    372 T=   836. E= -.23548776E+03 F= -.23911128E+03 E0= -.23911128E+03  EK= 0.68051E+01 SP= -.32E+01 SK= 0.19E-01 mag=     -0.000
       N       E                     dE             d eps       ncg     rms          rms(c)
DAV:   1    -0.239154769282E+03   -0.44399E-01   -0.42538E-02  5880   0.206E+00    0.261E-01
RMM:   2    -0.239158958432E+03   -0.41891E-02   -0.37458E-02  5053   0.421E-01    0.331E-01
RMM:   3    -0.239159816915E+03   -0.85848E-03   -0.85925E-03  3201   0.190E-01
    373 T=   853. E= -.23547636E+03 F= -.23915982E+03 E0= -.23915982E+03  EK= 0.69434E+01 SP= -.33E+01 SK= 0.15E-01 mag=     -0.000
       N       E                     dE             d eps       ncg     rms          rms(c)
DAV:   1    -0.239182382845E+03   -0.23424E-01   -0.38908E-02  5848   0.210E+00    0.468E-01
RMM:   2    -0.239186283178E+03   -0.39003E-02   -0.36523E-02  5072   0.420E-01    0.442E-01
RMM:   3    -0.239187099452E+03   -0.81627E-03   -0.83883E-03  3151   0.190E-01
    374 T=   866. E= -.23546513E+03 F= -.23918710E+03 E0= -.23918710E+03  EK= 0.70503E+01 SP= -.33E+01 SK= 0.10E-01 mag=     -0.000
       N       E                     dE             d eps       ncg     rms          rms(c)
DAV:   1    -0.239185131135E+03    0.11520E-02   -0.41622E-02  5752   0.212E+00    0.130E+00
RMM:   2    -0.239188671910E+03   -0.35408E-02   -0.36640E-02  5073   0.414E-01    0.585E-01
RMM:   3    -0.239189361883E+03   -0.68997E-03   -0.90133E-03  3235   0.194E-01
    375 T=   874. E= -.23545475E+03 F= -.23918936E+03 E0= -.23918936E+03  EK= 0.71178E+01 SP= -.34E+01 SK= 0.58E-02 mag=     -0.000
       N       E                     dE             d eps       ncg     rms          rms(c)
DAV:   1    -0.239160512331E+03    0.28160E-01   -0.38662E-02  5808   0.211E+00    0.197E-01
RMM:   2    -0.239164817757E+03   -0.43054E-02   -0.40451E-02  5160   0.436E-01    0.230E-01
RMM:   3    -0.239165585684E+03   -0.76793E-03   -0.83717E-03  3188   0.194E-01
    376 T=   877. E= -.23544303E+03 F= -.23916559E+03 E0= -.23916559E+03  EK= 0.71447E+01 SP= -.34E+01 SK= 0.24E-02 mag=     -0.000
       N       E                     dE             d eps       ncg     rms          rms(c)
DAV:   1    -0.239112739983E+03    0.52078E-01   -0.43903E-02  5824   0.211E+00    0.738E-01
RMM:   2    -0.239116156159E+03   -0.34162E-02   -0.38730E-02  5020   0.427E-01    0.630E-01
RMM:   3    -0.239116853853E+03   -0.69769E-03   -0.96000E-03  3243   0.200E-01
    377 T=   876. E= -.23543030E+03 F= -.23911685E+03 E0= -.23911685E+03  EK= 0.71308E+01 SP= -.34E+01 SK= 0.49E-03 mag=      0.000
       N       E                     dE             d eps       ncg     rms          rms(c)
DAV:   1    -0.239045516173E+03    0.70640E-01   -0.38848E-02  6040   0.212E+00    0.145E+00
RMM:   2    -0.239046685323E+03   -0.11691E-02   -0.39654E-02  5020   0.421E-01    0.663E-01
RMM:   3    -0.239046896184E+03   -0.21086E-03   -0.11232E-02  3378   0.209E-01
    378 T=   869. E= -.23541870E+03 F= -.23904690E+03 E0= -.23904690E+03  EK= 0.70778E+01 SP= -.34E+01 SK= 0.13E-04 mag=      0.000
       N       E                     dE             d eps       ncg     rms          rms(c)
DAV:   1    -0.238958440053E+03    0.88245E-01   -0.73584E-02  6184   0.212E+00    0.332E-01
RMM:   2    -0.238961675650E+03   -0.32356E-02   -0.48035E-02  4997   0.463E-01    0.325E-01
RMM:   3    -0.238962117961E+03   -0.44231E-03   -0.88679E-03  3286   0.206E-01
    379 T=   859. E= -.23540704E+03 F= -.23896212E+03 E0= -.23896212E+03  EK= 0.69950E+01 SP= -.34E+01 SK= 0.69E-03 mag=      0.000
       N       E                     dE             d eps       ncg     rms          rms(c)
DAV:   1    -0.238864574881E+03    0.97101E-01   -0.52480E-02  6120   0.208E+00    0.672E-01
RMM:   2    -0.238868917824E+03   -0.43429E-02   -0.48196E-02  5060   0.454E-01    0.635E-01
RMM:   3    -0.238869713098E+03   -0.79527E-03   -0.88389E-03  3168   0.200E-01
    380 T=   847. E= -.23539381E+03 F= -.23886971E+03 E0= -.23886971E+03  EK= 0.68937E+01 SP= -.34E+01 SK= 0.20E-02 mag=     -0.000
       N       E                     dE             d eps       ncg     rms          rms(c)
DAV:   1    -0.238776727293E+03    0.92191E-01   -0.42188E-02  5960   0.202E+00    0.155E+00
RMM:   2    -0.238778988642E+03   -0.22613E-02   -0.45935E-02  5026   0.435E-01    0.714E-01
RMM:   3    -0.238779584199E+03   -0.59556E-03   -0.10950E-02  3372   0.208E-01
    381 T=   833. E= -.23538368E+03 F= -.23877958E+03 E0= -.23877958E+03  EK= 0.67820E+01 SP= -.34E+01 SK= 0.35E-02 mag=      0.000
       N       E                     dE             d eps       ncg     rms          rms(c)
DAV:   1    -0.238695375383E+03    0.83613E-01   -0.55087E-02  6000   0.206E+00    0.386E-01
RMM:   2    -0.238699707579E+03   -0.43322E-02   -0.48137E-02  5040   0.453E-01    0.351E-01
RMM:   3    -0.238700336549E+03   -0.62897E-03   -0.86319E-03  3265   0.200E-01
    382 T=   820. E= -.23537485E+03 F= -.23870034E+03 E0= -.23870034E+03  EK= 0.66737E+01 SP= -.34E+01 SK= 0.47E-02 mag=      0.000
       N       E                     dE             d eps       ncg     rms          rms(c)
DAV:   1    -0.238638050987E+03    0.61657E-01   -0.57297E-02  6128   0.199E+00    0.888E-01
RMM:   2    -0.238641233428E+03   -0.31824E-02   -0.44414E-02  4966   0.438E-01    0.741E-01
RMM:   3    -0.238641800455E+03   -0.56703E-03   -0.95339E-03  3206   0.200E-01
    383 T=   809. E= -.23536272E+03 F= -.23864180E+03 E0= -.23864180E+03  EK= 0.65859E+01 SP= -.33E+01 SK= 0.54E-02 mag=     -0.000
       N       E                     dE             d eps       ncg     rms          rms(c)
DAV:   1    -0.238613311865E+03    0.27922E-01   -0.54310E-02  6104   0.193E+00    0.176E+00
RMM:   2    -0.238612657525E+03    0.65434E-03   -0.41607E-02  4970   0.429E-01    0.812E-01
RMM:   3    -0.238612278262E+03    0.37926E-03   -0.13598E-02  3652   0.216E-01
    384 T=   801. E= -.23535477E+03 F= -.23861228E+03 E0= -.23861228E+03  EK= 0.65216E+01 SP= -.33E+01 SK= 0.56E-02 mag=     -0.000
       N       E                     dE             d eps       ncg     rms          rms(c)
DAV:   1    -0.238611338061E+03    0.13195E-02   -0.54915E-02  6216   0.201E+00    0.408E-01
RMM:   2    -0.238614612759E+03   -0.32747E-02   -0.56624E-02  4936   0.460E-01    0.409E-01
RMM:   3    -0.238614764761E+03   -0.15200E-03   -0.89878E-03  3272   0.204E-01
    385 T=   797. E= -.23534968E+03 F= -.23861476E+03 E0= -.23861476E+03  EK= 0.64866E+01 SP= -.32E+01 SK= 0.56E-02 mag=     -0.000
       N       E                     dE             d eps       ncg     rms          rms(c)
DAV:   1    -0.238642272420E+03   -0.27660E-01   -0.85152E-02  6336   0.193E+00    0.650E-01
RMM:   2    -0.238647297553E+03   -0.50251E-02   -0.57469E-02  4935   0.455E-01    0.617E-01
RMM:   3    -0.238648065093E+03   -0.76754E-03   -0.88805E-03  3288   0.200E-01
    386 T=   797. E= -.23533924E+03 F= -.23864807E+03 E0= -.23864807E+03  EK= 0.64886E+01 SP= -.32E+01 SK= 0.54E-02 mag=      0.000
       N       E                     dE             d eps       ncg     rms          rms(c)
DAV:   1    -0.238707694013E+03   -0.60396E-01   -0.51990E-02  5952   0.190E+00    0.831E-01
RMM:   2    -0.238710622473E+03   -0.29285E-02   -0.54001E-02  4887   0.444E-01    0.345E-01
RMM:   3    -0.238711414125E+03   -0.79165E-03   -0.10114E-02  3410   0.207E-01
    387 T=   800. E= -.23533386E+03 F= -.23871141E+03 E0= -.23871141E+03  EK= 0.65161E+01 SP= -.31E+01 SK= 0.53E-02 mag=      0.000
       N       E                     dE             d eps       ncg     rms          rms(c)
DAV:   1    -0.238793703578E+03   -0.83081E-01   -0.49584E-02  5904   0.200E+00    0.702E-01
RMM:   2    -0.238798017221E+03   -0.43136E-02   -0.47106E-02  4882   0.441E-01    0.312E-01
RMM:   3    -0.238798695857E+03   -0.67864E-03   -0.84095E-03  3281   0.193E-01
    388 T=   806. E= -.23533101E+03 F= -.23879870E+03 E0= -.23879870E+03  EK= 0.65648E+01 SP= -.31E+01 SK= 0.55E-02 mag=      0.000
       N       E                     dE             d eps       ncg     rms          rms(c)
DAV:   1    -0.238897447127E+03   -0.99430E-01   -0.73594E-02  6120   0.195E+00    0.269E-01
RMM:   2    -0.238902320224E+03   -0.48731E-02   -0.48322E-02  4901   0.444E-01    0.233E-01
RMM:   3    -0.238903100966E+03   -0.78074E-03   -0.85567E-03  3223   0.193E-01
    389 T=   814. E= -.23532448E+03 F= -.23890310E+03 E0= -.23890310E+03  EK= 0.66326E+01 SP= -.31E+01 SK= 0.60E-02 mag=      0.000
       N       E                     dE             d eps       ncg     rms          rms(c)
DAV:   1    -0.239012965908E+03   -0.11065E+00   -0.49447E-02  5984   0.196E+00    0.447E-01
RMM:   2    -0.239017029036E+03   -0.40631E-02   -0.43843E-02  4974   0.425E-01    0.461E-01
RMM:   3    -0.239017737824E+03   -0.70879E-03   -0.80088E-03  3151   0.185E-01
    390 T=   823. E= -.23531939E+03 F= -.23901774E+03 E0= -.23901774E+03  EK= 0.67058E+01 SP= -.30E+01 SK= 0.71E-02 mag=      0.000
       N       E                     dE             d eps       ncg     rms          rms(c)
DAV:   1    -0.239130576535E+03   -0.11355E+00   -0.65370E-02  5968   0.201E+00    0.493E-01
RMM:   2    -0.239135124134E+03   -0.45476E-02   -0.44710E-02  4974   0.425E-01    0.195E-01
RMM:   3    -0.239135851976E+03   -0.72784E-03   -0.80511E-03  3223   0.184E-01
    391 T=   832. E= -.23531621E+03 F= -.23913585E+03 E0= -.23913585E+03  EK= 0.67752E+01 SP= -.30E+01 SK= 0.89E-02 mag=      0.000
       N       E                     dE             d eps       ncg     rms          rms(c)
DAV:   1    -0.239245801724E+03   -0.11068E+00   -0.42392E-02  5968   0.203E+00    0.573E-01
RMM:   2    -0.239250590083E+03   -0.47884E-02   -0.48685E-02  4991   0.429E-01    0.215E-01
RMM:   3    -0.239251332521E+03   -0.74244E-03   -0.82856E-03  3198   0.188E-01
    392 T=   840. E= -.23531071E+03 F= -.23925133E+03 E0= -.23925133E+03  EK= 0.68370E+01 SP= -.29E+01 SK= 0.11E-01 mag=     -0.000
       N       E                     dE             d eps       ncg     rms          rms(c)
DAV:   1    -0.239354120219E+03   -0.10353E+00   -0.62731E-02  6080   0.202E+00    0.344E-01
RMM:   2    -0.239359146372E+03   -0.50262E-02   -0.49360E-02  4961   0.429E-01    0.173E-01
RMM:   3    -0.239359920474E+03   -0.77410E-03   -0.83989E-03  3264   0.191E-01
    393 T=   845. E= -.23530448E+03 F= -.23935992E+03 E0= -.23935992E+03  EK= 0.68838E+01 SP= -.28E+01 SK= 0.15E-01 mag=     -0.000
       N       E                     dE             d eps       ncg     rms          rms(c)
DAV:   1    -0.239453325330E+03   -0.94179E-01   -0.60658E-02  5944   0.200E+00    0.204E-01
RMM:   2    -0.239457984623E+03   -0.46593E-02   -0.45682E-02  4950   0.427E-01    0.330E-01
RMM:   3    -0.239458703461E+03   -0.71884E-03   -0.77989E-03  3182   0.183E-01
    394 T=   848. E= -.23529946E+03 F= -.23945870E+03 E0= -.23945870E+03  EK= 0.69097E+01 SP= -.28E+01 SK= 0.19E-01 mag=      0.000
       N       E                     dE             d eps       ncg     rms          rms(c)
DAV:   1    -0.239540411646E+03   -0.82427E-01   -0.52768E-02  5928   0.201E+00    0.524E-01
RMM:   2    -0.239545005717E+03   -0.45941E-02   -0.45583E-02  4991   0.425E-01    0.579E-01
RMM:   3    -0.239545722155E+03   -0.71644E-03   -0.76154E-03  3156   0.181E-01
    395 T=   849. E= -.23529384E+03 F= -.23954572E+03 E0= -.23954572E+03  EK= 0.69138E+01 SP= -.27E+01 SK= 0.24E-01 mag=      0.000
       N       E                     dE             d eps       ncg     rms          rms(c)
DAV:   1    -0.239613697410E+03   -0.68692E-01   -0.55066E-02  6032   0.204E+00    0.417E-01
RMM:   2    -0.239618678607E+03   -0.49812E-02   -0.51024E-02  5036   0.440E-01    0.481E-01
RMM:   3    -0.239619430794E+03   -0.75219E-03   -0.83118E-03  3222   0.187E-01
    396 T=   847. E= -.23528694E+03 F= -.23961943E+03 E0= -.23961943E+03  EK= 0.68956E+01 SP= -.26E+01 SK= 0.30E-01 mag=      0.000
       N       E                     dE             d eps       ncg     rms          rms(c)
DAV:   1    -0.239673985628E+03   -0.55307E-01   -0.71265E-02  5984   0.202E+00    0.123E+00
RMM:   2    -0.239678424726E+03   -0.44391E-02   -0.54322E-02  4992   0.463E-01    0.987E-01
RMM:   3    -0.239678916431E+03   -0.49171E-03   -0.96930E-03  3382   0.204E-01
    397 T=   842. E= -.23528091E+03 F= -.23967892E+03 E0= -.23967892E+03  EK= 0.68528E+01 SP= -.25E+01 SK= 0.36E-01 mag=     -0.000
       N       E                     dE             d eps       ncg     rms          rms(c)
DAV:   1    -0.239723290003E+03   -0.44865E-01   -0.73798E-02  5984   0.215E+00    0.336E+00
RMM:   2    -0.239724412894E+03   -0.11229E-02   -0.52442E-02  5012   0.477E-01    0.170E+00
RMM:   3    -0.239723420411E+03    0.99248E-03   -0.13534E-02  3780   0.245E-01
    398 T=   834. E= -.23527209E+03 F= -.23972342E+03 E0= -.23972342E+03  EK= 0.67900E+01 SP= -.24E+01 SK= 0.41E-01 mag=     -0.000
       N       E                     dE             d eps       ncg     rms          rms(c)
DAV:   1    -0.239748227155E+03   -0.23814E-01   -0.85687E-02  6048   0.206E+00    0.923E-01
RMM:   2    -0.239751872049E+03   -0.36449E-02   -0.60911E-02  5020   0.517E-01    0.874E-01
RMM:   3    -0.239752208383E+03   -0.33633E-03   -0.10829E-02  3490   0.221E-01
    399 T=   823. E= -.23526282E+03 F= -.23975221E+03 E0= -.23975221E+03  EK= 0.67061E+01 SP= -.23E+01 SK= 0.45E-01 mag=     -0.000
       N       E                     dE             d eps       ncg     rms          rms(c)
DAV:   1    -0.239762068865E+03   -0.10197E-01   -0.11633E-01  6248   0.215E+00    0.141E+00
RMM:   2    -0.239764078111E+03   -0.20092E-02   -0.67635E-02  4700   0.507E-01    0.492E-01
RMM:   3    -0.239763038128E+03    0.10400E-02   -0.16763E-02  4307   0.256E-01
    400 T=   810. E= -.23525472E+03 F= -.23976304E+03 E0= -.23976304E+03  EK= 0.65999E+01 SP= -.21E+01 SK= 0.47E-01 mag=     -0.000
       N       E                     dE             d eps       ncg     rms          rms(c)
DAV:   1    -0.239750100736E+03    0.13977E-01   -0.15109E-01  6256   0.209E+00    0.490E-01
RMM:   2    -0.239756853889E+03   -0.67532E-02   -0.80592E-02  4671   0.522E-01    0.551E-01
RMM:   3    -0.239757664643E+03   -0.81075E-03   -0.15854E-02  4242   0.258E-01
    401 T=   795. E= -.23524860E+03 F= -.23975766E+03 E0= -.23975766E+03  EK= 0.64757E+01 SP= -.20E+01 SK= 0.48E-01 mag=      0.000
       N       E                     dE             d eps       ncg     rms          rms(c)
DAV:   1    -0.239735770895E+03    0.21083E-01   -0.69884E-02  6056   0.195E+00    0.149E+00
RMM:   2    -0.239732369540E+03    0.34014E-02   -0.84568E-02  4466   0.500E-01    0.114E+00
RMM:   3    -0.239733574126E+03   -0.12046E-02   -0.32156E-02  4805   0.286E-01    0.508E-01
RMM:   4    -0.239733567487E+03    0.66389E-05   -0.22765E-03  2628   0.126E-01
    402 T=   778. E= -.23524315E+03 F= -.23973357E+03 E0= -.23973357E+03  EK= 0.63355E+01 SP= -.19E+01 SK= 0.46E-01 mag=     -0.000
       N       E                     dE             d eps       ncg     rms          rms(c)
DAV:   1    -0.239698904299E+03    0.34670E-01   -0.70871E-02  6296   0.198E+00    0.238E+00
RMM:   2    -0.239692765447E+03    0.61389E-02   -0.79284E-02  4370   0.466E-01    0.109E+00
RMM:   3    -0.239693413507E+03   -0.64806E-03   -0.31990E-02  4624   0.276E-01
    403 T=   760. E= -.23523637E+03 F= -.23969341E+03 E0= -.23969341E+03  EK= 0.61875E+01 SP= -.18E+01 SK= 0.41E-01 mag=     -0.000
       N       E                     dE             d eps       ncg     rms          rms(c)
DAV:   1    -0.239637211525E+03    0.55554E-01   -0.72645E-02  6048   0.193E+00    0.487E-01
RMM:   2    -0.239637776856E+03   -0.56533E-03   -0.69689E-02  4148   0.500E-01    0.233E-01
RMM:   3    -0.239638995263E+03   -0.12184E-02   -0.21500E-02  4705   0.270E-01
    404 T=   741. E= -.23522873E+03 F= -.23963900E+03 E0= -.23963900E+03  EK= 0.60364E+01 SP= -.17E+01 SK= 0.34E-01 mag=     -0.000
       N       E                     dE             d eps       ncg     rms          rms(c)
DAV:   1    -0.239568123559E+03    0.69653E-01   -0.68667E-02  5912   0.195E+00    0.473E-01
RMM:   2    -0.239573289561E+03   -0.51660E-02   -0.58973E-02  4138   0.476E-01    0.552E-01
RMM:   3    -0.239574608932E+03   -0.13194E-02   -0.14248E-02  4532   0.244E-01
    405 T=   723. E= -.23522260E+03 F= -.23957461E+03 E0= -.23957461E+03  EK= 0.58872E+01 SP= -.16E+01 SK= 0.26E-01 mag=     -0.000
       N       E                     dE             d eps       ncg     rms          rms(c)
DAV:   1    -0.239500289011E+03    0.73001E-01   -0.52779E-02  6072   0.194E+00    0.170E+00
RMM:   2    -0.239503582137E+03   -0.32931E-02   -0.46107E-02  4415   0.441E-01    0.124E+00
RMM:   3    -0.239504452771E+03   -0.87063E-03   -0.17114E-02  4614   0.257E-01
    406 T=   706. E= -.23521552E+03 F= -.23950445E+03 E0= -.23950445E+03  EK= 0.57492E+01 SP= -.15E+01 SK= 0.17E-01 mag=     -0.000
       N       E                     dE             d eps       ncg     rms          rms(c)
DAV:   1    -0.239430952234E+03    0.72630E-01   -0.70420E-02  5968   0.192E+00    0.301E+00
RMM:   2    -0.239432365598E+03   -0.14134E-02   -0.54180E-02  4276   0.447E-01    0.157E+00
RMM:   3    -0.239433200651E+03   -0.83505E-03   -0.19789E-02  4810   0.274E-01
    407 T=   691. E= -.23520722E+03 F= -.23943320E+03 E0= -.23943320E+03  EK= 0.56294E+01 SP= -.14E+01 SK= 0.91E-02 mag=      0.000
       N       E                     dE             d eps       ncg     rms          rms(c)
DAV:   1    -0.239365181874E+03    0.67184E-01   -0.59382E-02  5896   0.194E+00    0.612E-01
RMM:   2    -0.239367622941E+03   -0.24411E-02   -0.60062E-02  4076   0.483E-01    0.563E-01
RMM:   3    -0.239368872405E+03   -0.12495E-02   -0.15221E-02  4534   0.244E-01
    408 T=   680. E= -.23520126E+03 F= -.23936887E+03 E0= -.23936887E+03  EK= 0.55340E+01 SP= -.14E+01 SK= 0.30E-02 mag=      0.000
       N       E                     dE             d eps       ncg     rms          rms(c)
DAV:   1    -0.239310135913E+03    0.57487E-01   -0.58454E-02  5960   0.185E+00    0.117E+00
RMM:   2    -0.239314025534E+03   -0.38896E-02   -0.48936E-02  4174   0.455E-01    0.906E-01
RMM:   3    -0.239315065535E+03   -0.10400E-02   -0.14129E-02  4528   0.251E-01
    409 T=   672. E= -.23519497E+03 F= -.23931507E+03 E0= -.23931507E+03  EK= 0.54705E+01 SP= -.14E+01 SK= 0.11E-03 mag=      0.000
       N       E                     dE             d eps       ncg     rms          rms(c)
DAV:   1    -0.239274298445E+03    0.39727E-01   -0.56660E-02  5928   0.186E+00    0.204E+00
RMM:   2    -0.239278254014E+03   -0.39556E-02   -0.46832E-02  4307   0.468E-01    0.993E-01
RMM:   3    -0.239279284763E+03   -0.10307E-02   -0.14418E-02  4594   0.253E-01
    410 T=   669. E= -.23518960E+03 F= -.23927928E+03 E0= -.23927928E+03  EK= 0.54459E+01 SP= -.14E+01 SK= 0.13E-02 mag=      0.000
       N       E                     dE             d eps       ncg     rms          rms(c)
DAV:   1    -0.239259615056E+03    0.18639E-01   -0.47507E-02  5872   0.185E+00    0.382E-01
RMM:   2    -0.239264299460E+03   -0.46844E-02   -0.49734E-02  4180   0.502E-01    0.366E-01
RMM:   3    -0.239265541330E+03   -0.12419E-02   -0.13113E-02  4382   0.235E-01
    411 T=   671. E= -.23518454E+03 F= -.23926554E+03 E0= -.23926554E+03  EK= 0.54651E+01 SP= -.14E+01 SK= 0.66E-02 mag=      0.000
       N       E                     dE             d eps       ncg     rms          rms(c)
DAV:   1    -0.239270248413E+03   -0.59490E-02   -0.63566E-02  5952   0.184E+00    0.118E+00
RMM:   2    -0.239273717504E+03   -0.34691E-02   -0.40894E-02  4358   0.449E-01    0.895E-01
RMM:   3    -0.239274033173E+03   -0.31567E-03   -0.14728E-02  4383   0.292E-01
    412 T=   679. E= -.23517733E+03 F= -.23927403E+03 E0= -.23927403E+03  EK= 0.55308E+01 SP= -.14E+01 SK= 0.16E-01 mag=      0.000
       N       E                     dE             d eps       ncg     rms          rms(c)
DAV:   1    -0.239302727500E+03   -0.29010E-01   -0.54987E-02  6032   0.189E+00    0.199E+00
RMM:   2    -0.239306329954E+03   -0.36025E-02   -0.53114E-02  4747   0.488E-01    0.865E-01
RMM:   3    -0.239306843930E+03   -0.51398E-03   -0.15383E-02  3998   0.300E-01
    413 T=   693. E= -.23517112E+03 F= -.23930684E+03 E0= -.23930684E+03  EK= 0.56416E+01 SP= -.15E+01 SK= 0.28E-01 mag=      0.000
       N       E                     dE             d eps       ncg     rms          rms(c)
DAV:   1    -0.239352966459E+03   -0.46637E-01   -0.86136E-02  5768   0.197E+00    0.442E-01
RMM:   2    -0.239358245328E+03   -0.52789E-02   -0.57699E-02  4347   0.544E-01    0.268E-01
RMM:   3    -0.239360104553E+03   -0.18592E-02   -0.17975E-02  4700   0.289E-01
    414 T=   711. E= -.23516714E+03 F= -.23936010E+03 E0= -.23936010E+03  EK= 0.57911E+01 SP= -.16E+01 SK= 0.40E-01 mag=     -0.000
       N       E                     dE             d eps       ncg     rms          rms(c)
DAV:   1    -0.239421996098E+03   -0.63751E-01   -0.59249E-02  5840   0.194E+00    0.841E-01
RMM:   2    -0.239426196079E+03   -0.42000E-02   -0.44588E-02  4458   0.490E-01    0.694E-01
RMM:   3    -0.239427636443E+03   -0.14404E-02   -0.16659E-02  4545   0.284E-01
    415 T=   734. E= -.23516222E+03 F= -.23942764E+03 E0= -.23942764E+03  EK= 0.59746E+01 SP= -.18E+01 SK= 0.52E-01 mag=      0.000
       N       E                     dE             d eps       ncg     rms          rms(c)
DAV:   1    -0.239499093205E+03   -0.72897E-01   -0.60772E-02  6016   0.194E+00    0.154E+00
RMM:   2    -0.239502546795E+03   -0.34536E-02   -0.50342E-02  4365   0.508E-01    0.680E-01
RMM:   3    -0.239503330244E+03   -0.78345E-03   -0.16760E-02  4567   0.271E-01
    416 T=   759. E= -.23515677E+03 F= -.23950333E+03 E0= -.23950333E+03  EK= 0.61830E+01 SP= -.19E+01 SK= 0.61E-01 mag=     -0.000
       N       E                     dE             d eps       ncg     rms          rms(c)
DAV:   1    -0.239572501128E+03   -0.69954E-01   -0.64253E-02  6040   0.201E+00    0.284E-01
RMM:   2    -0.239577682260E+03   -0.51811E-02   -0.55630E-02  4175   0.561E-01    0.247E-01
RMM:   3    -0.239578918588E+03   -0.12363E-02   -0.14189E-02  4508   0.255E-01
    417 T=   786. E= -.23515215E+03 F= -.23957892E+03 E0= -.23957892E+03  EK= 0.64027E+01 SP= -.20E+01 SK= 0.66E-01 mag=     -0.000
       N       E                     dE             d eps       ncg     rms          rms(c)
DAV:   1    -0.239641512226E+03   -0.63830E-01   -0.51690E-02  5960   0.201E+00    0.749E-01
RMM:   2    -0.239645557897E+03   -0.40457E-02   -0.43223E-02  4286   0.488E-01    0.645E-01
RMM:   3    -0.239646655063E+03   -0.10972E-02   -0.14330E-02  4434   0.255E-01
    418 T=   813. E= -.23514528E+03 F= -.23964666E+03 E0= -.23964666E+03  EK= 0.66245E+01 SP= -.22E+01 SK= 0.66E-01 mag=      0.000
       N       E                     dE             d eps       ncg     rms          rms(c)
DAV:   1    -0.239697678777E+03   -0.52121E-01   -0.58950E-02  5936   0.203E+00    0.180E+00
RMM:   2    -0.239699802973E+03   -0.21242E-02   -0.44696E-02  4436   0.484E-01    0.843E-01
RMM:   3    -0.239700261609E+03   -0.45864E-03   -0.18081E-02  4637   0.272E-01
    419 T=   839. E= -.23513817E+03 F= -.23970026E+03 E0= -.23970026E+03  EK= 0.68344E+01 SP= -.23E+01 SK= 0.61E-01 mag=      0.000
       N       E                     dE             d eps       ncg     rms          rms(c)
DAV:   1    -0.239729218032E+03   -0.29415E-01   -0.58159E-02  5896   0.211E+00    0.336E-01
RMM:   2    -0.239733579479E+03   -0.43614E-02   -0.54504E-02  4228   0.555E-01    0.400E-01
RMM:   3    -0.239734819588E+03   -0.12401E-02   -0.14770E-02  4601   0.260E-01
    420 T=   862. E= -.23513115E+03 F= -.23973482E+03 E0= -.23973482E+03  EK= 0.70211E+01 SP= -.25E+01 SK= 0.53E-01 mag=     -0.000
       N       E                     dE             d eps       ncg     rms          rms(c)
DAV:   1    -0.239741822447E+03   -0.82430E-02   -0.55946E-02  6000   0.210E+00    0.143E+00
RMM:   2    -0.239745707809E+03   -0.38854E-02   -0.51720E-02  4512   0.491E-01    0.108E+00
RMM:   3    -0.239745770526E+03   -0.62718E-04   -0.21191E-02  4611   0.321E-01
    421 T=   882. E= -.23511771E+03 F= -.23974577E+03 E0= -.23974577E+03  EK= 0.71807E+01 SP= -.26E+01 SK= 0.42E-01 mag=      0.000
       N       E                     dE             d eps       ncg     rms          rms(c)
DAV:   1    -0.239738172638E+03    0.75352E-02   -0.81665E-02  6072   0.216E+00    0.269E+00
RMM:   2    -0.239735471418E+03    0.27012E-02   -0.65521E-02  4322   0.576E-01    0.128E+00
RMM:   3    -0.239734736251E+03    0.73517E-03   -0.34525E-02  4724   0.381E-01    0.329E-01
RMM:   4    -0.239735853001E+03   -0.11168E-02   -0.60995E-03  3193   0.200E-01
    422 T=   896. E= -.23510910E+03 F= -.23973585E+03 E0= -.23973585E+03  EK= 0.72990E+01 SP= -.27E+01 SK= 0.30E-01 mag=      0.000
       N       E                     dE             d eps       ncg     rms          rms(c)
DAV:   1    -0.239699987824E+03    0.34748E-01   -0.68382E-02  6168   0.227E+00    0.578E-01
RMM:   2    -0.239701611577E+03   -0.16238E-02   -0.56271E-02  4354   0.531E-01    0.532E-01
RMM:   3    -0.239702722527E+03   -0.11110E-02   -0.18862E-02  4805   0.295E-01
    423 T=   905. E= -.23510093E+03 F= -.23970272E+03 E0= -.23970272E+03  EK= 0.73734E+01 SP= -.28E+01 SK= 0.19E-01 mag=     -0.000
       N       E                     dE             d eps       ncg     rms          rms(c)
DAV:   1    -0.239643517021E+03    0.58095E-01   -0.71553E-02  5960   0.216E+00    0.627E-01
RMM:   2    -0.239649865754E+03   -0.63487E-02   -0.53242E-02  4567   0.512E-01    0.594E-01
RMM:   3    -0.239651868583E+03   -0.20028E-02   -0.16605E-02  4529   0.279E-01
    424 T=   910. E= -.23508661E+03 F= -.23965187E+03 E0= -.23965187E+03  EK= 0.74131E+01 SP= -.29E+01 SK= 0.98E-02 mag=     -0.000
       N       E                     dE             d eps       ncg     rms          rms(c)
DAV:   1    -0.239579401876E+03    0.70464E-01   -0.61544E-02  5872   0.217E+00    0.466E-01
RMM:   2    -0.239585437895E+03   -0.60360E-02   -0.50618E-02  4754   0.479E-01    0.532E-01
RMM:   3    -0.239586821262E+03   -0.13834E-02   -0.11413E-02  3663   0.230E-01
    425 T=   911. E= -.23507003E+03 F= -.23958682E+03 E0= -.23958682E+03  EK= 0.74159E+01 SP= -.29E+01 SK= 0.36E-02 mag=      0.000
       N       E                     dE             d eps       ncg     rms          rms(c)
DAV:   1    -0.239505419849E+03    0.80018E-01   -0.55377E-02  5912   0.215E+00    0.828E-01
RMM:   2    -0.239511324718E+03   -0.59049E-02   -0.46384E-02  4730   0.494E-01    0.705E-01
RMM:   3    -0.239512503039E+03   -0.11783E-02   -0.13508E-02  3867   0.271E-01
    426 T=   907. E= -.23505456E+03 F= -.23951250E+03 E0= -.23951250E+03  EK= 0.73829E+01 SP= -.29E+01 SK= 0.45E-03 mag=     -0.000
       N       E                     dE             d eps       ncg     rms          rms(c)
DAV:   1    -0.239430435501E+03    0.80889E-01   -0.65082E-02  6128   0.218E+00    0.320E+00
RMM:   2    -0.239434032296E+03   -0.35968E-02   -0.49716E-02  4974   0.473E-01    0.162E+00
RMM:   3    -0.239433937021E+03    0.95276E-04   -0.13789E-02  3618   0.245E-01
    427 T=   899. E= -.23503790E+03 F= -.23943394E+03 E0= -.23943394E+03  EK= 0.73226E+01 SP= -.29E+01 SK= 0.23E-03 mag=     -0.000
       N       E                     dE             d eps       ncg     rms          rms(c)
DAV:   1    -0.239348707654E+03    0.85325E-01   -0.56927E-02  6000   0.214E+00    0.111E+00
RMM:   2    -0.239353967941E+03   -0.52603E-02   -0.55483E-02  4542   0.563E-01    0.866E-01
RMM:   3    -0.239354765819E+03   -0.79788E-03   -0.17214E-02  4519   0.285E-01
    428 T=   889. E= -.23501996E+03 F= -.23935477E+03 E0= -.23935477E+03  EK= 0.72407E+01 SP= -.29E+01 SK= 0.24E-02 mag=     -0.000
       N       E                     dE             d eps       ncg     rms          rms(c)
DAV:   1    -0.239274247640E+03    0.79720E-01   -0.69635E-02  6128   0.214E+00    0.102E+00
RMM:   2    -0.239276727815E+03   -0.24802E-02   -0.50054E-02  4460   0.542E-01    0.382E-01
RMM:   3    -0.239277252377E+03   -0.52456E-03   -0.17621E-02  4537   0.265E-01
    429 T=   877. E= -.23500388E+03 F= -.23927725E+03 E0= -.23927725E+03  EK= 0.71391E+01 SP= -.29E+01 SK= 0.61E-02 mag=     -0.000
       N       E                     dE             d eps       ncg     rms          rms(c)
DAV:   1    -0.239199222457E+03    0.77505E-01   -0.64542E-02  6048   0.210E+00    0.313E-01
RMM:   2    -0.239203444148E+03   -0.42217E-02   -0.47991E-02  4465   0.485E-01    0.324E-01
RMM:   3    -0.239204344200E+03   -0.90005E-03   -0.12170E-02  3940   0.235E-01
    430 T=   863. E= -.23498897E+03 F= -.23920434E+03 E0= -.23920434E+03  EK= 0.70247E+01 SP= -.28E+01 SK= 0.11E-01 mag=      0.000
       N       E                     dE             d eps       ncg     rms          rms(c)
DAV:   1    -0.239131223169E+03    0.72221E-01   -0.54326E-02  5952   0.209E+00    0.724E-01
RMM:   2    -0.239134554634E+03   -0.33315E-02   -0.49240E-02  4818   0.476E-01    0.617E-01
RMM:   3    -0.239135549287E+03   -0.99465E-03   -0.16081E-02  3892   0.239E-01
    431 T=   848. E= -.23497215E+03 F= -.23913555E+03 E0= -.23913555E+03  EK= 0.69039E+01 SP= -.28E+01 SK= 0.15E-01 mag=     -0.000
       N       E                     dE             d eps       ncg     rms          rms(c)
DAV:   1    -0.239070135576E+03    0.64419E-01   -0.62268E-02  5888   0.207E+00    0.145E+00
RMM:   2    -0.239070295766E+03   -0.16019E-03   -0.48833E-02  4748   0.456E-01    0.665E-01
RMM:   3    -0.239070876838E+03   -0.58107E-03   -0.19730E-02  4243   0.264E-01
    432 T=   832. E= -.23495553E+03 F= -.23907088E+03 E0= -.23907088E+03  EK= 0.67782E+01 SP= -.27E+01 SK= 0.19E-01 mag=     -0.000
       N       E                     dE             d eps       ncg     rms          rms(c)
DAV:   1    -0.239004929066E+03    0.65367E-01   -0.71494E-02  6128   0.210E+00    0.459E-01
RMM:   2    -0.239008088650E+03   -0.31596E-02   -0.50713E-02  4557   0.500E-01    0.256E-01
RMM:   3    -0.239009025840E+03   -0.93719E-03   -0.13729E-02  4116   0.251E-01
    433 T=   817. E= -.23493961E+03 F= -.23900903E+03 E0= -.23900903E+03  EK= 0.66493E+01 SP= -.26E+01 SK= 0.21E-01 mag=      0.000
       N       E                     dE             d eps       ncg     rms          rms(c)
DAV:   1    -0.238940697266E+03    0.67391E-01   -0.71023E-02  6168   0.205E+00    0.431E-01
RMM:   2    -0.238946182118E+03   -0.54849E-02   -0.48396E-02  4727   0.488E-01    0.470E-01
RMM:   3    -0.238947412026E+03   -0.12299E-02   -0.11735E-02  3683   0.226E-01
    434 T=   801. E= -.23492138E+03 F= -.23894741E+03 E0= -.23894741E+03  EK= 0.65211E+01 SP= -.25E+01 SK= 0.22E-01 mag=      0.000
       N       E                     dE             d eps       ncg     rms          rms(c)
DAV:   1    -0.238882635916E+03    0.63546E-01   -0.47705E-02  5696   0.201E+00    0.119E+00
RMM:   2    -0.238885135249E+03   -0.24993E-02   -0.44076E-02  4938   0.453E-01    0.878E-01
RMM:   3    -0.238885877578E+03   -0.74233E-03   -0.15929E-02  3726   0.242E-01
    435 T=   785. E= -.23490443E+03 F= -.23888588E+03 E0= -.23888588E+03  EK= 0.63932E+01 SP= -.24E+01 SK= 0.21E-01 mag=     -0.000
       N       E                     dE             d eps       ncg     rms          rms(c)
DAV:   1    -0.238825248156E+03    0.59887E-01   -0.60047E-02  6048   0.202E+00    0.233E+00
RMM:   2    -0.238824109102E+03    0.11391E-02   -0.43001E-02  4747   0.447E-01    0.118E+00
RMM:   3    -0.238823705697E+03    0.40340E-03   -0.19382E-02  4096   0.264E-01
    436 T=   770. E= -.23488832E+03 F= -.23882371E+03 E0= -.23882371E+03  EK= 0.62684E+01 SP= -.24E+01 SK= 0.19E-01 mag=     -0.000
       N       E                     dE             d eps       ncg     rms          rms(c)
DAV:   1    -0.238763322807E+03    0.60786E-01   -0.94955E-02  6248   0.197E+00    0.516E-01
RMM:   2    -0.238761954302E+03    0.13685E-02   -0.53553E-02  4504   0.542E-01    0.468E-01
RMM:   3    -0.238762519903E+03   -0.56560E-03   -0.20986E-02  4566   0.284E-01
    437 T=   756. E= -.23487166E+03 F= -.23876252E+03 E0= -.23876252E+03  EK= 0.61524E+01 SP= -.23E+01 SK= 0.15E-01 mag=      0.000
       N       E                     dE             d eps       ncg     rms          rms(c)
DAV:   1    -0.238696336357E+03    0.65618E-01   -0.74498E-02  6144   0.199E+00    0.900E-01
RMM:   2    -0.238701126933E+03   -0.47906E-02   -0.46921E-02  4510   0.510E-01    0.703E-01
RMM:   3    -0.238702282590E+03   -0.11557E-02   -0.15444E-02  4383   0.281E-01
    438 T=   742. E= -.23485754E+03 F= -.23870228E+03 E0= -.23870228E+03  EK= 0.60445E+01 SP= -.22E+01 SK= 0.11E-01 mag=     -0.000
       N       E                     dE             d eps       ncg     rms          rms(c)
DAV:   1    -0.238640028308E+03    0.61099E-01   -0.57705E-02  6112   0.192E+00    0.165E+00
RMM:   2    -0.238644508531E+03   -0.44802E-02   -0.46095E-02  4537   0.497E-01    0.764E-01
RMM:   3    -0.238645609714E+03   -0.11012E-02   -0.14223E-02  4198   0.263E-01
    439 T=   731. E= -.23484410E+03 F= -.23864561E+03 E0= -.23864561E+03  EK= 0.59511E+01 SP= -.22E+01 SK= 0.70E-02 mag=     -0.000
       N       E                     dE             d eps       ncg     rms          rms(c)
DAV:   1    -0.238588581407E+03    0.55927E-01   -0.58039E-02  5984   0.194E+00    0.307E-01
RMM:   2    -0.238593447357E+03   -0.48659E-02   -0.45467E-02  4256   0.531E-01    0.254E-01
RMM:   3    -0.238594751467E+03   -0.13041E-02   -0.12952E-02  4003   0.247E-01
    440 T=   722. E= -.23482879E+03 F= -.23859475E+03 E0= -.23859475E+03  EK= 0.58788E+01 SP= -.21E+01 SK= 0.33E-02 mag=      0.000
       N       E                     dE             d eps       ncg     rms          rms(c)
DAV:   1    -0.238547044608E+03    0.46403E-01   -0.50399E-02  5872   0.190E+00    0.768E-01
RMM:   2    -0.238551188820E+03   -0.41442E-02   -0.37488E-02  4583   0.473E-01    0.605E-01
RMM:   3    -0.238552129580E+03   -0.94076E-03   -0.14318E-02  4044   0.291E-01
    441 T=   716. E= -.23481334E+03 F= -.23855213E+03 E0= -.23855213E+03  EK= 0.58293E+01 SP= -.21E+01 SK= 0.83E-03 mag=     -0.000
       N       E                     dE             d eps       ncg     rms          rms(c)
DAV:   1    -0.238516747583E+03    0.34441E-01   -0.55228E-02  5992   0.189E+00    0.145E+00
RMM:   2    -0.238520522603E+03   -0.37750E-02   -0.42564E-02  4815   0.465E-01    0.610E-01
RMM:   3    -0.238521136319E+03   -0.61372E-03   -0.12569E-02  3759   0.272E-01
    442 T=   713. E= -.23479991E+03 F= -.23852114E+03 E0= -.23852114E+03  EK= 0.58047E+01 SP= -.21E+01 SK= 0.25E-05 mag=     -0.000
       N       E                     dE             d eps       ncg     rms          rms(c)
DAV:   1    -0.238497194934E+03    0.23328E-01   -0.65638E-02  5888   0.195E+00    0.317E-01
RMM:   2    -0.238501989016E+03   -0.47941E-02   -0.45134E-02  4435   0.517E-01    0.225E-01
RMM:   3    -0.238503578609E+03   -0.15896E-02   -0.14946E-02  4410   0.269E-01
    443 T=   713. E= -.23478828E+03 F= -.23850358E+03 E0= -.23850358E+03  EK= 0.58074E+01 SP= -.21E+01 SK= 0.10E-02 mag=      0.000
       N       E                     dE             d eps       ncg     rms          rms(c)
DAV:   1    -0.238494156193E+03    0.78328E-02   -0.49045E-02  5968   0.190E+00    0.696E-01
RMM:   2    -0.238498001608E+03   -0.38454E-02   -0.36680E-02  4619   0.460E-01    0.574E-01
RMM:   3    -0.238499195733E+03   -0.11941E-02   -0.13757E-02  4150   0.278E-01
    444 T=   717. E= -.23477583E+03 F= -.23849920E+03 E0= -.23849920E+03  EK= 0.58397E+01 SP= -.21E+01 SK= 0.39E-02 mag=     -0.000
       N       E                     dE             d eps       ncg     rms          rms(c)
DAV:   1    -0.238504864836E+03   -0.68632E-02   -0.42391E-02  5856   0.189E+00    0.138E+00
RMM:   2    -0.238507648496E+03   -0.27837E-02   -0.39102E-02  4631   0.466E-01    0.595E-01
RMM:   3    -0.238508151019E+03   -0.50252E-03   -0.13717E-02  4037   0.273E-01
    445 T=   724. E= -.23476435E+03 F= -.23850815E+03 E0= -.23850815E+03  EK= 0.58996E+01 SP= -.22E+01 SK= 0.82E-02 mag=     -0.000
       N       E                     dE             d eps       ncg     rms          rms(c)
DAV:   1    -0.238524289295E+03   -0.16641E-01   -0.58201E-02  6064   0.196E+00    0.293E-01
RMM:   2    -0.238528706224E+03   -0.44169E-02   -0.45419E-02  4419   0.536E-01    0.230E-01
RMM:   3    -0.238529980198E+03   -0.12740E-02   -0.13501E-02  4362   0.261E-01
    446 T=   735. E= -.23475442E+03 F= -.23852998E+03 E0= -.23852998E+03  EK= 0.59852E+01 SP= -.22E+01 SK= 0.13E-01 mag=     -0.000
       N       E                     dE             d eps       ncg     rms          rms(c)
DAV:   1    -0.238556398826E+03   -0.27693E-01   -0.53682E-02  6064   0.194E+00    0.726E-01
RMM:   2    -0.238559999792E+03   -0.36010E-02   -0.40908E-02  4656   0.481E-01    0.602E-01
RMM:   3    -0.238561010996E+03   -0.10112E-02   -0.14752E-02  4192   0.275E-01
    447 T=   748. E= -.23474300E+03 F= -.23856101E+03 E0= -.23856101E+03  EK= 0.60945E+01 SP= -.23E+01 SK= 0.19E-01 mag=     -0.000
       N       E                     dE             d eps       ncg     rms          rms(c)
DAV:   1    -0.238595719604E+03   -0.35720E-01   -0.56055E-02  6080   0.197E+00    0.148E+00
RMM:   2    -0.238597473430E+03   -0.17538E-02   -0.42117E-02  4538   0.476E-01    0.653E-01
RMM:   3    -0.238597749650E+03   -0.27622E-03   -0.17356E-02  4325   0.314E-01
    448 T=   764. E= -.23473275E+03 F= -.23859775E+03 E0= -.23859775E+03  EK= 0.62194E+01 SP= -.24E+01 SK= 0.23E-01 mag=     -0.000
       N       E                     dE             d eps       ncg     rms          rms(c)
DAV:   1    -0.238630757147E+03   -0.33284E-01   -0.70198E-02  6080   0.207E+00    0.365E-01
RMM:   2    -0.238635216698E+03   -0.44596E-02   -0.54857E-02  4420   0.584E-01    0.297E-01
RMM:   3    -0.238636613782E+03   -0.13971E-02   -0.15738E-02  4427   0.286E-01
    449 T=   780. E= -.23472443E+03 F= -.23863661E+03 E0= -.23863661E+03  EK= 0.63531E+01 SP= -.25E+01 SK= 0.26E-01 mag=      0.000
       N       E                     dE             d eps       ncg     rms          rms(c)
DAV:   1    -0.238666560205E+03   -0.31344E-01   -0.55912E-02  6024   0.206E+00    0.888E-01
RMM:   2    -0.238670443982E+03   -0.38838E-02   -0.47034E-02  4795   0.512E-01    0.746E-01
RMM:   3    -0.238671389644E+03   -0.94566E-03   -0.15586E-02  4021   0.294E-01
    450 T=   797. E= -.23471249E+03 F= -.23867139E+03 E0= -.23867139E+03  EK= 0.64922E+01 SP= -.26E+01 SK= 0.27E-01 mag=     -0.000
       N       E                     dE             d eps       ncg     rms          rms(c)
DAV:   1    -0.238699168905E+03   -0.28725E-01   -0.56640E-02  6016   0.205E+00    0.190E+00
RMM:   2    -0.238699628642E+03   -0.45974E-03   -0.46890E-02  4552   0.510E-01    0.885E-01
RMM:   3    -0.238699533477E+03    0.95165E-04   -0.23070E-02  4404   0.361E-01
    451 T=   814. E= -.23470252E+03 F= -.23869953E+03 E0= -.23869953E+03  EK= 0.66252E+01 SP= -.27E+01 SK= 0.27E-01 mag=      0.000
       N       E                     dE             d eps       ncg     rms          rms(c)
DAV:   1    -0.238714319158E+03   -0.14691E-01   -0.90169E-02  6088   0.219E+00    0.407E-01
RMM:   2    -0.238718216093E+03   -0.38969E-02   -0.68206E-02  4424   0.651E-01    0.407E-01
RMM:   3    -0.238719725104E+03   -0.15090E-02   -0.20498E-02  4720   0.321E-01
    452 T=   828. E= -.23469634E+03 F= -.23871973E+03 E0= -.23871973E+03  EK= 0.67454E+01 SP= -.27E+01 SK= 0.24E-01 mag=      0.000
       N       E                     dE             d eps       ncg     rms          rms(c)
DAV:   1    -0.238720736605E+03   -0.25205E-02   -0.78795E-02  6072   0.217E+00    0.137E+00
RMM:   2    -0.238724813448E+03   -0.40768E-02   -0.57360E-02  4826   0.560E-01    0.109E+00
RMM:   3    -0.238724418669E+03    0.39478E-03   -0.22719E-02  4286   0.394E-01
    453 T=   842. E= -.23467983E+03 F= -.23872442E+03 E0= -.23872442E+03  EK= 0.68562E+01 SP= -.28E+01 SK= 0.21E-01 mag=      0.000
       N       E                     dE             d eps       ncg     rms          rms(c)
DAV:   1    -0.238723072624E+03    0.17408E-02   -0.77120E-02  5664   0.219E+00    0.260E+00
RMM:   2    -0.238720822709E+03    0.22499E-02   -0.68837E-02  4598   0.579E-01    0.118E+00
RMM:   3    -0.238719714278E+03    0.11084E-02   -0.38181E-02  4349   0.475E-01    0.359E-01
RMM:   4    -0.238722058304E+03   -0.23440E-02   -0.10482E-02  3826   0.243E-01
    454 T=   853. E= -.23467097E+03 F= -.23872206E+03 E0= -.23872206E+03  EK= 0.69446E+01 SP= -.29E+01 SK= 0.16E-01 mag=      0.000
       N       E                     dE             d eps       ncg     rms          rms(c)
DAV:   1    -0.238704969602E+03    0.14745E-01   -0.90797E-02  5840   0.231E+00    0.504E-01
RMM:   2    -0.238707282581E+03   -0.23130E-02   -0.56580E-02  4390   0.527E-01    0.465E-01
RMM:   3    -0.238709048362E+03   -0.17658E-02   -0.18200E-02  4710   0.320E-01
    455 T=   861. E= -.23466406E+03 F= -.23870905E+03 E0= -.23870905E+03  EK= 0.70100E+01 SP= -.30E+01 SK= 0.11E-01 mag=      0.000
       N       E                     dE             d eps       ncg     rms          rms(c)
DAV:   1    -0.238682264628E+03    0.25018E-01   -0.73404E-02  6128   0.210E+00    0.107E+00
RMM:   2    -0.238688375279E+03   -0.61107E-02   -0.54940E-02  4907   0.529E-01    0.930E-01
RMM:   3    -0.238689095120E+03   -0.71984E-03   -0.16969E-02  4035   0.363E-01
    456 T=   868. E= -.23464813E+03 F= -.23868910E+03 E0= -.23868910E+03  EK= 0.70649E+01 SP= -.30E+01 SK= 0.71E-02 mag=      0.000
       N       E                     dE             d eps       ncg     rms          rms(c)
DAV:   1    -0.238664707499E+03    0.23668E-01   -0.94161E-02  6168   0.217E+00    0.227E+00
RMM:   2    -0.238669010879E+03   -0.43034E-02   -0.60077E-02  4870   0.530E-01    0.976E-01
RMM:   3    -0.238668126022E+03    0.88486E-03   -0.23662E-02  3959   0.455E-01
    457 T=   872. E= -.23463333E+03 F= -.23866813E+03 E0= -.23866813E+03  EK= 0.71033E+01 SP= -.31E+01 SK= 0.35E-02 mag=     -0.000
       N       E                     dE             d eps       ncg     rms          rms(c)
DAV:   1    -0.238646032281E+03    0.22979E-01   -0.11684E-01  5544   0.237E+00    0.543E-01
RMM:   2    -0.238653867340E+03   -0.78351E-02   -0.79306E-02  4716   0.650E-01    0.439E-01
RMM:   3    -0.238657060698E+03   -0.31934E-02   -0.27579E-02  5042   0.386E-01
    458 T=   875. E= -.23462674E+03 F= -.23865706E+03 E0= -.23865706E+03  EK= 0.71278E+01 SP= -.31E+01 SK= 0.11E-02 mag=     -0.000
       N       E                     dE             d eps       ncg     rms          rms(c)
DAV:   1    -0.238648410794E+03    0.54565E-02   -0.10129E-01  6008   0.229E+00    0.159E+00
RMM:   2    -0.238652301898E+03   -0.38911E-02   -0.64802E-02  4785   0.573E-01    0.124E+00
RMM:   3    -0.238651484589E+03    0.81731E-03   -0.30864E-02  4387   0.491E-01
    459 T=   879. E= -.23460380E+03 F= -.23865148E+03 E0= -.23865148E+03  EK= 0.71576E+01 SP= -.31E+01 SK= 0.37E-04 mag=      0.000
       N       E                     dE             d eps       ncg     rms          rms(c)
DAV:   1    -0.238676026475E+03   -0.23725E-01   -0.10300E-01  5824   0.227E+00    0.296E+00
RMM:   2    -0.238670643122E+03    0.53834E-02   -0.80703E-02  4728   0.650E-01    0.133E+00
RMM:   3    -0.238668118592E+03    0.25245E-02   -0.50173E-02  4416   0.527E-01    0.404E-01
RMM:   4    -0.238671100648E+03   -0.29821E-02   -0.13181E-02  4060   0.272E-01
    460 T=   882. E= -.23459091E+03 F= -.23867110E+03 E0= -.23867110E+03  EK= 0.71851E+01 SP= -.31E+01 SK= 0.51E-03 mag=      0.000
       N       E                     dE             d eps       ncg     rms          rms(c)
DAV:   1    -0.238706748391E+03   -0.38630E-01   -0.95666E-02  6072   0.236E+00    0.568E-01
RMM:   2    -0.238710095064E+03   -0.33467E-02   -0.62186E-02  4609   0.553E-01    0.500E-01
RMM:   3    -0.238712222997E+03   -0.21279E-02   -0.20473E-02  4700   0.342E-01
    461 T=   886. E= -.23458213E+03 F= -.23871222E+03 E0= -.23871222E+03  EK= 0.72118E+01 SP= -.31E+01 SK= 0.27E-02 mag=     -0.000
       N       E                     dE             d eps       ncg     rms          rms(c)
DAV:   1    -0.238772784081E+03   -0.62689E-01   -0.77167E-02  6112   0.214E+00    0.112E+00
RMM:   2    -0.238778954192E+03   -0.61701E-02   -0.63151E-02  4903   0.563E-01    0.957E-01
RMM:   3    -0.238779985429E+03   -0.10312E-02   -0.18897E-02  4318   0.372E-01
    462 T=   891. E= -.23456329E+03 F= -.23877999E+03 E0= -.23877999E+03  EK= 0.72559E+01 SP= -.30E+01 SK= 0.70E-02 mag=     -0.000
       N       E                     dE             d eps       ncg     rms          rms(c)
DAV:   1    -0.238872246920E+03   -0.93293E-01   -0.77347E-02  6168   0.222E+00    0.211E+00
RMM:   2    -0.238875925639E+03   -0.36787E-02   -0.57542E-02  4697   0.539E-01    0.965E-01
RMM:   3    -0.238874379539E+03    0.15461E-02   -0.28377E-02  3986   0.502E-01
    463 T=   897. E= -.23454500E+03 F= -.23887438E+03 E0= -.23887438E+03  EK= 0.73054E+01 SP= -.30E+01 SK= 0.14E-01 mag=     -0.000
       N       E                     dE             d eps       ncg     rms          rms(c)
DAV:   1    -0.238985438907E+03   -0.10951E+00   -0.15280E-01  5632   0.243E+00    0.706E-01
RMM:   2    -0.238994768493E+03   -0.93296E-02   -0.91263E-02  4687   0.653E-01    0.463E-01
RMM:   3    -0.238998382204E+03   -0.36137E-02   -0.29860E-02  5082   0.410E-01    0.670E-01
RMM:   4    -0.238998502635E+03   -0.12043E-03   -0.23880E-03  2627   0.138E-01
    464 T=   902. E= -.23453981E+03 F= -.23899850E+03 E0= -.23899850E+03  EK= 0.73492E+01 SP= -.29E+01 SK= 0.23E-01 mag=     -0.000
       N       E                     dE             d eps       ncg     rms          rms(c)
DAV:   1    -0.239128251653E+03   -0.12987E+00   -0.90846E-02  6280   0.226E+00    0.168E+00
RMM:   2    -0.239131999219E+03   -0.37476E-02   -0.74449E-02  4769   0.559E-01    0.126E+00
RMM:   3    -0.239132585345E+03   -0.58613E-03   -0.25770E-02  4729   0.391E-01
    465 T=   907. E= -.23452479E+03 F= -.23913259E+03 E0= -.23913259E+03  EK= 0.73890E+01 SP= -.28E+01 SK= 0.36E-01 mag=      0.000
       N       E                     dE             d eps       ncg     rms          rms(c)
DAV:   1    -0.239280954761E+03   -0.14896E+00   -0.78427E-02  6208   0.220E+00    0.275E+00
RMM:   2    -0.239275470097E+03    0.54847E-02   -0.72548E-02  4353   0.628E-01    0.136E+00
RMM:   3    -0.239274072385E+03    0.13977E-02   -0.39765E-02  4717   0.413E-01    0.510E-01
RMM:   4    -0.239275467875E+03   -0.13955E-02   -0.73917E-03  3232   0.218E-01
    466 T=   910. E= -.23451343E+03 F= -.23927547E+03 E0= -.23927547E+03  EK= 0.74090E+01 SP= -.27E+01 SK= 0.52E-01 mag=     -0.000
       N       E                     dE             d eps       ncg     rms          rms(c)
DAV:   1    -0.239411507131E+03   -0.13743E+00   -0.50644E-02  6136   0.226E+00    0.635E-01
RMM:   2    -0.239413283625E+03   -0.17765E-02   -0.58519E-02  4373   0.547E-01    0.558E-01
RMM:   3    -0.239414442119E+03   -0.11585E-02   -0.17343E-02  4727   0.299E-01
    467 T=   908. E= -.23450428E+03 F= -.23941444E+03 E0= -.23941444E+03  EK= 0.73978E+01 SP= -.26E+01 SK= 0.71E-01 mag=      0.000
       N       E                     dE             d eps       ncg     rms          rms(c)
DAV:   1    -0.239535004147E+03   -0.12172E+00   -0.65066E-02  6088   0.211E+00    0.877E-01
RMM:   2    -0.239539995943E+03   -0.49918E-02   -0.49272E-02  4588   0.520E-01    0.702E-01
RMM:   3    -0.239541419173E+03   -0.14232E-02   -0.16839E-02  4643   0.306E-01
    468 T=   903. E= -.23448928E+03 F= -.23954142E+03 E0= -.23954142E+03  EK= 0.73563E+01 SP= -.24E+01 SK= 0.93E-01 mag=     -0.000
       N       E                     dE             d eps       ncg     rms          rms(c)
DAV:   1    -0.239648427501E+03   -0.10843E+00   -0.45232E-02  5936   0.215E+00    0.136E+00
RMM:   2    -0.239651839431E+03   -0.34119E-02   -0.44015E-02  4553   0.486E-01    0.646E-01
RMM:   3    -0.239652384082E+03   -0.54465E-03   -0.14630E-02  4153   0.300E-01
    469 T=   894. E= -.23447427E+03 F= -.23965238E+03 E0= -.23965238E+03  EK= 0.72771E+01 SP= -.22E+01 SK= 0.12E+00 mag=     -0.000
       N       E                     dE             d eps       ncg     rms          rms(c)
DAV:   1    -0.239737817711E+03   -0.85978E-01   -0.64064E-02  6016   0.215E+00    0.492E-01
RMM:   2    -0.239743544413E+03   -0.57267E-02   -0.53562E-02  4305   0.572E-01    0.240E-01
RMM:   3    -0.239745256666E+03   -0.17123E-02   -0.16152E-02  4667   0.296E-01
    470 T=   879. E= -.23446072E+03 F= -.23974526E+03 E0= -.23974526E+03  EK= 0.71603E+01 SP= -.20E+01 SK= 0.14E+00 mag=     -0.000
       N       E                     dE             d eps       ncg     rms          rms(c)
DAV:   1    -0.239814061739E+03   -0.70517E-01   -0.52272E-02  5896   0.208E+00    0.569E-01
RMM:   2    -0.239818559566E+03   -0.44978E-02   -0.46161E-02  4571   0.527E-01    0.494E-01
RMM:   3    -0.239820012588E+03   -0.14530E-02   -0.14802E-02  4410   0.264E-01
    471 T=   861. E= -.23444632E+03 F= -.23982001E+03 E0= -.23982001E+03  EK= 0.70130E+01 SP= -.18E+01 SK= 0.16E+00 mag=     -0.000
       N       E                     dE             d eps       ncg     rms          rms(c)
DAV:   1    -0.239874542884E+03   -0.55983E-01   -0.62558E-02  6032   0.202E+00    0.310E-01
RMM:   2    -0.239878522184E+03   -0.39793E-02   -0.41043E-02  4525   0.470E-01    0.174E-01
RMM:   3    -0.239879807962E+03   -0.12858E-02   -0.12869E-02  4211   0.240E-01
    472 T=   840. E= -.23443207E+03 F= -.23987981E+03 E0= -.23987981E+03  EK= 0.68428E+01 SP= -.16E+01 SK= 0.17E+00 mag=      0.000
       N       E                     dE             d eps       ncg     rms          rms(c)
DAV:   1    -0.239922661717E+03   -0.44140E-01   -0.55963E-02  6024   0.199E+00    0.425E-01
RMM:   2    -0.239927139080E+03   -0.44774E-02   -0.42618E-02  4762   0.466E-01    0.165E-01
RMM:   3    -0.239928301722E+03   -0.11626E-02   -0.11938E-02  3810   0.230E-01
    473 T=   818. E= -.23441903E+03 F= -.23992830E+03 E0= -.23992830E+03  EK= 0.66579E+01 SP= -.13E+01 SK= 0.18E+00 mag=      0.000
       N       E                     dE             d eps       ncg     rms          rms(c)
DAV:   1    -0.239964522793E+03   -0.37384E-01   -0.56723E-02  6032   0.196E+00    0.393E-01
RMM:   2    -0.239968762154E+03   -0.42394E-02   -0.38813E-02  4780   0.443E-01    0.113E-01
RMM:   3    -0.239969916455E+03   -0.11543E-02   -0.11214E-02  3775   0.224E-01
    474 T=   794. E= -.23440642E+03 F= -.23996992E+03 E0= -.23996992E+03  EK= 0.64690E+01 SP= -.11E+01 SK= 0.18E+00 mag=     -0.000
       N       E                     dE             d eps       ncg     rms          rms(c)
DAV:   1    -0.240003417799E+03   -0.34656E-01   -0.44013E-02  5856   0.193E+00    0.226E-01
RMM:   2    -0.240007603068E+03   -0.41853E-02   -0.38796E-02  4855   0.443E-01    0.165E-01
RMM:   3    -0.240008652074E+03   -0.10490E-02   -0.98681E-03  3494   0.207E-01
    475 T=   772. E= -.23439288E+03 F= -.24000865E+03 E0= -.24000865E+03  EK= 0.62861E+01 SP= -.85E+00 SK= 0.18E+00 mag=     -0.000
       N       E                     dE             d eps       ncg     rms          rms(c)
DAV:   1    -0.240042795417E+03   -0.35192E-01   -0.52397E-02  6016   0.190E+00    0.181E-01
RMM:   2    -0.240046789925E+03   -0.39945E-02   -0.35688E-02  4876   0.423E-01    0.244E-01
RMM:   3    -0.240047806665E+03   -0.10167E-02   -0.94489E-03  3449   0.198E-01
    476 T=   751. E= -.23437990E+03 F= -.24004781E+03 E0= -.24004781E+03  EK= 0.61150E+01 SP= -.61E+00 SK= 0.16E+00 mag=      0.000
       N       E                     dE             d eps       ncg     rms          rms(c)
DAV:   1    -0.240084732584E+03   -0.37943E-01   -0.38351E-02  5864   0.186E+00    0.359E-01
RMM:   2    -0.240088377163E+03   -0.36446E-02   -0.32956E-02  4952   0.412E-01    0.373E-01
RMM:   3    -0.240089219517E+03   -0.84235E-03   -0.81567E-03  3199   0.187E-01
    477 T=   732. E= -.23436905E+03 F= -.24008922E+03 E0= -.24008922E+03  EK= 0.59589E+01 SP= -.39E+00 SK= 0.15E+00 mag=      0.000
       N       E                     dE             d eps       ncg     rms          rms(c)
DAV:   1    -0.240128589513E+03   -0.40212E-01   -0.37662E-02  5864   0.184E+00    0.608E-01
RMM:   2    -0.240131856818E+03   -0.32673E-02   -0.31116E-02  4901   0.412E-01    0.517E-01
RMM:   3    -0.240132558212E+03   -0.70139E-03   -0.81819E-03  3213   0.194E-01
    478 T=   715. E= -.23435861E+03 F= -.24013256E+03 E0= -.24013256E+03  EK= 0.58218E+01 SP= -.18E+00 SK= 0.13E+00 mag=     -0.000
       N       E                     dE             d eps       ncg     rms          rms(c)
DAV:   1    -0.240177120806E+03   -0.45264E-01   -0.39373E-02  5736   0.181E+00    0.222E+00
RMM:   2    -0.240178765497E+03   -0.16447E-02   -0.30765E-02  4988   0.388E-01
    479 T=   702. E= -.23434172E+03 F= -.24017877E+03 E0= -.24017877E+03  EK= 0.57132E+01 SP= 0.19E-01 SK= 0.11E+00 mag=     -0.000
       N       E                     dE             d eps       ncg     rms          rms(c)
DAV:   1    -0.240218863923E+03   -0.41743E-01   -0.86659E-02  6544   0.201E+00    0.656E-01
RMM:   2    -0.240225638753E+03   -0.67748E-02   -0.68995E-02  4675   0.551E-01    0.538E-01
RMM:   3    -0.240227176000E+03   -0.15372E-02   -0.18176E-02  4799   0.291E-01
    480 T=   691. E= -.23432588E+03 F= -.24022718E+03 E0= -.24022718E+03  EK= 0.56258E+01 SP= 0.19E+00 SK= 0.83E-01 mag=      0.000
       N       E                     dE             d eps       ncg     rms          rms(c)
DAV:   1    -0.240273948205E+03   -0.48309E-01   -0.54471E-02  5968   0.182E+00    0.225E+00
RMM:   2    -0.240273322729E+03    0.62548E-03   -0.45467E-02  4433   0.455E-01    0.145E+00
RMM:   3    -0.240274274313E+03   -0.95158E-03   -0.22746E-02  4740   0.258E-01
    481 T=   681. E= -.23431905E+03 F= -.24027427E+03 E0= -.24027427E+03  EK= 0.55491E+01 SP= 0.35E+00 SK= 0.61E-01 mag=     -0.000
       N       E                     dE             d eps       ncg     rms          rms(c)
DAV:   1    -0.240329938625E+03   -0.56616E-01   -0.37457E-02  5992   0.179E+00    0.266E+00
RMM:   2    -0.240320616878E+03    0.93217E-02   -0.44239E-02  4405   0.439E-01    0.141E+00
RMM:   3    -0.240319318958E+03    0.12979E-02   -0.32016E-02  4464   0.288E-01    0.408E-01
RMM:   4    -0.240319704884E+03   -0.38593E-03   -0.50366E-03  3102   0.161E-01
    482 T=   674. E= -.23431619E+03 F= -.24031970E+03 E0= -.24031970E+03  EK= 0.54886E+01 SP= 0.47E+00 SK= 0.42E-01 mag=      0.000
       N       E                     dE             d eps       ncg     rms          rms(c)
DAV:   1    -0.240360583821E+03   -0.41265E-01   -0.43347E-02  5952   0.188E+00    0.577E-01
RMM:   2    -0.240360273368E+03    0.31045E-03   -0.46052E-02  4466   0.460E-01    0.449E-01
RMM:   3    -0.240360713120E+03   -0.43975E-03   -0.17956E-02  4584   0.250E-01
    483 T=   669. E= -.23431046E+03 F= -.24036071E+03 E0= -.24036071E+03  EK= 0.54488E+01 SP= 0.58E+00 SK= 0.25E-01 mag=      0.000
       N       E                     dE             d eps       ncg     rms          rms(c)
DAV:   1    -0.240390455298E+03   -0.30182E-01   -0.44274E-02  5912   0.176E+00    0.350E-01
RMM:   2    -0.240395158122E+03   -0.47028E-02   -0.46081E-02  4395   0.452E-01    0.266E-01
RMM:   3    -0.240396581320E+03   -0.14232E-02   -0.13395E-02  4251   0.245E-01
    484 T=   667. E= -.23430312E+03 F= -.24039658E+03 E0= -.24039658E+03  EK= 0.54279E+01 SP= 0.65E+00 SK= 0.12E-01 mag=      0.000
       N       E                     dE             d eps       ncg     rms          rms(c)
DAV:   1    -0.240420021630E+03   -0.24864E-01   -0.46402E-02  6040   0.177E+00    0.494E-01
RMM:   2    -0.240423482426E+03   -0.34608E-02   -0.35038E-02  4330   0.413E-01    0.416E-01
RMM:   3    -0.240424660964E+03   -0.11785E-02   -0.10733E-02  4026   0.217E-01
    485 T=   666. E= -.23429718E+03 F= -.24042466E+03 E0= -.24042466E+03  EK= 0.54204E+01 SP= 0.70E+00 SK= 0.41E-02 mag=      0.000
       N       E                     dE             d eps       ncg     rms          rms(c)
DAV:   1    -0.240440870193E+03   -0.17388E-01   -0.36630E-02  5864   0.176E+00    0.307E-01
RMM:   2    -0.240442760213E+03   -0.18900E-02   -0.28617E-02  4597   0.403E-01
    486 T=   667. E= -.23428334E+03 F= -.24044276E+03 E0= -.24044276E+03  EK= 0.54333E+01 SP= 0.73E+00 SK= 0.28E-03 mag=     -0.000
       N       E                     dE             d eps       ncg     rms          rms(c)
DAV:   1    -0.240446191434E+03   -0.53212E-02   -0.83556E-02  6376   0.195E+00    0.810E-01
RMM:   2    -0.240453404510E+03   -0.72131E-02   -0.71027E-02  5256   0.567E-01    0.210E-01
RMM:   3    -0.240454449286E+03   -0.10448E-02   -0.12497E-02  3555   0.247E-01
    487 T=   671. E= -.23427042E+03 F= -.24045445E+03 E0= -.24045445E+03  EK= 0.54611E+01 SP= 0.72E+00 SK= 0.88E-03 mag=     -0.000
       N       E                     dE             d eps       ncg     rms          rms(c)
DAV:   1    -0.240453360939E+03    0.43571E-04   -0.85007E-02  5928   0.178E+00    0.305E-01
RMM:   2    -0.240457175962E+03   -0.38150E-02   -0.37814E-02  4646   0.476E-01    0.151E-01
RMM:   3    -0.240459021461E+03   -0.18455E-02   -0.17790E-02  4608   0.243E-01
    488 T=   675. E= -.23426616E+03 F= -.24045902E+03 E0= -.24045902E+03  EK= 0.54951E+01 SP= 0.69E+00 SK= 0.56E-02 mag=      0.000
       N       E                     dE             d eps       ncg     rms          rms(c)
DAV:   1    -0.240454563129E+03    0.26128E-02   -0.32876E-02  5912   0.176E+00    0.308E-01
RMM:   2    -0.240457369229E+03   -0.28061E-02   -0.39618E-02  4662   0.421E-01    0.232E-01
RMM:   3    -0.240458335968E+03   -0.96674E-03   -0.97023E-03  3693   0.220E-01
    489 T=   681. E= -.23426429E+03 F= -.24045834E+03 E0= -.24045834E+03  EK= 0.55429E+01 SP= 0.64E+00 SK= 0.14E-01 mag=      0.000
       N       E                     dE             d eps       ncg     rms          rms(c)
DAV:   1    -0.240450229119E+03    0.71401E-02   -0.34280E-02  5744   0.177E+00    0.280E-01
RMM:   2    -0.240453217892E+03   -0.29888E-02   -0.32241E-02  4613   0.414E-01    0.170E-01
RMM:   3    -0.240454243620E+03   -0.10257E-02   -0.95442E-03  3576   0.212E-01
    490 T=   689. E= -.23425926E+03 F= -.24045424E+03 E0= -.24045424E+03  EK= 0.56116E+01 SP= 0.56E+00 SK= 0.25E-01 mag=      0.000
       N       E                     dE             d eps       ncg     rms          rms(c)
DAV:   1    -0.240444328096E+03    0.88898E-02   -0.39052E-02  5928   0.179E+00    0.264E-01
RMM:   2    -0.240447936956E+03   -0.36089E-02   -0.32462E-02  4951   0.421E-01    0.158E-01
RMM:   3    -0.240449075657E+03   -0.11387E-02   -0.96662E-03  3390   0.212E-01
    491 T=   700. E= -.23425223E+03 F= -.24044908E+03 E0= -.24044908E+03  EK= 0.57015E+01 SP= 0.46E+00 SK= 0.38E-01 mag=      0.000
       N       E                     dE             d eps       ncg     rms          rms(c)
DAV:   1    -0.240440806903E+03    0.71301E-02   -0.31982E-02  5640   0.180E+00    0.249E-01
RMM:   2    -0.240443968517E+03   -0.31616E-02   -0.28595E-02  4824   0.395E-01
    492 T=   714. E= -.23423931E+03 F= -.24044397E+03 E0= -.24044397E+03  EK= 0.58166E+01 SP= 0.34E+00 SK= 0.52E-01 mag=      0.000
       N       E                     dE             d eps       ncg     rms          rms(c)
DAV:   1    -0.240436587765E+03    0.42191E-02   -0.68702E-02  6400   0.193E+00    0.306E-01
RMM:   2    -0.240442516219E+03   -0.59285E-02   -0.57371E-02  5170   0.538E-01    0.199E-01
RMM:   3    -0.240443652874E+03   -0.11367E-02   -0.11702E-02  3525   0.239E-01
    493 T=   731. E= -.23422775E+03 F= -.24044365E+03 E0= -.24044365E+03  EK= 0.59532E+01 SP= 0.20E+00 SK= 0.66E-01 mag=     -0.000
       N       E                     dE             d eps       ncg     rms          rms(c)
DAV:   1    -0.240441974312E+03    0.54191E-03   -0.57332E-02  5968   0.183E+00    0.282E-01
RMM:   2    -0.240445470140E+03   -0.34958E-02   -0.34363E-02  4715   0.453E-01    0.263E-01
RMM:   3    -0.240446685598E+03   -0.12155E-02   -0.12636E-02  4109   0.218E-01
    494 T=   749. E= -.23422298E+03 F= -.24044669E+03 E0= -.24044669E+03  EK= 0.61021E+01 SP= 0.44E-01 SK= 0.77E-01 mag=     -0.000
       N       E                     dE             d eps       ncg     rms          rms(c)
DAV:   1    -0.240449935171E+03   -0.44650E-02   -0.33048E-02  5648   0.190E+00    0.248E-01
RMM:   2    -0.240453426302E+03   -0.34911E-02   -0.34666E-02  5105   0.435E-01    0.254E-01
RMM:   3    -0.240454154066E+03   -0.72776E-03   -0.77034E-03  3040   0.194E-01
    495 T=   770. E= -.23421997E+03 F= -.24045415E+03 E0= -.24045415E+03  EK= 0.62670E+01 SP= -.12E+00 SK= 0.85E-01 mag=      0.000
       N       E                     dE             d eps       ncg     rms          rms(c)
DAV:   1    -0.240459971607E+03   -0.65453E-02   -0.41140E-02  5872   0.189E+00    0.510E-01
RMM:   2    -0.240463502418E+03   -0.35308E-02   -0.33435E-02  4963   0.412E-01    0.187E-01
RMM:   3    -0.240464352113E+03   -0.84969E-03   -0.85408E-03  3239   0.197E-01
    496 T=   792. E= -.23421461E+03 F= -.24046435E+03 E0= -.24046435E+03  EK= 0.64472E+01 SP= -.29E+00 SK= 0.89E-01 mag=      0.000
       N       E                     dE             d eps       ncg     rms          rms(c)
DAV:   1    -0.240468008466E+03   -0.45060E-02   -0.43336E-02  5928   0.199E+00    0.427E-01
RMM:   2    -0.240471890304E+03   -0.38818E-02   -0.38030E-02  5187   0.441E-01    0.149E-01
RMM:   3    -0.240472824864E+03   -0.93456E-03   -0.93356E-03  3211   0.205E-01
    497 T=   815. E= -.23420740E+03 F= -.24047282E+03 E0= -.24047282E+03  EK= 0.66340E+01 SP= -.46E+00 SK= 0.89E-01 mag=      0.000
       N       E                     dE             d eps       ncg     rms          rms(c)
DAV:   1    -0.240470757560E+03    0.11327E-02   -0.56061E-02  6016   0.196E+00    0.238E-01
RMM:   2    -0.240474518872E+03   -0.37613E-02   -0.35402E-02  4996   0.426E-01    0.207E-01
RMM:   3    -0.240475304389E+03   -0.78552E-03   -0.80918E-03  3255   0.189E-01
    498 T=   837. E= -.23420013E+03 F= -.24047530E+03 E0= -.24047530E+03  EK= 0.68166E+01 SP= -.62E+00 SK= 0.83E-01 mag=      0.000
       N       E                     dE             d eps       ncg     rms          rms(c)
DAV:   1    -0.240462829539E+03    0.11689E-01   -0.35441E-02  5720   0.199E+00    0.293E-01
RMM:   2    -0.240466830638E+03   -0.40011E-02   -0.37329E-02  5121   0.418E-01    0.355E-01
RMM:   3    -0.240467598994E+03   -0.76836E-03   -0.77035E-03  3053   0.185E-01
    499 T=   858. E= -.23419232E+03 F= -.24046760E+03 E0= -.24046760E+03  EK= 0.69861E+01 SP= -.78E+00 SK= 0.74E-01 mag=     -0.000
       N       E                     dE             d eps       ncg     rms          rms(c)
DAV:   1    -0.240440385763E+03    0.26445E-01   -0.44791E-02  5920   0.206E+00    0.263E-01
RMM:   2    -0.240444484085E+03   -0.40983E-02   -0.39634E-02  5112   0.433E-01    0.312E-01
RMM:   3    -0.240445299419E+03   -0.81533E-03   -0.83577E-03  3145   0.192E-01
    500 T=   876. E= -.23418268E+03 F= -.24044530E+03 E0= -.24044530E+03  EK= 0.71342E+01 SP= -.93E+00 SK= 0.62E-01 mag=      0.000
       N       E                     dE             d eps       ncg     rms          rms(c)
DAV:   1    -0.240399954261E+03    0.44530E-01   -0.61234E-02  5992   0.206E+00    0.511E-01
RMM:   2    -0.240404353043E+03   -0.43988E-02   -0.42275E-02  5100   0.449E-01    0.491E-01
RMM:   3    -0.240405273017E+03   -0.91997E-03   -0.94137E-03  3338   0.202E-01
    501 T=   890. E= -.23417229E+03 F= -.24040527E+03 E0= -.24040527E+03  EK= 0.72515E+01 SP= -.11E+01 SK= 0.48E-01 mag=      0.000
       N       E                     dE             d eps       ncg     rms          rms(c)
DAV:   1    -0.240340139822E+03    0.64213E-01   -0.55760E-02  5880   0.205E+00    0.591E-01
RMM:   2    -0.240344133688E+03   -0.39939E-02   -0.39338E-02  5086   0.433E-01    0.182E-01
RMM:   3    -0.240344899661E+03   -0.76597E-03   -0.84805E-03  3188   0.196E-01
    502 T=   900. E= -.23416159E+03 F= -.24034490E+03 E0= -.24034490E+03  EK= 0.73304E+01 SP= -.12E+01 SK= 0.34E-01 mag=      0.000
       N       E                     dE             d eps       ncg     rms          rms(c)
DAV:   1    -0.240259445192E+03    0.84688E-01   -0.63354E-02  6016   0.206E+00    0.735E-01
RMM:   2    -0.240264421055E+03   -0.49759E-02   -0.46624E-02  5123   0.449E-01    0.232E-01
RMM:   3    -0.240265334511E+03   -0.91346E-03   -0.94634E-03  3315   0.206E-01
    503 T=   905. E= -.23415014E+03 F= -.24026533E+03 E0= -.24026533E+03  EK= 0.73693E+01 SP= -.13E+01 SK= 0.22E-01 mag=      0.000
       N       E                     dE             d eps       ncg     rms          rms(c)
DAV:   1    -0.240164957093E+03    0.99464E-01   -0.61642E-02  5952   0.207E+00    0.234E-01
RMM:   2    -0.240169766162E+03   -0.48091E-02   -0.44376E-02  5080   0.454E-01    0.219E-01
RMM:   3    -0.240170664548E+03   -0.89839E-03   -0.92115E-03  3285   0.204E-01
    504 T=   905. E= -.23413731E+03 F= -.24017066E+03 E0= -.24017066E+03  EK= 0.73709E+01 SP= -.14E+01 SK= 0.12E-01 mag=      0.000
       N       E                     dE             d eps       ncg     rms          rms(c)
DAV:   1    -0.240059163039E+03    0.11060E+00   -0.55725E-02  5952   0.207E+00    0.489E-01
RMM:   2    -0.240064126715E+03   -0.49637E-02   -0.45488E-02  5119   0.448E-01    0.511E-01
RMM:   3    -0.240065016738E+03   -0.89002E-03   -0.90799E-03  3233   0.203E-01
    505 T=   901. E= -.23412286E+03 F= -.24006502E+03 E0= -.24006502E+03  EK= 0.73392E+01 SP= -.14E+01 SK= 0.56E-02 mag=      0.000
       N       E                     dE             d eps       ncg     rms          rms(c)
DAV:   1    -0.239948729862E+03    0.11540E+00   -0.63334E-02  6064   0.210E+00    0.116E+00
RMM:   2    -0.239953432044E+03   -0.47022E-02   -0.43357E-02  5136   0.465E-01    0.928E-01
RMM:   3    -0.239954274461E+03   -0.84242E-03   -0.10151E-02  3280   0.209E-01
    506 T=   894. E= -.23410828E+03 F= -.23995427E+03 E0= -.23995427E+03  EK= 0.72793E+01 SP= -.14E+01 SK= 0.16E-02 mag=      0.000
       N       E                     dE             d eps       ncg     rms          rms(c)
DAV:   1    -0.239841359553E+03    0.11207E+00   -0.74202E-02  6072   0.207E+00    0.280E+00
RMM:   2    -0.239845075688E+03   -0.37161E-02   -0.46527E-02  5089   0.454E-01    0.143E+00
RMM:   3    -0.239845825762E+03   -0.75007E-03   -0.11826E-02  3528   0.223E-01
    507 T=   884. E= -.23409511E+03 F= -.23984583E+03 E0= -.23984583E+03  EK= 0.71990E+01 SP= -.14E+01 SK= 0.78E-04 mag=      0.000
       N       E                     dE             d eps       ncg     rms          rms(c)
DAV:   1    -0.239739065008E+03    0.10601E+00   -0.64549E-02  6048   0.204E+00    0.745E-01
RMM:   2    -0.239743308536E+03   -0.42435E-02   -0.45610E-02  5084   0.467E-01    0.641E-01
RMM:   3    -0.239744047703E+03   -0.73917E-03   -0.96164E-03  3316   0.212E-01
    508 T=   873. E= -.23408130E+03 F= -.23974405E+03 E0= -.23974405E+03  EK= 0.71074E+01 SP= -.14E+01 SK= 0.36E-03 mag=     -0.000
       N       E                     dE             d eps       ncg     rms          rms(c)
DAV:   1    -0.239649953990E+03    0.93355E-01   -0.63965E-02  6160   0.204E+00    0.571E-01
RMM:   2    -0.239653993993E+03   -0.40400E-02   -0.44483E-02  5072   0.455E-01    0.236E-01
RMM:   3    -0.239654676365E+03   -0.68237E-03   -0.96425E-03  3249   0.206E-01
    509 T=   861. E= -.23406699E+03 F= -.23965468E+03 E0= -.23965468E+03  EK= 0.70128E+01 SP= -.14E+01 SK= 0.18E-02 mag=     -0.000
       N       E                     dE             d eps       ncg     rms          rms(c)
DAV:   1    -0.239575569596E+03    0.78424E-01   -0.65088E-02  6112   0.202E+00    0.325E-01
RMM:   2    -0.239581191366E+03   -0.56218E-02   -0.51738E-02  5151   0.469E-01    0.314E-01
RMM:   3    -0.239582080610E+03   -0.88924E-03   -0.96196E-03  3340   0.209E-01
    510 T=   850. E= -.23405481E+03 F= -.23958208E+03 E0= -.23958208E+03  EK= 0.69200E+01 SP= -.14E+01 SK= 0.39E-02 mag=     -0.000
       N       E                     dE             d eps       ncg     rms          rms(c)
DAV:   1    -0.239523348703E+03    0.57843E-01   -0.57785E-02  6032   0.201E+00    0.457E-01
RMM:   2    -0.239525882439E+03   -0.25337E-02   -0.45944E-02  5051   0.451E-01    0.470E-01
RMM:   3    -0.239526654660E+03   -0.77222E-03   -0.10262E-02  3404   0.211E-01
    511 T=   839. E= -.23404270E+03 F= -.23952665E+03 E0= -.23952665E+03  EK= 0.68341E+01 SP= -.14E+01 SK= 0.61E-02 mag=      0.000
       N       E                     dE             d eps       ncg     rms          rms(c)
DAV:   1    -0.239484967733E+03    0.40915E-01   -0.70545E-02  6160   0.200E+00    0.617E-01
RMM:   2    -0.239488725634E+03   -0.37579E-02   -0.41829E-02  5098   0.445E-01    0.195E-01
RMM:   3    -0.239489434246E+03   -0.70861E-03   -0.92205E-03  3211   0.204E-01
    512 T=   830. E= -.23403030E+03 F= -.23948943E+03 E0= -.23948943E+03  EK= 0.67590E+01 SP= -.13E+01 SK= 0.82E-02 mag=      0.000
       N       E                     dE             d eps       ncg     rms          rms(c)
DAV:   1    -0.239465058217E+03    0.23667E-01   -0.63579E-02  6032   0.200E+00    0.604E-01
RMM:   2    -0.239469844660E+03   -0.47864E-02   -0.45799E-02  5118   0.455E-01    0.177E-01
RMM:   3    -0.239470714542E+03   -0.86988E-03   -0.88430E-03  3138   0.201E-01
    513 T=   822. E= -.23401984E+03 F= -.23947071E+03 E0= -.23947071E+03  EK= 0.66948E+01 SP= -.13E+01 SK= 0.99E-02 mag=      0.000
       N       E                     dE             d eps       ncg     rms          rms(c)
DAV:   1    -0.239463224602E+03    0.66201E-02   -0.44762E-02  5832   0.200E+00    0.231E-01
RMM:   2    -0.239467095702E+03   -0.38711E-02   -0.39525E-02  5098   0.432E-01    0.149E-01
RMM:   3    -0.239467968224E+03   -0.87252E-03   -0.90629E-03  3209   0.199E-01
    514 T=   816. E= -.23400802E+03 F= -.23946797E+03 E0= -.23946797E+03  EK= 0.66438E+01 SP= -.12E+01 SK= 0.11E-01 mag=     -0.000
       N       E                     dE             d eps       ncg     rms          rms(c)
DAV:   1    -0.239473328725E+03   -0.62330E-02   -0.50273E-02  5872   0.199E+00    0.206E-01
RMM:   2    -0.239477601636E+03   -0.42729E-02   -0.38725E-02  5083   0.430E-01    0.292E-01
RMM:   3    -0.239478476462E+03   -0.87483E-03   -0.86456E-03  3212   0.194E-01
    515 T=   811. E= -.23399450E+03 F= -.23947848E+03 E0= -.23947848E+03  EK= 0.66049E+01 SP= -.11E+01 SK= 0.12E-01 mag=      0.000
       N       E                     dE             d eps       ncg     rms          rms(c)
DAV:   1    -0.239494222001E+03   -0.16620E-01   -0.42622E-02  5648   0.199E+00    0.458E-01
RMM:   2    -0.239498041165E+03   -0.38192E-02   -0.36324E-02  5056   0.423E-01    0.451E-01
RMM:   3    -0.239498808578E+03   -0.76741E-03   -0.78749E-03  3012   0.189E-01
    516 T=   807. E= -.23398209E+03 F= -.23949881E+03 E0= -.23949881E+03  EK= 0.65728E+01 SP= -.11E+01 SK= 0.13E-01 mag=      0.000
       N       E                     dE             d eps       ncg     rms          rms(c)
DAV:   1    -0.239520390743E+03   -0.22350E-01   -0.57045E-02  5952   0.206E+00    0.134E+00
RMM:   2    -0.239523918122E+03   -0.35274E-02   -0.36447E-02  5062   0.427E-01    0.608E-01
RMM:   3    -0.239524678726E+03   -0.76060E-03   -0.92782E-03  3301   0.198E-01
    517 T=   804. E= -.23397007E+03 F= -.23952468E+03 E0= -.23952468E+03  EK= 0.65448E+01 SP= -.10E+01 SK= 0.14E-01 mag=     -0.000
       N       E                     dE             d eps       ncg     rms          rms(c)
DAV:   1    -0.239548321524E+03   -0.24403E-01   -0.36641E-02  5784   0.203E+00    0.310E-01
RMM:   2    -0.239552871374E+03   -0.45499E-02   -0.43977E-02  5143   0.436E-01    0.304E-01
RMM:   3    -0.239553648257E+03   -0.77688E-03   -0.82750E-03  3083   0.192E-01
    518 T=   801. E= -.23395769E+03 F= -.23955365E+03 E0= -.23955365E+03  EK= 0.65197E+01 SP= -.94E+00 SK= 0.14E-01 mag=     -0.000
       N       E                     dE             d eps       ncg     rms          rms(c)
DAV:   1    -0.239578133922E+03   -0.25263E-01   -0.60728E-02  6160   0.200E+00    0.909E-01
RMM:   2    -0.239581286206E+03   -0.31523E-02   -0.39052E-02  5068   0.443E-01    0.733E-01
RMM:   3    -0.239581945011E+03   -0.65880E-03   -0.10069E-02  3366   0.203E-01
    519 T=   797. E= -.23394569E+03 F= -.23958195E+03 E0= -.23958195E+03  EK= 0.64937E+01 SP= -.87E+00 SK= 0.14E-01 mag=     -0.000
       N       E                     dE             d eps       ncg     rms          rms(c)
DAV:   1    -0.239608396708E+03   -0.27111E-01   -0.48087E-02  5984   0.205E+00    0.182E+00
RMM:   2    -0.239608698069E+03   -0.30136E-03   -0.38555E-02  5094   0.430E-01    0.853E-01
RMM:   3    -0.239608469211E+03    0.22886E-03   -0.12169E-02  3384   0.212E-01
    520 T=   794. E= -.23393401E+03 F= -.23960847E+03 E0= -.23960847E+03  EK= 0.64664E+01 SP= -.81E+00 SK= 0.13E-01 mag=      0.000
       N       E                     dE             d eps       ncg     rms          rms(c)
DAV:   1    -0.239629914030E+03   -0.21216E-01   -0.82151E-02  6256   0.201E+00    0.399E-01
RMM:   2    -0.239631845574E+03   -0.19315E-02   -0.46360E-02  5024   0.468E-01    0.410E-01
RMM:   3    -0.239632056209E+03   -0.21064E-03   -0.85494E-03  3286   0.207E-01
    521 T=   791. E= -.23392219E+03 F= -.23963206E+03 E0= -.23963206E+03  EK= 0.64377E+01 SP= -.74E+00 SK= 0.13E-01 mag=      0.000
       N       E                     dE             d eps       ncg     rms          rms(c)
DAV:   1    -0.239646469741E+03   -0.14624E-01   -0.57465E-02  6144   0.200E+00    0.796E-01
RMM:   2    -0.239651172177E+03   -0.47024E-02   -0.51762E-02  5112   0.465E-01    0.709E-01
RMM:   3    -0.239651975120E+03   -0.80294E-03   -0.89386E-03  3182   0.205E-01
    522 T=   787. E= -.23391049E+03 F= -.23965198E+03 E0= -.23965198E+03  EK= 0.64075E+01 SP= -.68E+00 SK= 0.12E-01 mag=     -0.000
       N       E                     dE             d eps       ncg     rms          rms(c)
DAV:   1    -0.239666132455E+03   -0.14960E-01   -0.60080E-02  6072   0.200E+00    0.170E+00
RMM:   2    -0.239668783427E+03   -0.26510E-02   -0.50030E-02  5038   0.453E-01    0.780E-01
RMM:   3    -0.239669482980E+03   -0.69955E-03   -0.11265E-02  3433   0.216E-01
    523 T=   783. E= -.23389937E+03 F= -.23966948E+03 E0= -.23966948E+03  EK= 0.63771E+01 SP= -.62E+00 SK= 0.11E-01 mag=      0.000
       N       E                     dE             d eps       ncg     rms          rms(c)
DAV:   1    -0.239679532488E+03   -0.10749E-01   -0.52661E-02  6064   0.202E+00    0.397E-01
RMM:   2    -0.239683520017E+03   -0.39875E-02   -0.44537E-02  5032   0.464E-01    0.348E-01
RMM:   3    -0.239684200994E+03   -0.68098E-03   -0.86254E-03  3234   0.203E-01
    524 T=   779. E= -.23388829E+03 F= -.23968420E+03 E0= -.23968420E+03  EK= 0.63475E+01 SP= -.56E+00 SK= 0.93E-02 mag=      0.000
       N       E                     dE             d eps       ncg     rms          rms(c)
DAV:   1    -0.239691966005E+03   -0.84460E-02   -0.47246E-02  5992   0.198E+00    0.911E-01
RMM:   2    -0.239695411652E+03   -0.34456E-02   -0.41816E-02  5050   0.445E-01    0.765E-01
RMM:   3    -0.239696019948E+03   -0.60830E-03   -0.92101E-03  3139   0.201E-01
    525 T=   776. E= -.23387607E+03 F= -.23969602E+03 E0= -.23969602E+03  EK= 0.63204E+01 SP= -.51E+00 SK= 0.78E-02 mag=      0.000
       N       E                     dE             d eps       ncg     rms          rms(c)
DAV:   1    -0.239704592392E+03   -0.91807E-02   -0.46845E-02  6016   0.197E+00    0.182E+00
RMM:   2    -0.239705342542E+03   -0.75015E-03   -0.39730E-02  5116   0.438E-01    0.855E-01
RMM:   3    -0.239705236731E+03    0.10581E-03   -0.12342E-02  3406   0.215E-01
    526 T=   773. E= -.23386543E+03 F= -.23970524E+03 E0= -.23970524E+03  EK= 0.62940E+01 SP= -.46E+00 SK= 0.63E-02 mag=      0.000
       N       E                     dE             d eps       ncg     rms          rms(c)
DAV:   1    -0.239707672213E+03   -0.23297E-02   -0.64971E-02  6176   0.202E+00    0.386E-01
RMM:   2    -0.239710620198E+03   -0.29480E-02   -0.46469E-02  5057   0.463E-01    0.416E-01
RMM:   3    -0.239711015873E+03   -0.39568E-03   -0.86168E-03  3276   0.204E-01
    527 T=   770. E= -.23385470E+03 F= -.23971102E+03 E0= -.23971102E+03  EK= 0.62696E+01 SP= -.42E+00 SK= 0.48E-02 mag=     -0.000
       N       E                     dE             d eps       ncg     rms          rms(c)
DAV:   1    -0.239708317847E+03    0.23024E-02   -0.52485E-02  6080   0.197E+00    0.985E-01
RMM:   2    -0.239711641282E+03   -0.33234E-02   -0.49357E-02  5063   0.452E-01    0.819E-01
RMM:   3    -0.239712233909E+03   -0.59263E-03   -0.94050E-03  3176   0.203E-01
    528 T=   768. E= -.23384038E+03 F= -.23971223E+03 E0= -.23971223E+03  EK= 0.62503E+01 SP= -.38E+00 SK= 0.34E-02 mag=      0.000
       N       E                     dE             d eps       ncg     rms          rms(c)
DAV:   1    -0.239711884208E+03   -0.24293E-03   -0.44143E-02  5832   0.195E+00    0.184E+00
RMM:   2    -0.239710510268E+03    0.13739E-02   -0.41519E-02  5037   0.433E-01    0.891E-01
RMM:   3    -0.239710050426E+03    0.45984E-03   -0.13695E-02  3675   0.221E-01
    529 T=   765. E= -.23382936E+03 F= -.23971005E+03 E0= -.23971005E+03  EK= 0.62306E+01 SP= -.35E+00 SK= 0.21E-02 mag=     -0.000
       N       E                     dE             d eps       ncg     rms          rms(c)
DAV:   1    -0.239702367176E+03    0.81431E-02   -0.67467E-02  6248   0.203E+00    0.434E-01
RMM:   2    -0.239704670425E+03   -0.23032E-02   -0.49967E-02  4960   0.468E-01    0.412E-01
RMM:   3    -0.239704814729E+03   -0.14430E-03   -0.89828E-03  3348   0.211E-01
    530 T=   763. E= -.23381913E+03 F= -.23970481E+03 E0= -.23970481E+03  EK= 0.62138E+01 SP= -.33E+00 SK= 0.11E-02 mag=     -0.000
       N       E                     dE             d eps       ncg     rms          rms(c)
DAV:   1    -0.239690075798E+03    0.14595E-01   -0.67701E-02  6256   0.197E+00    0.804E-01
RMM:   2    -0.239694310103E+03   -0.42343E-02   -0.54363E-02  4979   0.468E-01    0.726E-01
RMM:   3    -0.239695031469E+03   -0.72137E-03   -0.91758E-03  3276   0.206E-01
    531 T=   762. E= -.23380374E+03 F= -.23969503E+03 E0= -.23969503E+03  EK= 0.62048E+01 SP= -.31E+00 SK= 0.41E-03 mag=      0.000
       N       E                     dE             d eps       ncg     rms          rms(c)
DAV:   1    -0.239680112032E+03    0.14198E-01   -0.50475E-02  5848   0.193E+00    0.142E+00
RMM:   2    -0.239681439325E+03   -0.13273E-02   -0.47991E-02  4937   0.443E-01    0.642E-01
RMM:   3    -0.239681835151E+03   -0.39583E-03   -0.11256E-02  3365   0.214E-01
    532 T=   761. E= -.23379305E+03 F= -.23968184E+03 E0= -.23968184E+03  EK= 0.61950E+01 SP= -.31E+00 SK= 0.44E-04 mag=      0.000
       N       E                     dE             d eps       ncg     rms          rms(c)
DAV:   1    -0.239659935538E+03    0.21504E-01   -0.51212E-02  6128   0.197E+00    0.493E-01
RMM:   2    -0.239663938531E+03   -0.40030E-02   -0.46219E-02  4928   0.453E-01    0.299E-01
RMM:   3    -0.239664506145E+03   -0.56761E-03   -0.86078E-03  3283   0.200E-01
    533 T=   760. E= -.23378485E+03 F= -.23966451E+03 E0= -.23966451E+03  EK= 0.61860E+01 SP= -.31E+00 SK= 0.56E-04 mag=      0.000
       N       E                     dE             d eps       ncg     rms          rms(c)
DAV:   1    -0.239637367775E+03    0.26571E-01   -0.67625E-02  6144   0.194E+00    0.477E-01
RMM:   2    -0.239641722559E+03   -0.43548E-02   -0.50233E-02  4972   0.451E-01    0.517E-01
RMM:   3    -0.239642534674E+03   -0.81212E-03   -0.89065E-03  3235   0.199E-01
    534 T=   760. E= -.23377167E+03 F= -.23964253E+03 E0= -.23964253E+03  EK= 0.61851E+01 SP= -.31E+00 SK= 0.48E-03 mag=      0.000
       N       E                     dE             d eps       ncg     rms          rms(c)
DAV:   1    -0.239611751328E+03    0.29971E-01   -0.37906E-02  5760   0.193E+00    0.430E-01
RMM:   2    -0.239615237080E+03   -0.34858E-02   -0.42095E-02  4962   0.431E-01    0.405E-01
RMM:   3    -0.239616075467E+03   -0.83839E-03   -0.93871E-03  3220   0.197E-01
    535 T=   760. E= -.23375938E+03 F= -.23961608E+03 E0= -.23961608E+03  EK= 0.61866E+01 SP= -.33E+00 SK= 0.13E-02 mag=      0.000
       N       E                     dE             d eps       ncg     rms          rms(c)
DAV:   1    -0.239579778692E+03    0.35458E-01   -0.46678E-02  5944   0.194E+00    0.673E-01
RMM:   2    -0.239583818908E+03   -0.40402E-02   -0.39502E-02  5038   0.426E-01    0.249E-01
RMM:   3    -0.239584507105E+03   -0.68820E-03   -0.77871E-03  3132   0.185E-01
    536 T=   760. E= -.23374989E+03 F= -.23958451E+03 E0= -.23958451E+03  EK= 0.61878E+01 SP= -.36E+00 SK= 0.25E-02 mag=     -0.000
       N       E                     dE             d eps       ncg     rms          rms(c)
DAV:   1    -0.239543989349E+03    0.39830E-01   -0.36999E-02  5872   0.196E+00    0.618E-01
RMM:   2    -0.239547840497E+03   -0.38511E-02   -0.38588E-02  5019   0.418E-01    0.209E-01
RMM:   3    -0.239548617338E+03   -0.77684E-03   -0.81083E-03  3116   0.189E-01
    537 T=   761. E= -.23373872E+03 F= -.23954862E+03 E0= -.23954862E+03  EK= 0.61941E+01 SP= -.39E+00 SK= 0.42E-02 mag=      0.000
       N       E                     dE             d eps       ncg     rms          rms(c)
DAV:   1    -0.239504667874E+03    0.43173E-01   -0.39909E-02  5752   0.196E+00    0.224E-01
RMM:   2    -0.239508600693E+03   -0.39328E-02   -0.38187E-02  5054   0.418E-01    0.190E-01
RMM:   3    -0.239509348592E+03   -0.74790E-03   -0.78714E-03  3132   0.185E-01
    538 T=   762. E= -.23372645E+03 F= -.23950935E+03 E0= -.23950935E+03  EK= 0.62057E+01 SP= -.43E+00 SK= 0.61E-02 mag=      0.000
       N       E                     dE             d eps       ncg     rms          rms(c)
DAV:   1    -0.239462368342E+03    0.46232E-01   -0.54244E-02  5992   0.196E+00    0.339E-01
RMM:   2    -0.239466752186E+03   -0.43838E-02   -0.41113E-02  5045   0.423E-01    0.393E-01
RMM:   3    -0.239467588895E+03   -0.83671E-03   -0.85238E-03  3161   0.189E-01
    539 T=   764. E= -.23371562E+03 F= -.23946759E+03 E0= -.23946759E+03  EK= 0.62207E+01 SP= -.48E+00 SK= 0.83E-02 mag=      0.000
       N       E                     dE             d eps       ncg     rms          rms(c)
DAV:   1    -0.239419804491E+03    0.46948E-01   -0.46416E-02  6032   0.202E+00    0.585E-01
RMM:   2    -0.239423798646E+03   -0.39942E-02   -0.38526E-02  5070   0.423E-01    0.567E-01
RMM:   3    -0.239424532859E+03   -0.73421E-03   -0.81435E-03  3141   0.186E-01
    540 T=   766. E= -.23370500E+03 F= -.23942453E+03 E0= -.23942453E+03  EK= 0.62412E+01 SP= -.53E+00 SK= 0.11E-01 mag=     -0.000
       N       E                     dE             d eps       ncg     rms          rms(c)
DAV:   1    -0.239377643950E+03    0.46155E-01   -0.54075E-02  6200   0.197E+00    0.216E+00
RMM:   2    -0.239381225293E+03   -0.35813E-02   -0.41325E-02  5087   0.421E-01    0.104E+00
RMM:   3    -0.239381688569E+03   -0.46328E-03   -0.93824E-03  3182   0.200E-01
    541 T=   770. E= -.23369415E+03 F= -.23938169E+03 E0= -.23938169E+03  EK= 0.62689E+01 SP= -.59E+00 SK= 0.13E-01 mag=     -0.000
       N       E                     dE             d eps       ncg     rms          rms(c)
DAV:   1    -0.239335035802E+03    0.46189E-01   -0.62840E-02  6080   0.204E+00    0.607E-01
RMM:   2    -0.239339627847E+03   -0.45920E-02   -0.48053E-02  5122   0.462E-01    0.580E-01
RMM:   3    -0.239340310315E+03   -0.68247E-03   -0.91074E-03  3229   0.203E-01
    542 T=   774. E= -.23368348E+03 F= -.23934031E+03 E0= -.23934031E+03  EK= 0.63040E+01 SP= -.66E+00 SK= 0.16E-01 mag=     -0.000
       N       E                     dE             d eps       ncg     rms          rms(c)
DAV:   1    -0.239294805880E+03    0.44822E-01   -0.62410E-02  6280   0.198E+00    0.418E-01
RMM:   2    -0.239299116874E+03   -0.43110E-02   -0.43094E-02  5012   0.431E-01    0.353E-01
RMM:   3    -0.239299765219E+03   -0.64834E-03   -0.84023E-03  3218   0.192E-01
    543 T=   779. E= -.23367275E+03 F= -.23929977E+03 E0= -.23929977E+03  EK= 0.63455E+01 SP= -.74E+00 SK= 0.18E-01 mag=     -0.000
       N       E                     dE             d eps       ncg     rms          rms(c)
DAV:   1    -0.239253198887E+03    0.45918E-01   -0.44467E-02  5928   0.202E+00    0.366E-01
RMM:   2    -0.239257908668E+03   -0.47098E-02   -0.54704E-02  5019   0.448E-01    0.331E-01
RMM:   3    -0.239258878974E+03   -0.97031E-03   -0.10125E-02  3477   0.211E-01
    544 T=   785. E= -.23366407E+03 F= -.23925888E+03 E0= -.23925888E+03  EK= 0.63892E+01 SP= -.81E+00 SK= 0.19E-01 mag=     -0.000
       N       E                     dE             d eps       ncg     rms          rms(c)
DAV:   1    -0.239213439440E+03    0.44469E-01   -0.49715E-02  5904   0.205E+00    0.320E-01
RMM:   2    -0.239215912751E+03   -0.24733E-02   -0.43380E-02  4932   0.446E-01    0.260E-01
RMM:   3    -0.239216655236E+03   -0.74249E-03   -0.98059E-03  3349   0.205E-01
    545 T=   790. E= -.23365471E+03 F= -.23921666E+03 E0= -.23921666E+03  EK= 0.64357E+01 SP= -.89E+00 SK= 0.21E-01 mag=      0.000
       N       E                     dE             d eps       ncg     rms          rms(c)
DAV:   1    -0.239163830358E+03    0.52082E-01   -0.48406E-02  6072   0.200E+00    0.445E-01
RMM:   2    -0.239167975264E+03   -0.41449E-02   -0.40662E-02  5055   0.438E-01    0.190E-01
RMM:   3    -0.239168785501E+03   -0.81024E-03   -0.86301E-03  3142   0.196E-01
    546 T=   796. E= -.23364307E+03 F= -.23916879E+03 E0= -.23916879E+03  EK= 0.64814E+01 SP= -.98E+00 SK= 0.21E-01 mag=      0.000
       N       E                     dE             d eps       ncg     rms          rms(c)
DAV:   1    -0.239106089078E+03    0.61886E-01   -0.46029E-02  5664   0.201E+00    0.399E-01
RMM:   2    -0.239110275848E+03   -0.41868E-02   -0.43331E-02  5093   0.432E-01    0.849E-02
RMM:   3    -0.239111119798E+03   -0.84395E-03   -0.88914E-03  3195   0.196E-01
    547 T=   800. E= -.23363342E+03 F= -.23911112E+03 E0= -.23911112E+03  EK= 0.65167E+01 SP= -.11E+01 SK= 0.22E-01 mag=     -0.000
       N       E                     dE             d eps       ncg     rms          rms(c)
DAV:   1    -0.239034649887E+03    0.75626E-01   -0.48291E-02  5960   0.203E+00    0.286E-01
RMM:   2    -0.239038671160E+03   -0.40213E-02   -0.38293E-02  5076   0.421E-01    0.159E-01
RMM:   3    -0.239039455997E+03   -0.78484E-03   -0.83356E-03  3205   0.190E-01
    548 T=   803. E= -.23362343E+03 F= -.23903946E+03 E0= -.23903946E+03  EK= 0.65386E+01 SP= -.11E+01 SK= 0.21E-01 mag=     -0.000
       N       E                     dE             d eps       ncg     rms          rms(c)
DAV:   1    -0.238946970642E+03    0.91701E-01   -0.40619E-02  5720   0.200E+00    0.226E-01
RMM:   2    -0.238951314311E+03   -0.43437E-02   -0.39484E-02  5086   0.417E-01    0.226E-01
RMM:   3    -0.238952046077E+03   -0.73177E-03   -0.75242E-03  3053   0.185E-01
    549 T=   804. E= -.23361224E+03 F= -.23895205E+03 E0= -.23895205E+03  EK= 0.65456E+01 SP= -.12E+01 SK= 0.21E-01 mag=     -0.000
       N       E                     dE             d eps       ncg     rms          rms(c)
DAV:   1    -0.238841983227E+03    0.10933E+00   -0.38900E-02  5776   0.200E+00    0.209E-01
RMM:   2    -0.238846236911E+03   -0.42537E-02   -0.39475E-02  5086   0.414E-01    0.248E-01
RMM:   3    -0.238847032428E+03   -0.79552E-03   -0.81156E-03  3129   0.187E-01
    550 T=   802. E= -.23360156E+03 F= -.23884703E+03 E0= -.23884703E+03  EK= 0.65336E+01 SP= -.13E+01 SK= 0.21E-01 mag=      0.000
       N       E                     dE             d eps       ncg     rms          rms(c)
DAV:   1    -0.238720363985E+03    0.12587E+00   -0.40720E-02  5680   0.200E+00    0.286E-01
RMM:   2    -0.238724737956E+03   -0.43740E-02   -0.39192E-02  5085   0.413E-01    0.345E-01
RMM:   3    -0.238725505771E+03   -0.76781E-03   -0.78318E-03  3121   0.185E-01
    551 T=   799. E= -.23359144E+03 F= -.23872551E+03 E0= -.23872551E+03  EK= 0.65039E+01 SP= -.14E+01 SK= 0.21E-01 mag=      0.000
       N       E                     dE             d eps       ncg     rms          rms(c)
DAV:   1    -0.238585855084E+03    0.13888E+00   -0.37649E-02  5840   0.199E+00    0.709E-01
RMM:   2    -0.238589912628E+03   -0.40575E-02   -0.38097E-02  5053   0.417E-01    0.626E-01
RMM:   3    -0.238590603148E+03   -0.69052E-03   -0.79465E-03  3087   0.186E-01
    552 T=   793. E= -.23358012E+03 F= -.23859060E+03 E0= -.23859060E+03  EK= 0.64618E+01 SP= -.15E+01 SK= 0.21E-01 mag=     -0.000
       N       E                     dE             d eps       ncg     rms          rms(c)
DAV:   1    -0.238445065716E+03    0.14485E+00   -0.45005E-02  5824   0.200E+00    0.249E+00
RMM:   2    -0.238447244587E+03   -0.21789E-02   -0.36771E-02  5038   0.411E-01    0.124E+00
RMM:   3    -0.238447472111E+03   -0.22752E-03   -0.10323E-02  3246   0.199E-01
    553 T=   787. E= -.23357009E+03 F= -.23844747E+03 E0= -.23844747E+03  EK= 0.64108E+01 SP= -.16E+01 SK= 0.22E-01 mag=     -0.000
       N       E                     dE             d eps       ncg     rms          rms(c)
DAV:   1    -0.238297983021E+03    0.14926E+00   -0.50291E-02  6040   0.200E+00    0.842E-01
RMM:   2    -0.238301194101E+03   -0.32111E-02   -0.44460E-02  5030   0.444E-01    0.729E-01
RMM:   3    -0.238301286663E+03   -0.92563E-04   -0.86937E-03  3245   0.199E-01
    554 T=   781. E= -.23355954E+03 F= -.23830129E+03 E0= -.23830129E+03  EK= 0.63592E+01 SP= -.16E+01 SK= 0.24E-01 mag=     -0.000
       N       E                     dE             d eps       ncg     rms          rms(c)
DAV:   1    -0.238159271716E+03    0.14192E+00   -0.93875E-02  6368   0.199E+00    0.114E+00
RMM:   2    -0.238158914819E+03    0.35690E-03   -0.47008E-02  4977   0.444E-01    0.376E-01
RMM:   3    -0.238158117967E+03    0.79685E-03   -0.11435E-02  3441   0.204E-01
    555 T=   775. E= -.23354983E+03 F= -.23815812E+03 E0= -.23815812E+03  EK= 0.63129E+01 SP= -.17E+01 SK= 0.26E-01 mag=     -0.000
       N       E                     dE             d eps       ncg     rms          rms(c)
DAV:   1    -0.238019528326E+03    0.13939E+00   -0.10310E-01  6312   0.201E+00    0.434E-01
RMM:   2    -0.238024730959E+03   -0.52026E-02   -0.67420E-02  4956   0.488E-01    0.431E-01
RMM:   3    -0.238024820627E+03   -0.89667E-04   -0.10073E-02  3489   0.216E-01
    556 T=   771. E= -.23354169E+03 F= -.23802482E+03 E0= -.23802482E+03  EK= 0.62791E+01 SP= -.18E+01 SK= 0.30E-01 mag=      0.000
       N       E                     dE             d eps       ncg     rms          rms(c)
DAV:   1    -0.237901482159E+03    0.12325E+00   -0.85424E-02  6248   0.196E+00    0.679E-01
RMM:   2    -0.237904518357E+03   -0.30362E-02   -0.73028E-02  4861   0.474E-01    0.654E-01
RMM:   3    -0.237905412401E+03   -0.89404E-03   -0.11510E-02  3534   0.223E-01
    557 T=   770. E= -.23352805E+03 F= -.23790541E+03 E0= -.23790541E+03  EK= 0.62700E+01 SP= -.19E+01 SK= 0.33E-01 mag=      0.000
       N       E                     dE             d eps       ncg     rms          rms(c)
DAV:   1    -0.237806348951E+03    0.98169E-01   -0.48014E-02  6064   0.188E+00    0.947E-01
RMM:   2    -0.237805245479E+03    0.11035E-02   -0.48077E-02  4796   0.431E-01    0.388E-01
RMM:   3    -0.237805481832E+03   -0.23635E-03   -0.10505E-02  3344   0.207E-01
    558 T=   771. E= -.23351810E+03 F= -.23780548E+03 E0= -.23780548E+03  EK= 0.62826E+01 SP= -.20E+01 SK= 0.37E-01 mag=      0.000
       N       E                     dE             d eps       ncg     rms          rms(c)
DAV:   1    -0.237722593366E+03    0.82652E-01   -0.49239E-02  6120   0.196E+00    0.778E-01
RMM:   2    -0.237727275595E+03   -0.46822E-02   -0.48350E-02  4958   0.454E-01    0.297E-01
RMM:   3    -0.237727659502E+03   -0.38391E-03   -0.77349E-03  3144   0.193E-01
    559 T=   776. E= -.23351086E+03 F= -.23772766E+03 E0= -.23772766E+03  EK= 0.63205E+01 SP= -.21E+01 SK= 0.41E-01 mag=     -0.000
       N       E                     dE             d eps       ncg     rms          rms(c)
DAV:   1    -0.237669999171E+03    0.57276E-01   -0.71992E-02  6176   0.194E+00    0.287E-01
RMM:   2    -0.237675713323E+03   -0.57142E-02   -0.55335E-02  5024   0.446E-01    0.272E-01
RMM:   3    -0.237676512147E+03   -0.79882E-03   -0.85092E-03  3265   0.198E-01
    560 T=   785. E= -.23349996E+03 F= -.23767651E+03 E0= -.23767651E+03  EK= 0.63944E+01 SP= -.23E+01 SK= 0.44E-01 mag=     -0.000
       N       E                     dE             d eps       ncg     rms          rms(c)
DAV:   1    -0.237648459742E+03    0.27254E-01   -0.47711E-02  5920   0.193E+00    0.566E-01
RMM:   2    -0.237651977286E+03   -0.35175E-02   -0.45287E-02  4929   0.434E-01    0.505E-01
RMM:   3    -0.237652782857E+03   -0.80557E-03   -0.97129E-03  3366   0.203E-01
    561 T=   798. E= -.23349037E+03 F= -.23765278E+03 E0= -.23765278E+03  EK= 0.64989E+01 SP= -.24E+01 SK= 0.45E-01 mag=      0.000
       N       E                     dE             d eps       ncg     rms          rms(c)
DAV:   1    -0.237652062514E+03   -0.85228E-04   -0.50806E-02  5880   0.199E+00    0.113E+00
RMM:   2    -0.237655844169E+03   -0.37817E-02   -0.43058E-02  4929   0.435E-01    0.455E-01
RMM:   3    -0.237656371076E+03   -0.52691E-03   -0.88994E-03  3309   0.195E-01
    562 T=   814. E= -.23348184E+03 F= -.23765637E+03 E0= -.23765637E+03  EK= 0.66322E+01 SP= -.25E+01 SK= 0.44E-01 mag=      0.000
       N       E                     dE             d eps       ncg     rms          rms(c)
DAV:   1    -0.237679386116E+03   -0.23542E-01   -0.63613E-02  6080   0.197E+00    0.404E-01
RMM:   2    -0.237684718670E+03   -0.53326E-02   -0.48973E-02  4970   0.441E-01    0.242E-01
RMM:   3    -0.237685477319E+03   -0.75865E-03   -0.88343E-03  3258   0.198E-01
    563 T=   834. E= -.23347130E+03 F= -.23768548E+03 E0= -.23768548E+03  EK= 0.67928E+01 SP= -.26E+01 SK= 0.40E-01 mag=      0.000
       N       E                     dE             d eps       ncg     rms          rms(c)
DAV:   1    -0.237730630391E+03   -0.45912E-01   -0.64597E-02  5888   0.201E+00    0.405E-01
RMM:   2    -0.237735566084E+03   -0.49357E-02   -0.48648E-02  4934   0.445E-01    0.451E-01
RMM:   3    -0.237736482138E+03   -0.91605E-03   -0.94789E-03  3406   0.200E-01
    564 T=   856. E= -.23346235E+03 F= -.23773648E+03 E0= -.23773648E+03  EK= 0.69694E+01 SP= -.27E+01 SK= 0.34E-01 mag=     -0.000
       N       E                     dE             d eps       ncg     rms          rms(c)
DAV:   1    -0.237796807103E+03   -0.61241E-01   -0.55898E-02  5864   0.204E+00    0.756E-01
RMM:   2    -0.237801804277E+03   -0.49972E-02   -0.49287E-02  4962   0.443E-01    0.677E-01
RMM:   3    -0.237802602094E+03   -0.79782E-03   -0.10076E-02  3372   0.206E-01
    565 T=   878. E= -.23345279E+03 F= -.23780260E+03 E0= -.23780260E+03  EK= 0.71527E+01 SP= -.28E+01 SK= 0.26E-01 mag=      0.000
       N       E                     dE             d eps       ncg     rms          rms(c)
DAV:   1    -0.237871887367E+03   -0.70083E-01   -0.72702E-02  6096   0.207E+00    0.216E+00
RMM:   2    -0.237876467173E+03   -0.45798E-02   -0.50642E-02  4938   0.457E-01    0.101E+00
RMM:   3    -0.237876995068E+03   -0.52789E-03   -0.10831E-02  3432   0.213E-01
    566 T=   900. E= -.23344422E+03 F= -.23787700E+03 E0= -.23787700E+03  EK= 0.73284E+01 SP= -.29E+01 SK= 0.17E-01 mag=      0.000
       N       E                     dE             d eps       ncg     rms          rms(c)
DAV:   1    -0.237948778745E+03   -0.72312E-01   -0.63052E-02  5968   0.214E+00    0.438E-01
RMM:   2    -0.237954277718E+03   -0.54990E-02   -0.53370E-02  4978   0.471E-01    0.474E-01
RMM:   3    -0.237955087851E+03   -0.81013E-03   -0.99866E-03  3437   0.212E-01
    567 T=   919. E= -.23343649E+03 F= -.23795509E+03 E0= -.23795509E+03  EK= 0.74863E+01 SP= -.30E+01 SK= 0.83E-02 mag=     -0.000
       N       E                     dE             d eps       ncg     rms          rms(c)
DAV:   1    -0.238025626485E+03   -0.71349E-01   -0.54657E-02  6000   0.217E+00    0.158E+00
RMM:   2    -0.238029233916E+03   -0.36074E-02   -0.50824E-02  4978   0.463E-01    0.118E+00
RMM:   3    -0.238029741540E+03   -0.50762E-03   -0.13560E-02  3608   0.227E-01
    568 T=   936. E= -.23342176E+03 F= -.23802974E+03 E0= -.23802974E+03  EK= 0.76215E+01 SP= -.30E+01 SK= 0.21E-02 mag=      0.000
       N       E                     dE             d eps       ncg     rms          rms(c)
DAV:   1    -0.238102004475E+03   -0.72771E-01   -0.56201E-02  6096   0.212E+00    0.251E+00
RMM:   2    -0.238099718673E+03    0.22858E-02   -0.52006E-02  4772   0.475E-01    0.126E+00
RMM:   3    -0.238099340667E+03    0.37801E-03   -0.22562E-02  4364   0.266E-01
    569 T=   947. E= -.23341159E+03 F= -.23809934E+03 E0= -.23809934E+03  EK= 0.77156E+01 SP= -.30E+01 SK= 0.20E-04 mag=      0.000
       N       E                     dE             d eps       ncg     rms          rms(c)
DAV:   1    -0.238161711169E+03   -0.61992E-01   -0.71853E-02  6072   0.227E+00    0.538E-01
RMM:   2    -0.238161345569E+03    0.36560E-03   -0.59614E-02  4426   0.529E-01    0.473E-01
RMM:   3    -0.238161986797E+03   -0.64123E-03   -0.21242E-02  4695   0.285E-01
    570 T=   954. E= -.23340413E+03 F= -.23816199E+03 E0= -.23816199E+03  EK= 0.77650E+01 SP= -.30E+01 SK= 0.33E-02 mag=     -0.000
       N       E                     dE             d eps       ncg     rms          rms(c)
DAV:   1    -0.238209219964E+03   -0.47874E-01   -0.73939E-02  6288   0.218E+00    0.976E-01
RMM:   2    -0.238214945562E+03   -0.57256E-02   -0.55512E-02  4714   0.496E-01    0.827E-01
RMM:   3    -0.238215890892E+03   -0.94533E-03   -0.11968E-02  3784   0.233E-01
    571 T=   955. E= -.23339073E+03 F= -.23821589E+03 E0= -.23821589E+03  EK= 0.77748E+01 SP= -.30E+01 SK= 0.13E-01 mag=      0.000
       N       E                     dE             d eps       ncg     rms          rms(c)
DAV:   1    -0.238257530662E+03   -0.42585E-01   -0.54694E-02  5992   0.216E+00    0.185E+00
RMM:   2    -0.238261657714E+03   -0.41271E-02   -0.55644E-02  4804   0.480E-01    0.851E-01
RMM:   3    -0.238262443178E+03   -0.78546E-03   -0.13433E-02  3791   0.241E-01
    572 T=   950. E= -.23338032E+03 F= -.23826244E+03 E0= -.23826244E+03  EK= 0.77374E+01 SP= -.29E+01 SK= 0.28E-01 mag=      0.000
       N       E                     dE             d eps       ncg     rms          rms(c)
DAV:   1    -0.238296336257E+03   -0.34679E-01   -0.61274E-02  5904   0.219E+00    0.431E-01
RMM:   2    -0.238301519515E+03   -0.51833E-02   -0.53395E-02  4606   0.491E-01    0.353E-01
RMM:   3    -0.238302747961E+03   -0.12284E-02   -0.13257E-02  3988   0.240E-01
    573 T=   941. E= -.23336940E+03 F= -.23830275E+03 E0= -.23830275E+03  EK= 0.76595E+01 SP= -.28E+01 SK= 0.48E-01 mag=     -0.000
       N       E                     dE             d eps       ncg     rms          rms(c)
DAV:   1    -0.238333457383E+03   -0.31938E-01   -0.59269E-02  6064   0.213E+00    0.923E-01
RMM:   2    -0.238338496153E+03   -0.50388E-02   -0.51445E-02  4890   0.473E-01    0.792E-01
RMM:   3    -0.238339379912E+03   -0.88376E-03   -0.11066E-02  3536   0.219E-01
    574 T=   927. E= -.23335609E+03 F= -.23833938E+03 E0= -.23833938E+03  EK= 0.75488E+01 SP= -.26E+01 SK= 0.70E-01 mag=      0.000
       N       E                     dE             d eps       ncg     rms          rms(c)
DAV:   1    -0.238369070307E+03   -0.30574E-01   -0.62942E-02  6040   0.211E+00    0.192E+00
RMM:   2    -0.238372108568E+03   -0.30383E-02   -0.48032E-02  4826   0.462E-01    0.894E-01
RMM:   3    -0.238372377247E+03   -0.26868E-03   -0.13825E-02  3848   0.236E-01
    575 T=   909. E= -.23334464E+03 F= -.23837238E+03 E0= -.23837238E+03  EK= 0.74062E+01 SP= -.25E+01 SK= 0.94E-01 mag=      0.000
       N       E                     dE             d eps       ncg     rms          rms(c)
DAV:   1    -0.238397053091E+03   -0.24945E-01   -0.55728E-02  6008   0.212E+00    0.372E-01
RMM:   2    -0.238402355436E+03   -0.53023E-02   -0.56160E-02  4825   0.489E-01    0.445E-01
RMM:   3    -0.238403258078E+03   -0.90264E-03   -0.11095E-02  3688   0.224E-01
    576 T=   889. E= -.23333398E+03 F= -.23840326E+03 E0= -.23840326E+03  EK= 0.72397E+01 SP= -.23E+01 SK= 0.12E+00 mag=     -0.000
       N       E                     dE             d eps       ncg     rms          rms(c)
DAV:   1    -0.238429596997E+03   -0.27242E-01   -0.59551E-02  5976   0.209E+00    0.149E+00
RMM:   2    -0.238431519054E+03   -0.19221E-02   -0.50597E-02  4790   0.463E-01    0.112E+00
RMM:   3    -0.238431579373E+03   -0.60319E-04   -0.16477E-02  4105   0.244E-01
    577 T=   867. E= -.23331998E+03 F= -.23843158E+03 E0= -.23843158E+03  EK= 0.70594E+01 SP= -.21E+01 SK= 0.14E+00 mag=      0.000
       N       E                     dE             d eps       ncg     rms          rms(c)
DAV:   1    -0.238468287573E+03   -0.36769E-01   -0.61178E-02  6264   0.205E+00    0.254E+00
RMM:   2    -0.238461817163E+03    0.64704E-02   -0.54145E-02  4691   0.470E-01    0.124E+00
RMM:   3    -0.238459613690E+03    0.22035E-02   -0.25734E-02  4304   0.281E-01
    578 T=   843. E= -.23330919E+03 F= -.23845961E+03 E0= -.23845961E+03  EK= 0.68670E+01 SP= -.19E+01 SK= 0.15E+00 mag=     -0.000
       N       E                     dE             d eps       ncg     rms          rms(c)
DAV:   1    -0.238491212378E+03   -0.29395E-01   -0.11239E-01  6288   0.211E+00    0.572E-01
RMM:   2    -0.238489364012E+03    0.18484E-02   -0.71995E-02  4493   0.586E-01    0.497E-01
RMM:   3    -0.238489470106E+03   -0.10609E-03   -0.23137E-02  4763   0.301E-01
    579 T=   819. E= -.23330211E+03 F= -.23848947E+03 E0= -.23848947E+03  EK= 0.66701E+01 SP= -.16E+01 SK= 0.16E+00 mag=     -0.000
       N       E                     dE             d eps       ncg     rms          rms(c)
DAV:   1    -0.238513059545E+03   -0.23696E-01   -0.97838E-02  6352   0.203E+00    0.105E+00
RMM:   2    -0.238518537730E+03   -0.54782E-02   -0.63630E-02  4681   0.525E-01    0.915E-01
RMM:   3    -0.238519580468E+03   -0.10427E-02   -0.13703E-02  3979   0.243E-01
    580 T=   796. E= -.23329137E+03 F= -.23851958E+03 E0= -.23851958E+03  EK= 0.64799E+01 SP= -.14E+01 SK= 0.16E+00 mag=      0.000
       N       E                     dE             d eps       ncg     rms          rms(c)
DAV:   1    -0.238549973041E+03   -0.31435E-01   -0.57335E-02  6088   0.194E+00    0.199E+00
RMM:   2    -0.238551750451E+03   -0.17774E-02   -0.60446E-02  4646   0.471E-01    0.919E-01
RMM:   3    -0.238552153400E+03   -0.40295E-03   -0.15715E-02  4014   0.255E-01
    581 T=   773. E= -.23328323E+03 F= -.23855215E+03 E0= -.23855215E+03  EK= 0.62970E+01 SP= -.12E+01 SK= 0.16E+00 mag=      0.000
       N       E                     dE             d eps       ncg     rms          rms(c)
DAV:   1    -0.238582983390E+03   -0.31233E-01   -0.57083E-02  5944   0.198E+00    0.521E-01
RMM:   2    -0.238586996121E+03   -0.40127E-02   -0.52335E-02  4248   0.510E-01    0.355E-01
RMM:   3    -0.238588251702E+03   -0.12556E-02   -0.15077E-02  4415   0.261E-01
    582 T=   752. E= -.23327694E+03 F= -.23858825E+03 E0= -.23858825E+03  EK= 0.61270E+01 SP= -.96E+00 SK= 0.15E+00 mag=     -0.000
       N       E                     dE             d eps       ncg     rms          rms(c)
DAV:   1    -0.238623448343E+03   -0.36452E-01   -0.42017E-02  5960   0.189E+00    0.893E-01
RMM:   2    -0.238627143009E+03   -0.36947E-02   -0.46736E-02  4649   0.470E-01    0.750E-01
RMM:   3    -0.238627979327E+03   -0.83632E-03   -0.11370E-02  3779   0.220E-01
    583 T=   734. E= -.23326750E+03 F= -.23862798E+03 E0= -.23862798E+03  EK= 0.59781E+01 SP= -.75E+00 SK= 0.13E+00 mag=      0.000
       N       E                     dE             d eps       ncg     rms          rms(c)
DAV:   1    -0.238671025116E+03   -0.43882E-01   -0.47275E-02  5808   0.187E+00    0.159E+00
RMM:   2    -0.238672504790E+03   -0.14797E-02   -0.41053E-02  4555   0.438E-01    0.754E-01
RMM:   3    -0.238672710417E+03   -0.20563E-03   -0.14580E-02  4230   0.240E-01
    584 T=   718. E= -.23326043E+03 F= -.23867271E+03 E0= -.23867271E+03  EK= 0.58484E+01 SP= -.55E+00 SK= 0.11E+00 mag=     -0.000
       N       E                     dE             d eps       ncg     rms          rms(c)
DAV:   1    -0.238717981370E+03   -0.45477E-01   -0.43016E-02  5960   0.188E+00    0.320E-01
RMM:   2    -0.238721536644E+03   -0.35553E-02   -0.44209E-02  4394   0.474E-01    0.319E-01
RMM:   3    -0.238722428776E+03   -0.89213E-03   -0.11324E-02  4129   0.227E-01
    585 T=   705. E= -.23325543E+03 F= -.23872243E+03 E0= -.23872243E+03  EK= 0.57398E+01 SP= -.37E+00 SK= 0.94E-01 mag=     -0.000
       N       E                     dE             d eps       ncg     rms          rms(c)
DAV:   1    -0.238774869593E+03   -0.53333E-01   -0.46261E-02  5800   0.183E+00    0.978E-01
RMM:   2    -0.238777123779E+03   -0.22542E-02   -0.39094E-02  4577   0.436E-01    0.772E-01
RMM:   3    -0.238777557397E+03   -0.43362E-03   -0.12967E-02  3998   0.231E-01
    586 T=   695. E= -.23324784E+03 F= -.23877756E+03 E0= -.23877756E+03  EK= 0.56587E+01 SP= -.20E+00 SK= 0.73E-01 mag=     -0.000
       N       E                     dE             d eps       ncg     rms          rms(c)
DAV:   1    -0.238841876893E+03   -0.64753E-01   -0.34408E-02  5824   0.182E+00    0.176E+00
RMM:   2    -0.238839930406E+03    0.19465E-02   -0.36427E-02  4462   0.425E-01    0.859E-01
RMM:   3    -0.238839014840E+03    0.91557E-03   -0.17312E-02  4295   0.257E-01
    587 T=   688. E= -.23324221E+03 F= -.23883901E+03 E0= -.23883901E+03  EK= 0.56020E+01 SP= -.59E-01 SK= 0.54E-01 mag=      0.000
       N       E                     dE             d eps       ncg     rms          rms(c)
DAV:   1    -0.238904902690E+03   -0.64972E-01   -0.72295E-02  6032   0.188E+00    0.412E-01
RMM:   2    -0.238906841269E+03   -0.19386E-02   -0.52410E-02  4218   0.525E-01    0.362E-01
RMM:   3    -0.238907483595E+03   -0.64233E-03   -0.14380E-02  4585   0.260E-01
    588 T=   684. E= -.23323927E+03 F= -.23890748E+03 E0= -.23890748E+03  EK= 0.55699E+01 SP= 0.61E-01 SK= 0.37E-01 mag=     -0.000
       N       E                     dE             d eps       ncg     rms          rms(c)
DAV:   1    -0.238977740077E+03   -0.70899E-01   -0.48696E-02  6064   0.185E+00    0.104E+00
RMM:   2    -0.238980669467E+03   -0.29294E-02   -0.47095E-02  4585   0.468E-01    0.832E-01
RMM:   3    -0.238981248684E+03   -0.57922E-03   -0.14273E-02  4062   0.249E-01
    589 T=   684. E= -.23323355E+03 F= -.23898125E+03 E0= -.23898125E+03  EK= 0.55661E+01 SP= 0.16E+00 SK= 0.23E-01 mag=      0.000
       N       E                     dE             d eps       ncg     rms          rms(c)
DAV:   1    -0.239062576411E+03   -0.81907E-01   -0.53095E-02  5896   0.184E+00    0.184E+00
RMM:   2    -0.239060894741E+03    0.16817E-02   -0.46162E-02  4318   0.453E-01    0.884E-01
RMM:   3    -0.239060534236E+03    0.36050E-03   -0.23543E-02  4640   0.311E-01
    590 T=   686. E= -.23322969E+03 F= -.23906053E+03 E0= -.23906053E+03  EK= 0.55860E+01 SP= 0.23E+00 SK= 0.12E-01 mag=      0.000
       N       E                     dE             d eps       ncg     rms          rms(c)
DAV:   1    -0.239143574651E+03   -0.82680E-01   -0.64159E-02  6008   0.193E+00    0.490E-01
RMM:   2    -0.239145773710E+03   -0.21991E-02   -0.56763E-02  4176   0.561E-01    0.363E-01
RMM:   3    -0.239146658369E+03   -0.88466E-03   -0.15944E-02  4588   0.279E-01
    591 T=   691. E= -.23322873E+03 F= -.23914666E+03 E0= -.23914666E+03  EK= 0.56292E+01 SP= 0.28E+00 SK= 0.50E-02 mag=     -0.000
       N       E                     dE             d eps       ncg     rms          rms(c)
DAV:   1    -0.239231943844E+03   -0.86170E-01   -0.61057E-02  6024   0.191E+00    0.938E-01
RMM:   2    -0.239235738123E+03   -0.37943E-02   -0.50956E-02  4435   0.515E-01    0.792E-01
RMM:   3    -0.239236882085E+03   -0.11440E-02   -0.15427E-02  4345   0.262E-01
    592 T=   700. E= -.23322425E+03 F= -.23923688E+03 E0= -.23923688E+03  EK= 0.56986E+01 SP= 0.31E+00 SK= 0.11E-02 mag=     -0.000
       N       E                     dE             d eps       ncg     rms          rms(c)
DAV:   1    -0.239330659324E+03   -0.94921E-01   -0.39550E-02  5872   0.186E+00    0.158E+00
RMM:   2    -0.239330619794E+03    0.39530E-04   -0.42093E-02  4306   0.460E-01    0.754E-01
RMM:   3    -0.239330945540E+03   -0.32575E-03   -0.20330E-02  4680   0.287E-01
    593 T=   711. E= -.23322122E+03 F= -.23933095E+03 E0= -.23933095E+03  EK= 0.57878E+01 SP= 0.32E+00 SK= 0.39E-08 mag=      0.000
       N       E                     dE             d eps       ncg     rms          rms(c)
DAV:   1    -0.239422921433E+03   -0.92302E-01   -0.55648E-02  6048   0.193E+00    0.500E-01
RMM:   2    -0.239426336848E+03   -0.34154E-02   -0.53443E-02  4040   0.542E-01    0.294E-01
RMM:   3    -0.239427235602E+03   -0.89875E-03   -0.13557E-02  4589   0.259E-01
    594 T=   724. E= -.23321980E+03 F= -.23942724E+03 E0= -.23942724E+03  EK= 0.58936E+01 SP= 0.31E+00 SK= 0.86E-03 mag=      0.000
       N       E                     dE             d eps       ncg     rms          rms(c)
DAV:   1    -0.239517872718E+03   -0.91536E-01   -0.49347E-02  6008   0.188E+00    0.687E-01
RMM:   2    -0.239521838766E+03   -0.39660E-02   -0.46815E-02  4275   0.507E-01    0.605E-01
RMM:   3    -0.239523044816E+03   -0.12061E-02   -0.14055E-02  4446   0.246E-01
    595 T=   739. E= -.23321644E+03 F= -.23952304E+03 E0= -.23952304E+03  EK= 0.60150E+01 SP= 0.29E+00 SK= 0.29E-02 mag=     -0.000
       N       E                     dE             d eps       ncg     rms          rms(c)
DAV:   1    -0.239610856666E+03   -0.89018E-01   -0.42133E-02  5888   0.187E+00    0.833E-01
RMM:   2    -0.239613004962E+03   -0.21483E-02   -0.38352E-02  4331   0.452E-01    0.334E-01
RMM:   3    -0.239613940195E+03   -0.93523E-03   -0.14470E-02  4419   0.241E-01
    596 T=   754. E= -.23321312E+03 F= -.23961394E+03 E0= -.23961394E+03  EK= 0.61434E+01 SP= 0.25E+00 SK= 0.53E-02 mag=     -0.000
       N       E                     dE             d eps       ncg     rms          rms(c)
DAV:   1    -0.239690453794E+03   -0.77449E-01   -0.42168E-02  5912   0.194E+00    0.569E-01
RMM:   2    -0.239694050376E+03   -0.35966E-02   -0.39055E-02  4293   0.471E-01    0.208E-01
RMM:   3    -0.239695053209E+03   -0.10028E-02   -0.11535E-02  4173   0.233E-01
    597 T=   770. E= -.23321003E+03 F= -.23969505E+03 E0= -.23969505E+03  EK= 0.62713E+01 SP= 0.21E+00 SK= 0.74E-02 mag=     -0.000
       N       E                     dE             d eps       ncg     rms          rms(c)
DAV:   1    -0.239757140838E+03   -0.63090E-01   -0.37892E-02  5928   0.193E+00    0.205E-01
RMM:   2    -0.239760859825E+03   -0.37190E-02   -0.35659E-02  4393   0.463E-01    0.237E-01
RMM:   3    -0.239761950321E+03   -0.10905E-02   -0.11190E-02  3965   0.220E-01
    598 T=   785. E= -.23320553E+03 F= -.23976195E+03 E0= -.23976195E+03  EK= 0.63930E+01 SP= 0.15E+00 SK= 0.88E-02 mag=      0.000
       N       E                     dE             d eps       ncg     rms          rms(c)
DAV:   1    -0.239804891108E+03   -0.44031E-01   -0.39644E-02  5856   0.195E+00    0.552E-01
RMM:   2    -0.239808433715E+03   -0.35426E-02   -0.35888E-02  4770   0.436E-01    0.504E-01
RMM:   3    -0.239809333364E+03   -0.89965E-03   -0.10251E-02  3607   0.204E-01
    599 T=   798. E= -.23320050E+03 F= -.23980933E+03 E0= -.23980933E+03  EK= 0.64996E+01 SP= 0.10E+00 SK= 0.94E-02 mag=     -0.000
       N       E                     dE             d eps       ncg     rms          rms(c)
DAV:   1    -0.239829373227E+03   -0.20940E-01   -0.53078E-02  6024   0.196E+00    0.152E+00
RMM:   2    -0.239832905966E+03   -0.35327E-02   -0.37459E-02  4868   0.422E-01    0.671E-01
RMM:   3    -0.239833431782E+03   -0.52582E-03   -0.10138E-02  3455   0.222E-01
    600 T=   809. E= -.23319482E+03 F= -.23983343E+03 E0= -.23983343E+03  EK= 0.65848E+01 SP= 0.45E-01 SK= 0.92E-02 mag=     -0.000
       N       E                     dE             d eps       ncg     rms          rms(c)
DAV:   1    -0.239827664858E+03    0.52411E-02   -0.51637E-02  5976   0.198E+00    0.279E-01
RMM:   2    -0.239832324955E+03   -0.46601E-02   -0.42784E-02  4748   0.464E-01    0.300E-01
RMM:   3    -0.239833333001E+03   -0.10080E-02   -0.10177E-02  3796   0.214E-01
    601 T=   816. E= -.23318771E+03 F= -.23983333E+03 E0= -.23983333E+03  EK= 0.66460E+01 SP= -.88E-02 SK= 0.83E-02 mag=      0.000
       N       E                     dE             d eps       ncg     rms          rms(c)
DAV:   1    -0.239806701252E+03    0.25624E-01   -0.42372E-02  5928   0.196E+00    0.100E+00
RMM:   2    -0.239809926547E+03   -0.32253E-02   -0.40939E-02  4765   0.437E-01    0.809E-01
RMM:   3    -0.239810552834E+03   -0.62629E-03   -0.11740E-02  3705   0.229E-01
    602 T=   821. E= -.23318015E+03 F= -.23981055E+03 E0= -.23981055E+03  EK= 0.66821E+01 SP= -.59E-01 SK= 0.72E-02 mag=     -0.000
       N       E                     dE             d eps       ncg     rms          rms(c)
DAV:   1    -0.239771004543E+03    0.38922E-01   -0.50572E-02  6040   0.199E+00    0.208E+00
RMM:   2    -0.239770756977E+03    0.24757E-03   -0.44756E-02  4641   0.461E-01    0.975E-01
RMM:   3    -0.239770529281E+03    0.22770E-03   -0.18156E-02  4309   0.258E-01
    603 T=   823. E= -.23317129E+03 F= -.23977053E+03 E0= -.23977053E+03  EK= 0.66983E+01 SP= -.10E+00 SK= 0.60E-02 mag=      0.000
       N       E                     dE             d eps       ncg     rms          rms(c)
DAV:   1    -0.239718902658E+03    0.51854E-01   -0.71876E-02  6208   0.201E+00    0.432E-01
RMM:   2    -0.239720515330E+03   -0.16127E-02   -0.51852E-02  4339   0.552E-01    0.432E-01
RMM:   3    -0.239721202438E+03   -0.68711E-03   -0.15067E-02  4468   0.267E-01
    604 T=   823. E= -.23316218E+03 F= -.23972120E+03 E0= -.23972120E+03  EK= 0.67007E+01 SP= -.15E+00 SK= 0.48E-02 mag=      0.000
       N       E                     dE             d eps       ncg     rms          rms(c)
DAV:   1    -0.239664203062E+03    0.56312E-01   -0.51385E-02  6072   0.198E+00    0.108E+00
RMM:   2    -0.239669091681E+03   -0.48886E-02   -0.49396E-02  4641   0.502E-01    0.892E-01
RMM:   3    -0.239669780497E+03   -0.68882E-03   -0.13944E-02  3972   0.267E-01
    605 T=   823. E= -.23315069E+03 F= -.23966978E+03 E0= -.23966978E+03  EK= 0.66988E+01 SP= -.18E+00 SK= 0.37E-02 mag=     -0.000
       N       E                     dE             d eps       ncg     rms          rms(c)
DAV:   1    -0.239626652784E+03    0.42439E-01   -0.52741E-02  5896   0.201E+00    0.214E+00
RMM:   2    -0.239626911813E+03   -0.25903E-03   -0.49446E-02  4403   0.501E-01    0.104E+00
RMM:   3    -0.239627217915E+03   -0.30610E-03   -0.25112E-02  4560   0.348E-01
    606 T=   823. E= -.23313865E+03 F= -.23962722E+03 E0= -.23962722E+03  EK= 0.67016E+01 SP= -.22E+00 SK= 0.28E-02 mag=     -0.000
       N       E                     dE             d eps       ncg     rms          rms(c)
DAV:   1    -0.239596735116E+03    0.30177E-01   -0.75845E-02  6072   0.211E+00    0.490E-01
RMM:   2    -0.239599177723E+03   -0.24426E-02   -0.61645E-02  4361   0.629E-01    0.414E-01
RMM:   3    -0.239600332820E+03   -0.11551E-02   -0.19051E-02  4730   0.316E-01
    607 T=   824. E= -.23312903E+03 F= -.23960033E+03 E0= -.23960033E+03  EK= 0.67129E+01 SP= -.24E+00 SK= 0.20E-02 mag=      0.000
       N       E                     dE             d eps       ncg     rms          rms(c)
DAV:   1    -0.239582527685E+03    0.16650E-01   -0.66350E-02  6104   0.204E+00    0.110E+00
RMM:   2    -0.239588166703E+03   -0.56390E-02   -0.53726E-02  4639   0.559E-01    0.907E-01
RMM:   3    -0.239589267770E+03   -0.11011E-02   -0.17872E-02  4312   0.318E-01
    608 T=   827. E= -.23311665E+03 F= -.23958927E+03 E0= -.23958927E+03  EK= 0.67379E+01 SP= -.27E+00 SK= 0.13E-02 mag=     -0.000
       N       E                     dE             d eps       ncg     rms          rms(c)
DAV:   1    -0.239592421582E+03   -0.42549E-02   -0.67672E-02  5936   0.204E+00    0.219E+00
RMM:   2    -0.239594086842E+03   -0.16653E-02   -0.52629E-02  4466   0.521E-01    0.106E+00
RMM:   3    -0.239594504621E+03   -0.41778E-03   -0.25691E-02  4639   0.373E-01
    609 T=   832. E= -.23310594E+03 F= -.23959450E+03 E0= -.23959450E+03  EK= 0.67718E+01 SP= -.28E+00 SK= 0.63E-03 mag=     -0.000
       N       E                     dE             d eps       ncg     rms          rms(c)
DAV:   1    -0.239604477200E+03   -0.10390E-01   -0.81901E-02  5984   0.219E+00    0.488E-01
RMM:   2    -0.239608971269E+03   -0.44941E-02   -0.68560E-02  4294   0.645E-01    0.439E-01
RMM:   3    -0.239610521918E+03   -0.15506E-02   -0.19920E-02  4710   0.318E-01
    610 T=   836. E= -.23309827E+03 F= -.23961052E+03 E0= -.23961052E+03  EK= 0.68070E+01 SP= -.29E+00 SK= 0.17E-03 mag=      0.000
       N       E                     dE             d eps       ncg     rms          rms(c)
DAV:   1    -0.239620157742E+03   -0.11186E-01   -0.81682E-02  6112   0.209E+00    0.130E+00
RMM:   2    -0.239625319605E+03   -0.51619E-02   -0.56588E-02  4674   0.559E-01    0.102E+00
RMM:   3    -0.239626098423E+03   -0.77882E-03   -0.20288E-02  4410   0.343E-01
    611 T=   840. E= -.23308493E+03 F= -.23962610E+03 E0= -.23962610E+03  EK= 0.68399E+01 SP= -.30E+00 SK= 0.97E-07 mag=      0.000
       N       E                     dE             d eps       ncg     rms          rms(c)
DAV:   1    -0.239637388485E+03   -0.12069E-01   -0.67539E-02  6032   0.207E+00    0.237E+00
RMM:   2    -0.239636488999E+03    0.89949E-03   -0.54129E-02  4468   0.530E-01    0.112E+00
RMM:   3    -0.239635851443E+03    0.63756E-03   -0.28338E-02  4428   0.397E-01
    612 T=   842. E= -.23307493E+03 F= -.23963585E+03 E0= -.23963585E+03  EK= 0.68553E+01 SP= -.29E+00 SK= 0.22E-03 mag=     -0.000
       N       E                     dE             d eps       ncg     rms          rms(c)
DAV:   1    -0.239628268817E+03    0.82202E-02   -0.96801E-02  6112   0.225E+00    0.546E-01
RMM:   2    -0.239631537700E+03   -0.32689E-02   -0.74822E-02  4463   0.681E-01    0.459E-01
RMM:   3    -0.239633133899E+03   -0.15962E-02   -0.24579E-02  4869   0.356E-01
    613 T=   841. E= -.23306893E+03 F= -.23963313E+03 E0= -.23963313E+03  EK= 0.68454E+01 SP= -.28E+00 SK= 0.86E-03 mag=     -0.000
       N       E                     dE             d eps       ncg     rms          rms(c)
DAV:   1    -0.239602043553E+03    0.29494E-01   -0.91473E-02  6176   0.214E+00    0.140E+00
RMM:   2    -0.239606836509E+03   -0.47930E-02   -0.61436E-02  4793   0.575E-01    0.113E+00
RMM:   3    -0.239607465635E+03   -0.62913E-03   -0.22705E-02  4406   0.362E-01
    614 T=   837. E= -.23305341E+03 F= -.23960747E+03 E0= -.23960747E+03  EK= 0.68135E+01 SP= -.26E+00 SK= 0.19E-02 mag=     -0.000
       N       E                     dE             d eps       ncg     rms          rms(c)
DAV:   1    -0.239565166940E+03    0.41670E-01   -0.63335E-02  5784   0.210E+00    0.259E+00
RMM:   2    -0.239561853239E+03    0.33137E-02   -0.60784E-02  4455   0.534E-01    0.123E+00
RMM:   3    -0.239560731898E+03    0.11213E-02   -0.37891E-02  4436   0.443E-01    0.442E-01
RMM:   4    -0.239562807359E+03   -0.20755E-02   -0.86643E-03  3550   0.230E-01
    615 T=   829. E= -.23304472E+03 F= -.23956281E+03 E0= -.23956281E+03  EK= 0.67482E+01 SP= -.23E+00 SK= 0.30E-02 mag=     -0.000
       N       E                     dE             d eps       ncg     rms          rms(c)
DAV:   1    -0.239491120640E+03    0.69611E-01   -0.61212E-02  5992   0.219E+00    0.589E-01
RMM:   2    -0.239494732365E+03   -0.36117E-02   -0.51507E-02  4296   0.480E-01    0.517E-01
RMM:   3    -0.239496654550E+03   -0.19222E-02   -0.15924E-02  4588   0.299E-01
    616 T=   817. E= -.23303638E+03 F= -.23949665E+03 E0= -.23949665E+03  EK= 0.66556E+01 SP= -.20E+00 SK= 0.39E-02 mag=     -0.000
       N       E                     dE             d eps       ncg     rms          rms(c)
DAV:   1    -0.239407251743E+03    0.87481E-01   -0.67535E-02  6176   0.201E+00    0.101E+00
RMM:   2    -0.239413225347E+03   -0.59736E-02   -0.48481E-02  4821   0.500E-01    0.819E-01
RMM:   3    -0.239413991616E+03   -0.76627E-03   -0.16483E-02  3975   0.347E-01
    617 T=   805. E= -.23301984E+03 F= -.23941399E+03 E0= -.23941399E+03  EK= 0.65516E+01 SP= -.16E+00 SK= 0.44E-02 mag=     -0.000
       N       E                     dE             d eps       ncg     rms          rms(c)
DAV:   1    -0.239317882661E+03    0.95343E-01   -0.75108E-02  6128   0.203E+00    0.195E+00
RMM:   2    -0.239321556191E+03   -0.36735E-02   -0.52733E-02  4872   0.492E-01    0.835E-01
RMM:   3    -0.239321201674E+03    0.35452E-03   -0.17522E-02  3984   0.370E-01
    618 T=   790. E= -.23300714E+03 F= -.23932120E+03 E0= -.23932120E+03  EK= 0.64334E+01 SP= -.12E+00 SK= 0.43E-02 mag=      0.000
       N       E                     dE             d eps       ncg     rms          rms(c)
DAV:   1    -0.239215251878E+03    0.10630E+00   -0.78901E-02  5696   0.217E+00    0.493E-01
RMM:   2    -0.239221913512E+03   -0.66616E-02   -0.62959E-02  4568   0.588E-01    0.343E-01
RMM:   3    -0.239224241089E+03   -0.23276E-02   -0.20832E-02  4783   0.334E-01
    619 T=   775. E= -.23300057E+03 F= -.23922424E+03 E0= -.23922424E+03  EK= 0.63075E+01 SP= -.87E-01 SK= 0.35E-02 mag=      0.000
       N       E                     dE             d eps       ncg     rms          rms(c)
DAV:   1    -0.239118948303E+03    0.10297E+00   -0.71293E-02  6072   0.207E+00    0.112E+00
RMM:   2    -0.239122368350E+03   -0.34200E-02   -0.52185E-02  4587   0.510E-01    0.883E-01
RMM:   3    -0.239123486089E+03   -0.11177E-02   -0.21694E-02  4556   0.347E-01
    620 T=   760. E= -.23298698E+03 F= -.23912349E+03 E0= -.23912349E+03  EK= 0.61905E+01 SP= -.56E-01 SK= 0.23E-02 mag=      0.000
       N       E                     dE             d eps       ncg     rms          rms(c)
DAV:   1    -0.239028366530E+03    0.94002E-01   -0.55364E-02  6008   0.200E+00    0.189E+00
RMM:   2    -0.239027249466E+03    0.11171E-02   -0.53693E-02  4402   0.522E-01    0.829E-01
RMM:   3    -0.239026557587E+03    0.69188E-03   -0.23509E-02  4382   0.360E-01
    621 T=   747. E= -.23297533E+03 F= -.23902656E+03 E0= -.23902656E+03  EK= 0.60834E+01 SP= -.33E-01 SK= 0.99E-03 mag=     -0.000
       N       E                     dE             d eps       ncg     rms          rms(c)
DAV:   1    -0.238933137530E+03    0.94112E-01   -0.96969E-02  6128   0.211E+00    0.622E-01
RMM:   2    -0.238937477346E+03   -0.43398E-02   -0.70735E-02  4491   0.643E-01    0.349E-01
RMM:   3    -0.238938991480E+03   -0.15141E-02   -0.21894E-02  4815   0.338E-01
    622 T=   736. E= -.23296924E+03 F= -.23893899E+03 E0= -.23893899E+03  EK= 0.59903E+01 SP= -.21E-01 SK= 0.11E-03 mag=      0.000
       N       E                     dE             d eps       ncg     rms          rms(c)
DAV:   1    -0.238854188510E+03    0.83289E-01   -0.82848E-02  6248   0.202E+00    0.989E-01
RMM:   2    -0.238858272266E+03   -0.40838E-02   -0.56931E-02  4694   0.552E-01    0.836E-01
RMM:   3    -0.238859636549E+03   -0.13643E-02   -0.18098E-02  4295   0.293E-01
    623 T=   727. E= -.23295828E+03 F= -.23885964E+03 E0= -.23885964E+03  EK= 0.59223E+01 SP= -.21E-01 SK= 0.19E-03 mag=      0.000
       N       E                     dE             d eps       ncg     rms          rms(c)
DAV:   1    -0.238793041995E+03    0.65230E-01   -0.50742E-02  5968   0.194E+00    0.173E+00
RMM:   2    -0.238793084303E+03   -0.42307E-04   -0.50109E-02  4478   0.505E-01    0.784E-01
RMM:   3    -0.238793512577E+03   -0.42827E-03   -0.22883E-02  4657   0.330E-01
    624 T=   722. E= -.23294964E+03 F= -.23879351E+03 E0= -.23879351E+03  EK= 0.58784E+01 SP= -.36E-01 SK= 0.16E-02 mag=      0.000
       N       E                     dE             d eps       ncg     rms          rms(c)
DAV:   1    -0.238740761063E+03    0.52323E-01   -0.61057E-02  6008   0.206E+00    0.587E-01
RMM:   2    -0.238744620758E+03   -0.38597E-02   -0.57858E-02  4282   0.598E-01    0.325E-01
RMM:   3    -0.238745786659E+03   -0.11659E-02   -0.15542E-02  4526   0.290E-01
    625 T=   720. E= -.23294449E+03 F= -.23874579E+03 E0= -.23874579E+03  EK= 0.58635E+01 SP= -.67E-01 SK= 0.47E-02 mag=      0.000
       N       E                     dE             d eps       ncg     rms          rms(c)
DAV:   1    -0.238711899363E+03    0.32721E-01   -0.58098E-02  6176   0.197E+00    0.728E-01
RMM:   2    -0.238716272398E+03   -0.43730E-02   -0.50820E-02  4493   0.545E-01    0.654E-01
RMM:   3    -0.238717617472E+03   -0.13451E-02   -0.14985E-02  4446   0.260E-01
    626 T=   723. E= -.23293622E+03 F= -.23871762E+03 E0= -.23871762E+03  EK= 0.58859E+01 SP= -.11E+00 SK= 0.93E-02 mag=      0.000
       N       E                     dE             d eps       ncg     rms          rms(c)
DAV:   1    -0.238708514879E+03    0.77575E-02   -0.43016E-02  5872   0.190E+00    0.824E-01
RMM:   2    -0.238710982065E+03   -0.24672E-02   -0.43881E-02  4532   0.471E-01    0.315E-01
RMM:   3    -0.238712005257E+03   -0.10232E-02   -0.15343E-02  4330   0.252E-01
    627 T=   730. E= -.23293004E+03 F= -.23871201E+03 E0= -.23871201E+03  EK= 0.59432E+01 SP= -.18E+00 SK= 0.15E-01 mag=     -0.000
       N       E                     dE             d eps       ncg     rms          rms(c)
DAV:   1    -0.238725597028E+03   -0.14615E-01   -0.59953E-02  6000   0.195E+00    0.670E-01
RMM:   2    -0.238729565167E+03   -0.39681E-02   -0.43316E-02  4385   0.492E-01    0.227E-01
RMM:   3    -0.238730638735E+03   -0.10736E-02   -0.12433E-02  4351   0.249E-01
    628 T=   741. E= -.23292576E+03 F= -.23873064E+03 E0= -.23873064E+03  EK= 0.60364E+01 SP= -.25E+00 SK= 0.21E-01 mag=     -0.000
       N       E                     dE             d eps       ncg     rms          rms(c)
DAV:   1    -0.238768630604E+03   -0.39065E-01   -0.46788E-02  5960   0.194E+00    0.202E-01
RMM:   2    -0.238772844953E+03   -0.42143E-02   -0.41519E-02  4503   0.491E-01    0.249E-01
RMM:   3    -0.238774015074E+03   -0.11701E-02   -0.12009E-02  4008   0.229E-01
    629 T=   757. E= -.23292003E+03 F= -.23877402E+03 E0= -.23877402E+03  EK= 0.61683E+01 SP= -.34E+00 SK= 0.27E-01 mag=     -0.000
       N       E                     dE             d eps       ncg     rms          rms(c)
DAV:   1    -0.238834608788E+03   -0.61764E-01   -0.55941E-02  5944   0.194E+00    0.622E-01
RMM:   2    -0.238838262371E+03   -0.36536E-02   -0.38483E-02  4734   0.448E-01    0.544E-01
RMM:   3    -0.238839208863E+03   -0.94649E-03   -0.12495E-02  3984   0.233E-01
    630 T=   777. E= -.23291502E+03 F= -.23883921E+03 E0= -.23883921E+03  EK= 0.63314E+01 SP= -.44E+00 SK= 0.31E-01 mag=      0.000
       N       E                     dE             d eps       ncg     rms          rms(c)
DAV:   1    -0.238917567919E+03   -0.79306E-01   -0.56736E-02  6048   0.202E+00    0.159E+00
RMM:   2    -0.238921250880E+03   -0.36830E-02   -0.43246E-02  4869   0.448E-01    0.725E-01
RMM:   3    -0.238921752961E+03   -0.50208E-03   -0.12179E-02  3797   0.263E-01
    631 T=   801. E= -.23290972E+03 F= -.23892175E+03 E0= -.23892175E+03  EK= 0.65192E+01 SP= -.54E+00 SK= 0.32E-01 mag=      0.000
       N       E                     dE             d eps       ncg     rms          rms(c)
DAV:   1    -0.239010279751E+03   -0.89029E-01   -0.76401E-02  6040   0.204E+00    0.286E-01
RMM:   2    -0.239015236767E+03   -0.49570E-02   -0.51586E-02  4496   0.540E-01    0.296E-01
RMM:   3    -0.239016717977E+03   -0.14812E-02   -0.14618E-02  4447   0.265E-01
    632 T=   825. E= -.23290449E+03 F= -.23901672E+03 E0= -.23901672E+03  EK= 0.67223E+01 SP= -.64E+00 SK= 0.30E-01 mag=      0.000
       N       E                     dE             d eps       ncg     rms          rms(c)
DAV:   1    -0.239109508868E+03   -0.94272E-01   -0.55008E-02  5960   0.208E+00    0.101E+00
RMM:   2    -0.239113763553E+03   -0.42547E-02   -0.43584E-02  4663   0.489E-01    0.821E-01
RMM:   3    -0.239113893560E+03   -0.13001E-03   -0.13859E-02  3883   0.317E-01
    633 T=   850. E= -.23289887E+03 F= -.23911389E+03 E0= -.23911389E+03  EK= 0.69257E+01 SP= -.74E+00 SK= 0.26E-01 mag=     -0.000
       N       E                     dE             d eps       ncg     rms          rms(c)
DAV:   1    -0.239202918048E+03   -0.89154E-01   -0.58506E-02  6072   0.214E+00    0.210E+00
RMM:   2    -0.239206823098E+03   -0.39050E-02   -0.57490E-02  4705   0.551E-01    0.930E-01
RMM:   3    -0.239207026599E+03   -0.20350E-03   -0.18165E-02  4274   0.348E-01
    634 T=   874. E= -.23289184E+03 F= -.23920703E+03 E0= -.23920703E+03  EK= 0.71185E+01 SP= -.82E+00 SK= 0.19E-01 mag=     -0.000
       N       E                     dE             d eps       ncg     rms          rms(c)
DAV:   1    -0.239280008777E+03   -0.73186E-01   -0.10034E-01  5912   0.221E+00    0.334E-01
RMM:   2    -0.239285886353E+03   -0.58776E-02   -0.68490E-02  4455   0.649E-01    0.379E-01
RMM:   3    -0.239287847326E+03   -0.19610E-02   -0.20510E-02  4755   0.319E-01
    635 T=   894. E= -.23288535E+03 F= -.23928785E+03 E0= -.23928785E+03  EK= 0.72843E+01 SP= -.89E+00 SK= 0.12E-01 mag=     -0.000
       N       E                     dE             d eps       ncg     rms          rms(c)
DAV:   1    -0.239341392326E+03   -0.55506E-01   -0.64048E-02  5912   0.217E+00    0.140E+00
RMM:   2    -0.239345915777E+03   -0.45235E-02   -0.53240E-02  4650   0.538E-01    0.110E+00
RMM:   3    -0.239344438506E+03    0.14773E-02   -0.22763E-02  4138   0.434E-01
    636 T=   910. E= -.23287538E+03 F= -.23934444E+03 E0= -.23934444E+03  EK= 0.74095E+01 SP= -.95E+00 SK= 0.53E-02 mag=     -0.000
       N       E                     dE             d eps       ncg     rms          rms(c)
DAV:   1    -0.239377364077E+03   -0.31448E-01   -0.88643E-02  5792   0.228E+00    0.276E+00
RMM:   2    -0.239379818825E+03   -0.24547E-02   -0.78181E-02  4671   0.616E-01    0.119E+00
RMM:   3    -0.239379280815E+03    0.53801E-03   -0.34297E-02  4367   0.488E-01    0.310E-01
RMM:   4    -0.239381674047E+03   -0.23932E-02   -0.92597E-03  3702   0.236E-01
    637 T=   919. E= -.23287202E+03 F= -.23938167E+03 E0= -.23938167E+03  EK= 0.74844E+01 SP= -.98E+00 SK= 0.10E-02 mag=      0.000
       N       E                     dE             d eps       ncg     rms          rms(c)
DAV:   1    -0.239380848424E+03   -0.15676E-02   -0.87706E-02  5880   0.230E+00    0.454E-01
RMM:   2    -0.239385030607E+03   -0.41822E-02   -0.55151E-02  4564   0.530E-01    0.452E-01
RMM:   3    -0.239387180678E+03   -0.21501E-02   -0.18402E-02  4706   0.312E-01
    638 T=   921. E= -.23286625E+03 F= -.23938718E+03 E0= -.23938718E+03  EK= 0.75027E+01 SP= -.98E+00 SK= 0.11E-03 mag=     -0.000
       N       E                     dE             d eps       ncg     rms          rms(c)
DAV:   1    -0.239358658303E+03    0.26372E-01   -0.61704E-02  5976   0.213E+00    0.123E+00
RMM:   2    -0.239364456879E+03   -0.57986E-02   -0.58806E-02  4911   0.503E-01    0.104E+00
RMM:   3    -0.239362851912E+03    0.16050E-02   -0.21461E-02  3895   0.429E-01
    639 T=   917. E= -.23285292E+03 F= -.23936285E+03 E0= -.23936285E+03  EK= 0.74708E+01 SP= -.96E+00 SK= 0.28E-02 mag=     -0.000
       N       E                     dE             d eps       ncg     rms          rms(c)
DAV:   1    -0.239314217112E+03    0.50240E-01   -0.10600E-01  5760   0.230E+00    0.246E+00
RMM:   2    -0.239321112706E+03   -0.68956E-02   -0.80708E-02  4756   0.563E-01    0.971E-01
RMM:   3    -0.239320149373E+03    0.96333E-03   -0.34860E-02  4043   0.564E-01    0.308E-01
RMM:   4    -0.239323990858E+03   -0.38415E-02   -0.11506E-02  4068   0.277E-01    0.128E-01
RMM:   5    -0.239324022216E+03   -0.31358E-04   -0.15085E-03  2567   0.109E-01
    640 T=   908. E= -.23284667E+03 F= -.23932402E+03 E0= -.23932402E+03  EK= 0.73906E+01 SP= -.92E+00 SK= 0.86E-02 mag=      0.000
       N       E                     dE             d eps       ncg     rms          rms(c)
DAV:   1    -0.239260640631E+03    0.63350E-01   -0.92098E-02  5800   0.224E+00    0.485E-01
RMM:   2    -0.239267048110E+03   -0.64075E-02   -0.56592E-02  4642   0.501E-01    0.384E-01
RMM:   3    -0.239269684287E+03   -0.26362E-02   -0.18781E-02  4542   0.312E-01
    641 T=   893. E= -.23284099E+03 F= -.23926968E+03 E0= -.23926968E+03  EK= 0.72707E+01 SP= -.86E+00 SK= 0.16E-01 mag=      0.000
       N       E                     dE             d eps       ncg     rms          rms(c)
DAV:   1    -0.239206924717E+03    0.60123E-01   -0.68572E-02  5992   0.209E+00    0.952E-01
RMM:   2    -0.239212182578E+03   -0.52579E-02   -0.57553E-02  5113   0.495E-01    0.882E-01
RMM:   3    -0.239213008097E+03   -0.82552E-03   -0.10259E-02  3327   0.233E-01
    642 T=   876. E= -.23283161E+03 F= -.23921301E+03 E0= -.23921301E+03  EK= 0.71327E+01 SP= -.78E+00 SK= 0.25E-01 mag=      0.000
       N       E                     dE             d eps       ncg     rms          rms(c)
DAV:   1    -0.239159552245E+03    0.52630E-01   -0.73691E-02  6072   0.208E+00    0.190E+00
RMM:   2    -0.239164887633E+03   -0.53354E-02   -0.52328E-02  4790   0.476E-01    0.807E-01
RMM:   3    -0.239164902293E+03   -0.14660E-04   -0.14946E-02  3883   0.353E-01
    643 T=   859. E= -.23281850E+03 F= -.23916490E+03 E0= -.23916490E+03  EK= 0.69923E+01 SP= -.68E+00 SK= 0.33E-01 mag=      0.000
       N       E                     dE             d eps       ncg     rms          rms(c)
DAV:   1    -0.239125694554E+03    0.39193E-01   -0.79973E-02  5984   0.216E+00    0.553E-01
RMM:   2    -0.239134414158E+03   -0.87196E-02   -0.73602E-02  5019   0.565E-01    0.458E-01
RMM:   3    -0.239136495464E+03   -0.20813E-02   -0.14366E-02  3818   0.281E-01
    644 T=   842. E= -.23280909E+03 F= -.23913650E+03 E0= -.23913650E+03  EK= 0.68574E+01 SP= -.57E+00 SK= 0.40E-01 mag=      0.000
       N       E                     dE             d eps       ncg     rms          rms(c)
DAV:   1    -0.239124403746E+03    0.10010E-01   -0.67039E-02  5952   0.209E+00    0.122E+00
RMM:   2    -0.239128303943E+03   -0.39002E-02   -0.59923E-02  4803   0.497E-01    0.990E-01
RMM:   3    -0.239129075976E+03   -0.77203E-03   -0.16831E-02  4056   0.313E-01
    645 T=   827. E= -.23279785E+03 F= -.23912908E+03 E0= -.23912908E+03  EK= 0.67386E+01 SP= -.45E+00 SK= 0.45E-01 mag=     -0.000
       N       E                     dE             d eps       ncg     rms          rms(c)
DAV:   1    -0.239146947327E+03   -0.18643E-01   -0.62274E-02  5992   0.206E+00    0.227E+00
RMM:   2    -0.239146572724E+03    0.37460E-03   -0.57287E-02  4638   0.530E-01    0.104E+00
RMM:   3    -0.239145775768E+03    0.79696E-03   -0.22000E-02  4339   0.352E-01
    646 T=   815. E= -.23278712E+03 F= -.23914578E+03 E0= -.23914578E+03  EK= 0.66397E+01 SP= -.33E+00 SK= 0.48E-01 mag=     -0.000
       N       E                     dE             d eps       ncg     rms          rms(c)
DAV:   1    -0.239178005797E+03   -0.31433E-01   -0.11588E-01  5968   0.215E+00    0.560E-01
RMM:   2    -0.239182907356E+03   -0.49016E-02   -0.81104E-02  4521   0.674E-01    0.442E-01
RMM:   3    -0.239184408431E+03   -0.15011E-02   -0.22584E-02  4755   0.331E-01
    647 T=   805. E= -.23278122E+03 F= -.23918441E+03 E0= -.23918441E+03  EK= 0.65565E+01 SP= -.20E+00 SK= 0.50E-01 mag=      0.000
       N       E                     dE             d eps       ncg     rms          rms(c)
DAV:   1    -0.239230214971E+03   -0.47308E-01   -0.86933E-02  6064   0.208E+00    0.137E+00
RMM:   2    -0.239234182924E+03   -0.39680E-02   -0.67328E-02  4589   0.571E-01    0.110E+00
RMM:   3    -0.239235152109E+03   -0.96919E-03   -0.24042E-02  4601   0.335E-01
    648 T=   797. E= -.23277074E+03 F= -.23923515E+03 E0= -.23923515E+03  EK= 0.64904E+01 SP= -.76E-01 SK= 0.50E-01 mag=      0.000
       N       E                     dE             d eps       ncg     rms          rms(c)
DAV:   1    -0.239299846207E+03   -0.65663E-01   -0.61766E-02  5872   0.206E+00    0.252E+00
RMM:   2    -0.239295922548E+03    0.39237E-02   -0.67020E-02  4287   0.554E-01    0.117E+00
RMM:   3    -0.239295039074E+03    0.88347E-03   -0.34835E-02  4571   0.403E-01    0.461E-01
RMM:   4    -0.239296607961E+03   -0.15689E-02   -0.71908E-03  3280   0.212E-01
    649 T=   790. E= -.23276452E+03 F= -.23929661E+03 E0= -.23929661E+03  EK= 0.64326E+01 SP= 0.51E-01 SK= 0.49E-01 mag=      0.000
       N       E                     dE             d eps       ncg     rms          rms(c)
DAV:   1    -0.239355533095E+03   -0.60494E-01   -0.59602E-02  6080   0.212E+00    0.591E-01
RMM:   2    -0.239357910694E+03   -0.23776E-02   -0.56117E-02  4243   0.487E-01    0.508E-01
RMM:   3    -0.239359461848E+03   -0.15512E-02   -0.15874E-02  4653   0.281E-01
    650 T=   783. E= -.23275978E+03 F= -.23935946E+03 E0= -.23935946E+03  EK= 0.63777E+01 SP= 0.18E+00 SK= 0.47E-01 mag=      0.000
       N       E                     dE             d eps       ncg     rms          rms(c)
DAV:   1    -0.239412771846E+03   -0.54861E-01   -0.63429E-02  6016   0.197E+00    0.954E-01
RMM:   2    -0.239418061791E+03   -0.52899E-02   -0.48719E-02  4680   0.477E-01    0.820E-01
RMM:   3    -0.239419268647E+03   -0.12069E-02   -0.14907E-02  4196   0.300E-01
    651 T=   777. E= -.23275082E+03 F= -.23941927E+03 E0= -.23941927E+03  EK= 0.63283E+01 SP= 0.30E+00 SK= 0.44E-01 mag=     -0.000
       N       E                     dE             d eps       ncg     rms          rms(c)
DAV:   1    -0.239468997297E+03   -0.50936E-01   -0.48125E-02  5952   0.201E+00    0.205E+00
RMM:   2    -0.239472117106E+03   -0.31198E-02   -0.46475E-02  4704   0.452E-01    0.919E-01
RMM:   3    -0.239471464250E+03    0.65286E-03   -0.14847E-02  3917   0.352E-01
    652 T=   771. E= -.23274152E+03 F= -.23947146E+03 E0= -.23947146E+03  EK= 0.62770E+01 SP= 0.41E+00 SK= 0.40E-01 mag=     -0.000
       N       E                     dE             d eps       ncg     rms          rms(c)
DAV:   1    -0.239509678177E+03   -0.37561E-01   -0.79488E-02  5976   0.213E+00    0.482E-01
RMM:   2    -0.239516083745E+03   -0.64056E-02   -0.65069E-02  4552   0.602E-01    0.421E-01
RMM:   3    -0.239518273040E+03   -0.21893E-02   -0.20626E-02  4807   0.323E-01
    653 T=   764. E= -.23273828E+03 F= -.23951827E+03 E0= -.23951827E+03  EK= 0.62209E+01 SP= 0.52E+00 SK= 0.36E-01 mag=     -0.000
       N       E                     dE             d eps       ncg     rms          rms(c)
DAV:   1    -0.239549327283E+03   -0.33244E-01   -0.61500E-02  5896   0.207E+00    0.145E+00
RMM:   2    -0.239551619934E+03   -0.22927E-02   -0.52243E-02  4667   0.509E-01    0.111E+00
RMM:   3    -0.239551388074E+03    0.23186E-03   -0.21582E-02  4421   0.369E-01
    654 T=   757. E= -.23272766E+03 F= -.23955139E+03 E0= -.23955139E+03  EK= 0.61662E+01 SP= 0.63E+00 SK= 0.31E-01 mag=      0.000
       N       E                     dE             d eps       ncg     rms          rms(c)
DAV:   1    -0.239581732685E+03   -0.30113E-01   -0.63699E-02  5904   0.204E+00    0.260E+00
RMM:   2    -0.239577910460E+03    0.38222E-02   -0.62299E-02  4445   0.557E-01    0.117E+00
RMM:   3    -0.239575965309E+03    0.19452E-02   -0.29989E-02  4418   0.404E-01
    655 T=   750. E= -.23271999E+03 F= -.23957597E+03 E0= -.23957597E+03  EK= 0.61091E+01 SP= 0.72E+00 SK= 0.25E-01 mag=      0.000
       N       E                     dE             d eps       ncg     rms          rms(c)
DAV:   1    -0.239588195656E+03   -0.10285E-01   -0.12268E-01  5984   0.219E+00    0.626E-01
RMM:   2    -0.239590991146E+03   -0.27955E-02   -0.84874E-02  4391   0.696E-01    0.498E-01
RMM:   3    -0.239592335447E+03   -0.13443E-02   -0.25970E-02  4906   0.358E-01
    656 T=   743. E= -.23271909E+03 F= -.23959234E+03 E0= -.23959234E+03  EK= 0.60472E+01 SP= 0.81E+00 SK= 0.19E-01 mag=     -0.000
       N       E                     dE             d eps       ncg     rms          rms(c)
DAV:   1    -0.239589462304E+03    0.15288E-02   -0.10197E-01  6000   0.205E+00    0.153E+00
RMM:   2    -0.239593004311E+03   -0.35420E-02   -0.68321E-02  4670   0.576E-01    0.124E+00
RMM:   3    -0.239593398371E+03   -0.39406E-03   -0.26253E-02  4619   0.368E-01
    657 T=   736. E= -.23270975E+03 F= -.23959340E+03 E0= -.23959340E+03  EK= 0.59899E+01 SP= 0.88E+00 SK= 0.14E-01 mag=      0.000
       N       E                     dE             d eps       ncg     rms          rms(c)
DAV:   1    -0.239591561461E+03    0.14428E-02   -0.75028E-02  5696   0.205E+00    0.286E+00
RMM:   2    -0.239586044164E+03    0.55173E-02   -0.71738E-02  4325   0.542E-01    0.133E+00
RMM:   3    -0.239584278839E+03    0.17653E-02   -0.42438E-02  4483   0.458E-01    0.521E-01
RMM:   4    -0.239586607970E+03   -0.23291E-02   -0.94674E-03  3761   0.238E-01
    658 T=   728. E= -.23270540E+03 F= -.23958661E+03 E0= -.23958661E+03  EK= 0.59322E+01 SP= 0.94E+00 SK= 0.88E-02 mag=     -0.000
       N       E                     dE             d eps       ncg     rms          rms(c)
DAV:   1    -0.239563084440E+03    0.21194E-01   -0.64455E-02  5984   0.211E+00    0.659E-01
RMM:   2    -0.239565715507E+03   -0.26311E-02   -0.56118E-02  4156   0.473E-01    0.574E-01
RMM:   3    -0.239567535676E+03   -0.18202E-02   -0.15449E-02  4533   0.292E-01
    659 T=   721. E= -.23270135E+03 F= -.23956754E+03 E0= -.23956754E+03  EK= 0.58755E+01 SP= 0.99E+00 SK= 0.45E-02 mag=     -0.000
       N       E                     dE             d eps       ncg     rms          rms(c)
DAV:   1    -0.239530355893E+03    0.35360E-01   -0.57926E-02  6016   0.191E+00    0.107E+00
RMM:   2    -0.239535326890E+03   -0.49710E-02   -0.44158E-02  4656   0.475E-01    0.878E-01
RMM:   3    -0.239536187541E+03   -0.86065E-03   -0.15136E-02  4035   0.338E-01
    660 T=   716. E= -.23269089E+03 F= -.23953619E+03 E0= -.23953619E+03  EK= 0.58274E+01 SP= 0.10E+01 SK= 0.15E-02 mag=      0.000
       N       E                     dE             d eps       ncg     rms          rms(c)
DAV:   1    -0.239495553170E+03    0.39774E-01   -0.57611E-02  6096   0.193E+00    0.212E+00
RMM:   2    -0.239496813359E+03   -0.12602E-02   -0.49538E-02  4874   0.475E-01    0.945E-01
RMM:   3    -0.239495609265E+03    0.12041E-02   -0.15616E-02  3959   0.333E-01
    661 T=   710. E= -.23268298E+03 F= -.23949561E+03 E0= -.23949561E+03  EK= 0.57830E+01 SP= 0.10E+01 SK= 0.55E-04 mag=      0.000
       N       E                     dE             d eps       ncg     rms          rms(c)
DAV:   1    -0.239443257368E+03    0.53556E-01   -0.87645E-02  5952   0.206E+00    0.505E-01
RMM:   2    -0.239448672192E+03   -0.54148E-02   -0.63055E-02  4460   0.614E-01    0.403E-01
RMM:   3    -0.239450420975E+03   -0.17488E-02   -0.19626E-02  4921   0.328E-01
    662 T=   705. E= -.23268023E+03 F= -.23945042E+03 E0= -.23945042E+03  EK= 0.57448E+01 SP= 0.10E+01 SK= 0.64E-03 mag=     -0.000
       N       E                     dE             d eps       ncg     rms          rms(c)
DAV:   1    -0.239397177036E+03    0.51495E-01   -0.54514E-02  6048   0.199E+00    0.138E+00
RMM:   2    -0.239399029405E+03   -0.18524E-02   -0.55513E-02  4555   0.526E-01    0.104E+00
RMM:   3    -0.239399336951E+03   -0.30755E-03   -0.24380E-02  4750   0.359E-01
    663 T=   703. E= -.23267065E+03 F= -.23939934E+03 E0= -.23939934E+03  EK= 0.57242E+01 SP= 0.10E+01 SK= 0.35E-02 mag=      0.000
       N       E                     dE             d eps       ncg     rms          rms(c)
DAV:   1    -0.239358714226E+03    0.40315E-01   -0.75011E-02  5976   0.202E+00    0.231E+00
RMM:   2    -0.239354089914E+03    0.46243E-02   -0.62628E-02  4258   0.559E-01    0.105E+00
RMM:   3    -0.239352106729E+03    0.19832E-02   -0.28165E-02  4445   0.389E-01
    664 T=   703. E= -.23266387E+03 F= -.23935211E+03 E0= -.23935211E+03  EK= 0.57219E+01 SP= 0.96E+00 SK= 0.88E-02 mag=      0.000
       N       E                     dE             d eps       ncg     rms          rms(c)
DAV:   1    -0.239313549495E+03    0.40540E-01   -0.10894E-01  6088   0.214E+00    0.733E-01
RMM:   2    -0.239316269677E+03   -0.27202E-02   -0.81719E-02  4582   0.697E-01    0.458E-01
RMM:   3    -0.239317753607E+03   -0.14839E-02   -0.27348E-02  4984   0.374E-01
    665 T=   705. E= -.23266175E+03 F= -.23931775E+03 E0= -.23931775E+03  EK= 0.57451E+01 SP= 0.89E+00 SK= 0.16E-01 mag=      0.000
       N       E                     dE             d eps       ncg     rms          rms(c)
DAV:   1    -0.239293664960E+03    0.22605E-01   -0.12332E-01  6144   0.204E+00    0.128E+00
RMM:   2    -0.239297613329E+03   -0.39484E-02   -0.64986E-02  4644   0.594E-01    0.103E+00
RMM:   3    -0.239298830413E+03   -0.12171E-02   -0.22202E-02  4544   0.334E-01
    666 T=   713. E= -.23265256E+03 F= -.23929883E+03 E0= -.23929883E+03  EK= 0.58080E+01 SP= 0.81E+00 SK= 0.26E-01 mag=     -0.000
       N       E                     dE             d eps       ncg     rms          rms(c)
DAV:   1    -0.239307137110E+03   -0.95238E-02   -0.53785E-02  5896   0.195E+00    0.212E+00
RMM:   2    -0.239304632955E+03    0.25042E-02   -0.59663E-02  4451   0.549E-01    0.101E+00
RMM:   3    -0.239304428743E+03    0.20421E-03   -0.30166E-02  4885   0.371E-01
    667 T=   726. E= -.23264605E+03 F= -.23930443E+03 E0= -.23930443E+03  EK= 0.59096E+01 SP= 0.71E+00 SK= 0.35E-01 mag=     -0.000
       N       E                     dE             d eps       ncg     rms          rms(c)
DAV:   1    -0.239335563610E+03   -0.30931E-01   -0.76512E-02  6016   0.208E+00    0.721E-01
RMM:   2    -0.239338959271E+03   -0.33957E-02   -0.70393E-02  4193   0.645E-01    0.416E-01
RMM:   3    -0.239339874715E+03   -0.91544E-03   -0.17637E-02  4725   0.309E-01
    668 T=   743. E= -.23264327E+03 F= -.23933987E+03 E0= -.23933987E+03  EK= 0.60528E+01 SP= 0.60E+00 SK= 0.45E-01 mag=      0.000
       N       E                     dE             d eps       ncg     rms          rms(c)
DAV:   1    -0.239394886801E+03   -0.55928E-01   -0.69541E-02  6232   0.200E+00    0.931E-01
RMM:   2    -0.239399749575E+03   -0.48628E-02   -0.62265E-02  4428   0.602E-01    0.773E-01
RMM:   3    -0.239401140124E+03   -0.13905E-02   -0.17995E-02  4652   0.289E-01
    669 T=   766. E= -.23263514E+03 F= -.23940114E+03 E0= -.23940114E+03  EK= 0.62409E+01 SP= 0.47E+00 SK= 0.52E-01 mag=     -0.000
       N       E                     dE             d eps       ncg     rms          rms(c)
DAV:   1    -0.239484300301E+03   -0.84551E-01   -0.56541E-02  6056   0.196E+00    0.109E+00
RMM:   2    -0.239485857367E+03   -0.15571E-02   -0.47945E-02  4371   0.518E-01    0.477E-01
RMM:   3    -0.239486849951E+03   -0.99258E-03   -0.18619E-02  4740   0.286E-01
    670 T=   793. E= -.23262953E+03 F= -.23948685E+03 E0= -.23948685E+03  EK= 0.64613E+01 SP= 0.34E+00 SK= 0.55E-01 mag=     -0.000
       N       E                     dE             d eps       ncg     rms          rms(c)
DAV:   1    -0.239584109044E+03   -0.98252E-01   -0.50050E-02  6000   0.205E+00    0.687E-01
RMM:   2    -0.239588279325E+03   -0.41703E-02   -0.48838E-02  4199   0.539E-01    0.281E-01
RMM:   3    -0.239589391707E+03   -0.11124E-02   -0.13184E-02  4329   0.261E-01
    671 T=   823. E= -.23262531E+03 F= -.23958939E+03 E0= -.23958939E+03  EK= 0.67032E+01 SP= 0.21E+00 SK= 0.54E-01 mag=      0.000
       N       E                     dE             d eps       ncg     rms          rms(c)
DAV:   1    -0.239694065568E+03   -0.10579E+00   -0.52549E-02  6112   0.203E+00    0.318E-01
RMM:   2    -0.239698459800E+03   -0.43942E-02   -0.42742E-02  4367   0.531E-01    0.274E-01
RMM:   3    -0.239699769813E+03   -0.13100E-02   -0.13581E-02  4310   0.251E-01
    672 T=   854. E= -.23261806E+03 F= -.23969977E+03 E0= -.23969977E+03  EK= 0.69561E+01 SP= 0.78E-01 SK= 0.48E-01 mag=      0.000
       N       E                     dE             d eps       ncg     rms          rms(c)
DAV:   1    -0.239803773832E+03   -0.10531E+00   -0.45445E-02  5952   0.207E+00    0.535E-01
RMM:   2    -0.239807707546E+03   -0.39337E-02   -0.40286E-02  4718   0.481E-01    0.448E-01
RMM:   3    -0.239808858779E+03   -0.11512E-02   -0.14386E-02  4196   0.250E-01
    673 T=   884. E= -.23261138E+03 F= -.23980886E+03 E0= -.23980886E+03  EK= 0.72002E+01 SP= -.40E-01 SK= 0.38E-01 mag=     -0.000
       N       E                     dE             d eps       ncg     rms          rms(c)
DAV:   1    -0.239901816394E+03   -0.94109E-01   -0.55976E-02  5976   0.214E+00    0.121E+00
RMM:   2    -0.239906431021E+03   -0.46146E-02   -0.42928E-02  4774   0.463E-01    0.520E-01
RMM:   3    -0.239907331277E+03   -0.90026E-03   -0.13978E-02  3937   0.311E-01
    674 T=   911. E= -.23260337E+03 F= -.23990733E+03 E0= -.23990733E+03  EK= 0.74203E+01 SP= -.14E+00 SK= 0.25E-01 mag=     -0.000
       N       E                     dE             d eps       ncg     rms          rms(c)
DAV:   1    -0.239981961267E+03   -0.75530E-01   -0.75616E-02  6024   0.219E+00    0.383E-01
RMM:   2    -0.239988567546E+03   -0.66063E-02   -0.57083E-02  4663   0.549E-01    0.241E-01
RMM:   3    -0.239990413877E+03   -0.18463E-02   -0.14803E-02  4237   0.279E-01
    675 T=   934. E= -.23259418E+03 F= -.23999041E+03 E0= -.23999041E+03  EK= 0.76035E+01 SP= -.22E+00 SK= 0.13E-01 mag=      0.000
       N       E                     dE             d eps       ncg     rms          rms(c)
DAV:   1    -0.240043678406E+03   -0.55111E-01   -0.72937E-02  6032   0.222E+00    0.568E-01
RMM:   2    -0.240049198335E+03   -0.55199E-02   -0.48894E-02  4651   0.527E-01    0.553E-01
RMM:   3    -0.240050788955E+03   -0.15906E-02   -0.14276E-02  4164   0.260E-01
    676 T=   950. E= -.23258360E+03 F= -.24005079E+03 E0= -.24005079E+03  EK= 0.77357E+01 SP= -.27E+00 SK= 0.43E-02 mag=      0.000
       N       E                     dE             d eps       ncg     rms          rms(c)
DAV:   1    -0.240078956070E+03   -0.29758E-01   -0.71886E-02  6080   0.222E+00    0.213E-01
RMM:   2    -0.240084434538E+03   -0.54785E-02   -0.47822E-02  4862   0.493E-01    0.294E-01
RMM:   3    -0.240085842517E+03   -0.14080E-02   -0.12711E-02  3906   0.236E-01
    677 T=   959. E= -.23257199E+03 F= -.24008584E+03 E0= -.24008584E+03  EK= 0.78086E+01 SP= -.29E+00 SK= 0.12E-03 mag=     -0.000
       N       E                     dE             d eps       ncg     rms          rms(c)
DAV:   1    -0.240087289642E+03   -0.28551E-02   -0.63247E-02  5920   0.224E+00    0.202E-01
RMM:   2    -0.240092890059E+03   -0.56004E-02   -0.46980E-02  4937   0.483E-01    0.222E-01
RMM:   3    -0.240094101323E+03   -0.12113E-02   -0.11267E-02  3637   0.226E-01
    678 T=   960. E= -.23255870E+03 F= -.24009410E+03 E0= -.24009410E+03  EK= 0.78183E+01 SP= -.28E+00 SK= 0.21E-02 mag=     -0.000
       N       E                     dE             d eps       ncg     rms          rms(c)
DAV:   1    -0.240068786893E+03    0.24103E-01   -0.53540E-02  5952   0.221E+00    0.411E-01
RMM:   2    -0.240074139538E+03   -0.53526E-02   -0.47343E-02  4968   0.478E-01    0.215E-01
RMM:   3    -0.240075262423E+03   -0.11229E-02   -0.11383E-02  3552   0.228E-01
    679 T=   953. E= -.23254506E+03 F= -.24007526E+03 E0= -.24007526E+03  EK= 0.77629E+01 SP= -.24E+00 SK= 0.10E-01 mag=     -0.000
       N       E                     dE             d eps       ncg     rms          rms(c)
DAV:   1    -0.240023106376E+03    0.51033E-01   -0.63975E-02  5928   0.216E+00    0.519E-01
RMM:   2    -0.240028774180E+03   -0.56678E-02   -0.49781E-02  4972   0.465E-01    0.103E-01
RMM:   3    -0.240029846758E+03   -0.10726E-02   -0.10735E-02  3477   0.223E-01
    680 T=   939. E= -.23253186E+03 F= -.24002985E+03 E0= -.24002985E+03  EK= 0.76447E+01 SP= -.17E+00 SK= 0.23E-01 mag=      0.000
       N       E                     dE             d eps       ncg     rms          rms(c)
DAV:   1    -0.239954201050E+03    0.74573E-01   -0.64456E-02  5968   0.215E+00    0.334E-01
RMM:   2    -0.239959580324E+03   -0.53793E-02   -0.47171E-02  4988   0.466E-01    0.190E-01
RMM:   3    -0.239960646391E+03   -0.10661E-02   -0.10327E-02  3358   0.214E-01
    681 T=   918. E= -.23251773E+03 F= -.23996065E+03 E0= -.23996065E+03  EK= 0.74730E+01 SP= -.70E-01 SK= 0.39E-01 mag=      0.000
       N       E                     dE             d eps       ncg     rms          rms(c)
DAV:   1    -0.239864791053E+03    0.94789E-01   -0.60229E-02  5864   0.213E+00    0.223E-01
RMM:   2    -0.239870192244E+03   -0.54012E-02   -0.46628E-02  5014   0.455E-01    0.283E-01
RMM:   3    -0.239871228739E+03   -0.10365E-02   -0.97463E-03  3302   0.206E-01
    682 T=   891. E= -.23250174E+03 F= -.23987123E+03 E0= -.23987123E+03  EK= 0.72593E+01 SP= 0.55E-01 SK= 0.55E-01 mag=     -0.000
       N       E                     dE             d eps       ncg     rms          rms(c)
DAV:   1    -0.239759718770E+03    0.11047E+00   -0.61173E-02  5936   0.209E+00    0.297E-01
RMM:   2    -0.239765520491E+03   -0.58017E-02   -0.49289E-02  5037   0.459E-01    0.399E-01
RMM:   3    -0.239766602816E+03   -0.10823E-02   -0.10403E-02  3424   0.212E-01
    683 T=   861. E= -.23248632E+03 F= -.23976660E+03 E0= -.23976660E+03  EK= 0.70140E+01 SP= 0.20E+00 SK= 0.69E-01 mag=     -0.000
       N       E                     dE             d eps       ncg     rms          rms(c)
DAV:   1    -0.239645036049E+03    0.12048E+00   -0.61900E-02  5976   0.208E+00    0.630E-01
RMM:   2    -0.239650579116E+03   -0.55431E-02   -0.45940E-02  4821   0.500E-01    0.567E-01
RMM:   3    -0.239651838921E+03   -0.12598E-02   -0.12002E-02  3780   0.238E-01
    684 T=   829. E= -.23247248E+03 F= -.23965184E+03 E0= -.23965184E+03  EK= 0.67495E+01 SP= 0.35E+00 SK= 0.78E-01 mag=      0.000
       N       E                     dE             d eps       ncg     rms          rms(c)
DAV:   1    -0.239529257558E+03    0.12132E+00   -0.73672E-02  6056   0.205E+00    0.285E+00
RMM:   2    -0.239532941225E+03   -0.36837E-02   -0.45337E-02  4973   0.467E-01    0.142E+00
RMM:   3    -0.239533473545E+03   -0.53232E-03   -0.12066E-02  3545   0.231E-01
    685 T=   796. E= -.23245913E+03 F= -.23953347E+03 E0= -.23953347E+03  EK= 0.64813E+01 SP= 0.51E+00 SK= 0.80E-01 mag=     -0.000
       N       E                     dE             d eps       ncg     rms          rms(c)
DAV:   1    -0.239415054321E+03    0.11789E+00   -0.58068E-02  5944   0.204E+00    0.109E+00
RMM:   2    -0.239419596625E+03   -0.45423E-02   -0.50119E-02  4936   0.472E-01    0.900E-01
RMM:   3    -0.239420082083E+03   -0.48546E-03   -0.10682E-02  3500   0.226E-01
    686 T=   764. E= -.23244572E+03 F= -.23942008E+03 E0= -.23942008E+03  EK= 0.62253E+01 SP= 0.67E+00 SK= 0.76E-01 mag=      0.000
       N       E                     dE             d eps       ncg     rms          rms(c)
DAV:   1    -0.239316324952E+03    0.10327E+00   -0.74969E-02  6168   0.199E+00    0.132E+00
RMM:   2    -0.239318182762E+03   -0.18578E-02   -0.46291E-02  4655   0.475E-01    0.530E-01
RMM:   3    -0.239318585431E+03   -0.40267E-03   -0.14964E-02  4116   0.237E-01
    687 T=   736. E= -.23243368E+03 F= -.23931859E+03 E0= -.23931859E+03  EK= 0.59925E+01 SP= 0.83E+00 SK= 0.67E-01 mag=      0.000
       N       E                     dE             d eps       ncg     rms          rms(c)
DAV:   1    -0.239231013591E+03    0.87169E-01   -0.82811E-02  6096   0.194E+00    0.358E-01
RMM:   2    -0.239234559792E+03   -0.35462E-02   -0.50141E-02  4681   0.482E-01    0.416E-01
RMM:   3    -0.239235269434E+03   -0.70964E-03   -0.11026E-02  3838   0.223E-01
    688 T=   711. E= -.23242381E+03 F= -.23923527E+03 E0= -.23923527E+03  EK= 0.57924E+01 SP= 0.97E+00 SK= 0.53E-01 mag=     -0.000
       N       E                     dE             d eps       ncg     rms          rms(c)
DAV:   1    -0.239170586276E+03    0.63974E-01   -0.47647E-02  5848   0.188E+00    0.112E+00
RMM:   2    -0.239172474568E+03   -0.18883E-02   -0.46375E-02  4769   0.443E-01    0.873E-01
RMM:   3    -0.239173371733E+03   -0.89716E-03   -0.17743E-02  4095   0.236E-01
    689 T=   692. E= -.23241206E+03 F= -.23917337E+03 E0= -.23917337E+03  EK= 0.56351E+01 SP= 0.11E+01 SK= 0.38E-01 mag=      0.000
       N       E                     dE             d eps       ncg     rms          rms(c)
DAV:   1    -0.239139990662E+03    0.32484E-01   -0.54378E-02  5968   0.187E+00    0.192E+00
RMM:   2    -0.239135450338E+03    0.45403E-02   -0.54541E-02  4396   0.444E-01    0.926E-01
RMM:   3    -0.239135772828E+03   -0.32249E-03   -0.27982E-02  4640   0.292E-01
    690 T=   678. E= -.23240214E+03 F= -.23913577E+03 E0= -.23913577E+03  EK= 0.55214E+01 SP= 0.12E+01 SK= 0.24E-01 mag=      0.000
       N       E                     dE             d eps       ncg     rms          rms(c)
DAV:   1    -0.239123497298E+03    0.11953E-01   -0.63409E-02  6048   0.194E+00    0.549E-01
RMM:   2    -0.239121722857E+03    0.17744E-02   -0.58545E-02  4248   0.528E-01    0.305E-01
RMM:   3    -0.239122302781E+03   -0.57992E-03   -0.19770E-02  4741   0.283E-01
    691 T=   669. E= -.23239475E+03 F= -.23912230E+03 E0= -.23912230E+03  EK= 0.54514E+01 SP= 0.13E+01 SK= 0.12E-01 mag=     -0.000
       N       E                     dE             d eps       ncg     rms          rms(c)
DAV:   1    -0.239124710275E+03   -0.29874E-02   -0.66584E-02  6088   0.192E+00    0.569E-01
RMM:   2    -0.239129045485E+03   -0.43352E-02   -0.49549E-02  4260   0.514E-01    0.548E-01
RMM:   3    -0.239130319612E+03   -0.12741E-02   -0.13985E-02  4532   0.253E-01
    692 T=   666. E= -.23238661E+03 F= -.23913032E+03 E0= -.23913032E+03  EK= 0.54261E+01 SP= 0.13E+01 SK= 0.41E-02 mag=     -0.000
       N       E                     dE             d eps       ncg     rms          rms(c)
DAV:   1    -0.239150930626E+03   -0.21885E-01   -0.42717E-02  5944   0.184E+00    0.897E-01
RMM:   2    -0.239153936616E+03   -0.30060E-02   -0.42287E-02  4568   0.450E-01    0.734E-01
RMM:   3    -0.239154799165E+03   -0.86255E-03   -0.18122E-02  4406   0.266E-01
    693 T=   668. E= -.23238065E+03 F= -.23915480E+03 E0= -.23915480E+03  EK= 0.54376E+01 SP= 0.13E+01 SK= 0.27E-03 mag=      0.000
       N       E                     dE             d eps       ncg     rms          rms(c)
DAV:   1    -0.239187515052E+03   -0.33578E-01   -0.53578E-02  5832   0.193E+00    0.217E+00
RMM:   2    -0.239188201505E+03   -0.68645E-03   -0.45370E-02  4198   0.463E-01    0.105E+00
RMM:   3    -0.239188258687E+03   -0.57182E-04   -0.18854E-02  4242   0.331E-01
    694 T=   673. E= -.23237137E+03 F= -.23918826E+03 E0= -.23918826E+03  EK= 0.54836E+01 SP= 0.13E+01 SK= 0.86E-03 mag=      0.000
       N       E                     dE             d eps       ncg     rms          rms(c)
DAV:   1    -0.239222686424E+03   -0.34485E-01   -0.80632E-02  6064   0.195E+00    0.453E-01
RMM:   2    -0.239224669857E+03   -0.19834E-02   -0.59342E-02  4382   0.591E-01    0.388E-01
RMM:   3    -0.239226115255E+03   -0.14454E-02   -0.20329E-02  4736   0.306E-01
    695 T=   682. E= -.23236317E+03 F= -.23922612E+03 E0= -.23922612E+03  EK= 0.55546E+01 SP= 0.13E+01 SK= 0.53E-02 mag=      0.000
       N       E                     dE             d eps       ncg     rms          rms(c)
DAV:   1    -0.239253127162E+03   -0.28457E-01   -0.62591E-02  5952   0.196E+00    0.129E+00
RMM:   2    -0.239258278624E+03   -0.51515E-02   -0.51925E-02  4732   0.524E-01    0.103E+00
RMM:   3    -0.239257140043E+03    0.11386E-02   -0.17809E-02  3934   0.395E-01
    696 T=   692. E= -.23235658E+03 F= -.23925714E+03 E0= -.23925714E+03  EK= 0.56379E+01 SP= 0.13E+01 SK= 0.13E-01 mag=      0.000
       N       E                     dE             d eps       ncg     rms          rms(c)
DAV:   1    -0.239278984592E+03   -0.20706E-01   -0.87001E-02  5576   0.209E+00    0.233E+00
RMM:   2    -0.239283664777E+03   -0.46802E-02   -0.64341E-02  4532   0.543E-01    0.972E-01
RMM:   3    -0.239283737534E+03   -0.72758E-04   -0.26423E-02  4178   0.471E-01
    697 T=   705. E= -.23234670E+03 F= -.23928374E+03 E0= -.23928374E+03  EK= 0.57397E+01 SP= 0.12E+01 SK= 0.22E-01 mag=      0.000
       N       E                     dE             d eps       ncg     rms          rms(c)
DAV:   1    -0.239292519377E+03   -0.88546E-02   -0.13610E-01  5088   0.220E+00    0.522E-01
RMM:   2    -0.239299537754E+03   -0.70184E-02   -0.77405E-02  4533   0.600E-01    0.427E-01
RMM:   3    -0.239302397701E+03   -0.28599E-02   -0.25613E-02  4824   0.358E-01
    698 T=   719. E= -.23233745E+03 F= -.23930240E+03 E0= -.23930240E+03  EK= 0.58511E+01 SP= 0.11E+01 SK= 0.32E-01 mag=      0.000
       N       E                     dE             d eps       ncg     rms          rms(c)
DAV:   1    -0.239299957368E+03   -0.41961E-03   -0.95077E-02  5584   0.210E+00    0.155E+00
RMM:   2    -0.239305483463E+03   -0.55261E-02   -0.62041E-02  4904   0.523E-01    0.128E+00
RMM:   3    -0.239302463967E+03    0.30195E-02   -0.26750E-02  3816   0.511E-01
    699 T=   732. E= -.23232729E+03 F= -.23930246E+03 E0= -.23930246E+03  EK= 0.59613E+01 SP= 0.97E+00 SK= 0.43E-01 mag=     -0.000
       N       E                     dE             d eps       ncg     rms          rms(c)
DAV:   1    -0.239297580584E+03    0.79029E-02   -0.10855E-01  5336   0.225E+00    0.322E+00
RMM:   2    -0.239299391792E+03   -0.18112E-02   -0.77960E-02  4509   0.584E-01    0.145E+00
RMM:   3    -0.239298100715E+03    0.12911E-02   -0.41372E-02  4294   0.553E-01    0.384E-01
RMM:   4    -0.239301807531E+03   -0.37068E-02   -0.13301E-02  4274   0.256E-01    0.135E-01
RMM:   5    -0.239301665990E+03    0.14154E-03   -0.13627E-03  2583   0.987E-02
    700 T=   746. E= -.23232900E+03 F= -.23930167E+03 E0= -.23930167E+03  EK= 0.60732E+01 SP= 0.85E+00 SK= 0.52E-01 mag=     -0.000
       N       E                     dE             d eps       ncg     rms          rms(c)
DAV:   1    -0.239280340715E+03    0.21467E-01   -0.83260E-02  5456   0.212E+00    0.578E-01
RMM:   2    -0.239284664688E+03   -0.43240E-02   -0.52358E-02  4351   0.530E-01    0.573E-01
RMM:   3    -0.239286510238E+03   -0.18455E-02   -0.16821E-02  4699   0.296E-01
    701 T=   760. E= -.23232597E+03 F= -.23928651E+03 E0= -.23928651E+03  EK= 0.61880E+01 SP= 0.71E+00 SK= 0.60E-01 mag=      0.000
       N       E                     dE             d eps       ncg     rms          rms(c)
DAV:   1    -0.239259034035E+03    0.25631E-01   -0.47485E-02  5976   0.196E+00    0.194E+00
RMM:   2    -0.239261851501E+03   -0.28175E-02   -0.48664E-02  4978   0.460E-01    0.143E+00
RMM:   3    -0.239259285765E+03    0.25657E-02   -0.24647E-02  3789   0.421E-01
    702 T=   775. E= -.23231621E+03 F= -.23925929E+03 E0= -.23925929E+03  EK= 0.63075E+01 SP= 0.57E+00 SK= 0.66E-01 mag=     -0.000
       N       E                     dE             d eps       ncg     rms          rms(c)
DAV:   1    -0.239228399170E+03    0.33452E-01   -0.97747E-02  5560   0.222E+00    0.301E+00
RMM:   2    -0.239229643625E+03   -0.12445E-02   -0.70900E-02  4470   0.534E-01    0.140E+00
RMM:   3    -0.239227520661E+03    0.21230E-02   -0.40033E-02  4043   0.561E-01    0.358E-01
RMM:   4    -0.239231581218E+03   -0.40606E-02   -0.12288E-02  4259   0.273E-01    0.141E-01
RMM:   5    -0.239231435747E+03    0.14547E-03   -0.18090E-03  2573   0.114E-01
    703 T=   789. E= -.23231332E+03 F= -.23923144E+03 E0= -.23923144E+03  EK= 0.64271E+01 SP= 0.42E+00 SK= 0.69E-01 mag=      0.000
       N       E                     dE             d eps       ncg     rms          rms(c)
DAV:   1    -0.239188217697E+03    0.43364E-01   -0.69798E-02  5600   0.213E+00    0.531E-01
RMM:   2    -0.239192468475E+03   -0.42508E-02   -0.49464E-02  4477   0.490E-01    0.444E-01
RMM:   3    -0.239194613675E+03   -0.21452E-02   -0.18351E-02  4603   0.317E-01
    704 T=   803. E= -.23230977E+03 F= -.23919461E+03 E0= -.23919461E+03  EK= 0.65432E+01 SP= 0.27E+00 SK= 0.70E-01 mag=      0.000
       N       E                     dE             d eps       ncg     rms          rms(c)
DAV:   1    -0.239146174715E+03    0.46294E-01   -0.67156E-02  6008   0.200E+00    0.103E+00
RMM:   2    -0.239150677349E+03   -0.45026E-02   -0.45697E-02  4851   0.476E-01    0.856E-01
RMM:   3    -0.239150981490E+03   -0.30414E-03   -0.12864E-02  3886   0.285E-01
    705 T=   818. E= -.23230269E+03 F= -.23915098E+03 E0= -.23915098E+03  EK= 0.66580E+01 SP= 0.12E+00 SK= 0.68E-01 mag=     -0.000
       N       E                     dE             d eps       ncg     rms          rms(c)
DAV:   1    -0.239095302532E+03    0.55375E-01   -0.56788E-02  5928   0.209E+00    0.175E+00
RMM:   2    -0.239099777688E+03   -0.44752E-02   -0.45537E-02  4537   0.459E-01    0.796E-01
RMM:   3    -0.239099927424E+03   -0.14974E-03   -0.17449E-02  3931   0.399E-01
    706 T=   831. E= -.23229212E+03 F= -.23909993E+03 E0= -.23909993E+03  EK= 0.67678E+01 SP= -.23E-01 SK= 0.63E-01 mag=     -0.000
       N       E                     dE             d eps       ncg     rms          rms(c)
DAV:   1    -0.239032863888E+03    0.66914E-01   -0.92551E-02  5696   0.221E+00    0.521E-01
RMM:   2    -0.239040596652E+03   -0.77328E-02   -0.68924E-02  4702   0.603E-01    0.350E-01
RMM:   3    -0.239043332000E+03   -0.27353E-02   -0.21322E-02  4570   0.339E-01
    707 T=   843. E= -.23228543E+03 F= -.23904333E+03 E0= -.23904333E+03  EK= 0.68639E+01 SP= -.16E+00 SK= 0.57E-01 mag=      0.000
       N       E                     dE             d eps       ncg     rms          rms(c)
DAV:   1    -0.238970255725E+03    0.70341E-01   -0.73941E-02  5888   0.216E+00    0.110E+00
RMM:   2    -0.238975095370E+03   -0.48396E-02   -0.48415E-02  4695   0.509E-01    0.891E-01
RMM:   3    -0.238975394805E+03   -0.29944E-03   -0.19444E-02  4055   0.404E-01
    708 T=   853. E= -.23227321E+03 F= -.23897539E+03 E0= -.23897539E+03  EK= 0.69470E+01 SP= -.29E+00 SK= 0.49E-01 mag=      0.000
       N       E                     dE             d eps       ncg     rms          rms(c)
DAV:   1    -0.238900280048E+03    0.74815E-01   -0.79417E-02  6008   0.211E+00    0.239E+00
RMM:   2    -0.238903260809E+03   -0.29808E-02   -0.66234E-02  4789   0.579E-01    0.992E-01
RMM:   3    -0.238903041884E+03    0.21892E-03   -0.22375E-02  4271   0.388E-01
    709 T=   861. E= -.23226206E+03 F= -.23890304E+03 E0= -.23890304E+03  EK= 0.70147E+01 SP= -.41E+00 SK= 0.41E-01 mag=      0.000
       N       E                     dE             d eps       ncg     rms          rms(c)
DAV:   1    -0.238819445845E+03    0.83815E-01   -0.10842E-01  5880   0.228E+00    0.415E-01
RMM:   2    -0.238825439352E+03   -0.59935E-02   -0.77683E-02  4579   0.689E-01    0.426E-01
RMM:   3    -0.238827679250E+03   -0.22399E-02   -0.25569E-02  4861   0.350E-01
    710 T=   867. E= -.23225548E+03 F= -.23882768E+03 E0= -.23882768E+03  EK= 0.70626E+01 SP= -.52E+00 SK= 0.32E-01 mag=      0.000
       N       E                     dE             d eps       ncg     rms          rms(c)
DAV:   1    -0.238744934378E+03    0.80505E-01   -0.98071E-02  6032   0.219E+00    0.156E+00
RMM:   2    -0.238748610520E+03   -0.36761E-02   -0.68029E-02  4839   0.571E-01    0.125E+00
RMM:   3    -0.238747111907E+03    0.14986E-02   -0.28240E-02  4244   0.453E-01
    711 T=   872. E= -.23223668E+03 F= -.23874711E+03 E0= -.23874711E+03  EK= 0.71036E+01 SP= -.62E+00 SK= 0.24E-01 mag=      0.000
       N       E                     dE             d eps       ncg     rms          rms(c)
DAV:   1    -0.238679637124E+03    0.68973E-01   -0.11606E-01  5672   0.232E+00    0.296E+00
RMM:   2    -0.238677453462E+03    0.21837E-02   -0.87680E-02  4648   0.604E-01    0.126E+00
RMM:   3    -0.238675279738E+03    0.21737E-02   -0.46940E-02  4245   0.564E-01    0.409E-01
RMM:   4    -0.238679133987E+03   -0.38542E-02   -0.15351E-02  4332   0.278E-01    0.143E-01
RMM:   5    -0.238678935186E+03    0.19880E-03   -0.13271E-03  2573   0.101E-01
    712 T=   876. E= -.23222637E+03 F= -.23867894E+03 E0= -.23867894E+03  EK= 0.71330E+01 SP= -.70E+00 SK= 0.16E-01 mag=     -0.000
       N       E                     dE             d eps       ncg     rms          rms(c)
DAV:   1    -0.238612979577E+03    0.66154E-01   -0.83785E-02  5960   0.225E+00    0.554E-01
RMM:   2    -0.238616775361E+03   -0.37958E-02   -0.54913E-02  4503   0.540E-01    0.451E-01
RMM:   3    -0.238618710631E+03   -0.19353E-02   -0.18725E-02  4574   0.315E-01
    713 T=   878. E= -.23221952E+03 F= -.23861871E+03 E0= -.23861871E+03  EK= 0.71506E+01 SP= -.76E+00 SK= 0.10E-01 mag=      0.000
       N       E                     dE             d eps       ncg     rms          rms(c)
DAV:   1    -0.238570213138E+03    0.46562E-01   -0.67897E-02  6160   0.212E+00    0.111E+00
RMM:   2    -0.238574314441E+03   -0.41013E-02   -0.53022E-02  4924   0.518E-01    0.921E-01
RMM:   3    -0.238574695706E+03   -0.38127E-03   -0.15643E-02  3983   0.282E-01
    714 T=   881. E= -.23220575E+03 F= -.23857470E+03 E0= -.23857470E+03  EK= 0.71742E+01 SP= -.81E+00 SK= 0.52E-02 mag=      0.000
       N       E                     dE             d eps       ncg     rms          rms(c)
DAV:   1    -0.238550933666E+03    0.23381E-01   -0.60405E-02  6096   0.213E+00    0.196E+00
RMM:   2    -0.238550686635E+03    0.24703E-03   -0.46968E-02  4475   0.497E-01    0.964E-01
RMM:   3    -0.238550036247E+03    0.65039E-03   -0.22434E-02  4397   0.357E-01
    715 T=   884. E= -.23219207E+03 F= -.23855004E+03 E0= -.23855004E+03  EK= 0.71994E+01 SP= -.84E+00 SK= 0.18E-02 mag=      0.000
       N       E                     dE             d eps       ncg     rms          rms(c)
DAV:   1    -0.238539937570E+03    0.10749E-01   -0.70844E-02  6144   0.229E+00    0.488E-01
RMM:   2    -0.238544403563E+03   -0.44660E-02   -0.68870E-02  4606   0.658E-01    0.425E-01
RMM:   3    -0.238546145917E+03   -0.17424E-02   -0.21461E-02  4738   0.335E-01
    716 T=   887. E= -.23218355E+03 F= -.23854615E+03 E0= -.23854615E+03  EK= 0.72216E+01 SP= -.86E+00 SK= 0.16E-03 mag=      0.000
       N       E                     dE             d eps       ncg     rms          rms(c)
DAV:   1    -0.238553586150E+03   -0.91826E-02   -0.86022E-02  6200   0.223E+00    0.126E+00
RMM:   2    -0.238557758951E+03   -0.41728E-02   -0.60654E-02  4825   0.568E-01    0.102E+00
RMM:   3    -0.238557962860E+03   -0.20391E-03   -0.20987E-02  4366   0.370E-01
    717 T=   890. E= -.23216625E+03 F= -.23855796E+03 E0= -.23855796E+03  EK= 0.72489E+01 SP= -.86E+00 SK= 0.35E-03 mag=      0.000
       N       E                     dE             d eps       ncg     rms          rms(c)
DAV:   1    -0.238587867973E+03   -0.30109E-01   -0.66522E-02  5952   0.226E+00    0.233E+00
RMM:   2    -0.238586784257E+03    0.10837E-02   -0.63204E-02  4555   0.557E-01    0.106E+00
RMM:   3    -0.238585406465E+03    0.13778E-02   -0.33049E-02  4243   0.483E-01    0.420E-01
RMM:   4    -0.238587928137E+03   -0.25217E-02   -0.10623E-02  3915   0.236E-01
    718 T=   892. E= -.23215578E+03 F= -.23858793E+03 E0= -.23858793E+03  EK= 0.72674E+01 SP= -.84E+00 SK= 0.26E-02 mag=      0.000
       N       E                     dE             d eps       ncg     rms          rms(c)
DAV:   1    -0.238619608578E+03   -0.34202E-01   -0.73102E-02  6136   0.235E+00    0.505E-01
RMM:   2    -0.238624195288E+03   -0.45867E-02   -0.51483E-02  4422   0.491E-01    0.427E-01
RMM:   3    -0.238626551837E+03   -0.23565E-02   -0.16562E-02  4694   0.319E-01
    719 T=   893. E= -.23214748E+03 F= -.23862655E+03 E0= -.23862655E+03  EK= 0.72717E+01 SP= -.80E+00 SK= 0.71E-02 mag=     -0.000
       N       E                     dE             d eps       ncg     rms          rms(c)
DAV:   1    -0.238663553484E+03   -0.39358E-01   -0.60042E-02  6064   0.214E+00    0.989E-01
RMM:   2    -0.238669719759E+03   -0.61663E-02   -0.52791E-02  4869   0.521E-01    0.826E-01
RMM:   3    -0.238669888545E+03   -0.16879E-03   -0.18648E-02  3988   0.401E-01
    720 T=   893. E= -.23212779E+03 F= -.23866989E+03 E0= -.23866989E+03  EK= 0.72712E+01 SP= -.74E+00 SK= 0.14E-01 mag=      0.000
       N       E                     dE             d eps       ncg     rms          rms(c)
DAV:   1    -0.238714414413E+03   -0.44695E-01   -0.78493E-02  6040   0.222E+00    0.195E+00
RMM:   2    -0.238719532097E+03   -0.51177E-02   -0.62601E-02  4927   0.517E-01    0.780E-01
RMM:   3    -0.238718823952E+03    0.70814E-03   -0.22111E-02  3875   0.469E-01
    721 T=   891. E= -.23211129E+03 F= -.23871882E+03 E0= -.23871882E+03  EK= 0.72524E+01 SP= -.67E+00 SK= 0.22E-01 mag=      0.000
       N       E                     dE             d eps       ncg     rms          rms(c)
DAV:   1    -0.238760248371E+03   -0.40716E-01   -0.11248E-01  5568   0.243E+00    0.645E-01
RMM:   2    -0.238769750856E+03   -0.95025E-02   -0.80101E-02  4620   0.626E-01    0.364E-01
RMM:   3    -0.238773198388E+03   -0.34475E-02   -0.26149E-02  4960   0.397E-01    0.536E-01
RMM:   4    -0.238773296631E+03   -0.98243E-04   -0.22239E-03  2608   0.137E-01
    722 T=   885. E= -.23210603E+03 F= -.23877330E+03 E0= -.23877330E+03  EK= 0.72081E+01 SP= -.57E+00 SK= 0.33E-01 mag=     -0.000
       N       E                     dE             d eps       ncg     rms          rms(c)
DAV:   1    -0.238819503666E+03   -0.46305E-01   -0.72592E-02  6144   0.224E+00    0.120E+00
RMM:   2    -0.238824146014E+03   -0.46423E-02   -0.65968E-02  4706   0.497E-01    0.100E+00
RMM:   3    -0.238825378822E+03   -0.12328E-02   -0.21133E-02  4419   0.368E-01
    723 T=   878. E= -.23209239E+03 F= -.23882538E+03 E0= -.23882538E+03  EK= 0.71516E+01 SP= -.46E+00 SK= 0.44E-01 mag=      0.000
       N       E                     dE             d eps       ncg     rms          rms(c)
DAV:   1    -0.238878618495E+03   -0.54472E-01   -0.92051E-02  6072   0.220E+00    0.220E+00
RMM:   2    -0.238879483718E+03   -0.86522E-03   -0.63567E-02  4363   0.517E-01    0.983E-01
RMM:   3    -0.238878733462E+03    0.75026E-03   -0.28250E-02  4123   0.457E-01
    724 T=   870. E= -.23207833E+03 F= -.23887873E+03 E0= -.23887873E+03  EK= 0.70808E+01 SP= -.34E+00 SK= 0.56E-01 mag=      0.000
       N       E                     dE             d eps       ncg     rms          rms(c)
DAV:   1    -0.238928386026E+03   -0.48902E-01   -0.11160E-01  6288   0.239E+00    0.653E-01
RMM:   2    -0.238934876833E+03   -0.64908E-02   -0.90674E-02  4719   0.707E-01    0.469E-01
RMM:   3    -0.238937426349E+03   -0.25495E-02   -0.28706E-02  4753   0.383E-01
    725 T=   859. E= -.23207194E+03 F= -.23893743E+03 E0= -.23893743E+03  EK= 0.69941E+01 SP= -.20E+00 SK= 0.67E-01 mag=     -0.000
       N       E                     dE             d eps       ncg     rms          rms(c)
DAV:   1    -0.238986955496E+03   -0.52079E-01   -0.12275E-01  6168   0.225E+00    0.140E+00
RMM:   2    -0.238991040216E+03   -0.40847E-02   -0.69603E-02  4782   0.613E-01    0.112E+00
RMM:   3    -0.238991849333E+03   -0.80912E-03   -0.31521E-02  4688   0.422E-01
    726 T=   848. E= -.23205387E+03 F= -.23899185E+03 E0= -.23899185E+03  EK= 0.69042E+01 SP= -.43E-01 SK= 0.77E-01 mag=      0.000
       N       E                     dE             d eps       ncg     rms          rms(c)
DAV:   1    -0.239054681301E+03   -0.63641E-01   -0.62959E-02  5728   0.223E+00    0.260E+00
RMM:   2    -0.239049744780E+03    0.49365E-02   -0.76136E-02  4410   0.588E-01    0.120E+00
RMM:   3    -0.239048394098E+03    0.13507E-02   -0.43259E-02  4518   0.470E-01    0.462E-01
RMM:   4    -0.239050543697E+03   -0.21496E-02   -0.93297E-03  3582   0.240E-01
    727 T=   835. E= -.23204436E+03 F= -.23905054E+03 E0= -.23905054E+03  EK= 0.68020E+01 SP= 0.12E+00 SK= 0.85E-01 mag=      0.000
       N       E                     dE             d eps       ncg     rms          rms(c)
DAV:   1    -0.239101752617E+03   -0.53359E-01   -0.69706E-02  5968   0.231E+00    0.588E-01
RMM:   2    -0.239104825367E+03   -0.30727E-02   -0.62062E-02  4223   0.525E-01    0.487E-01
RMM:   3    -0.239106718989E+03   -0.18936E-02   -0.17449E-02  4609   0.320E-01
    728 T=   822. E= -.23203626E+03 F= -.23910672E+03 E0= -.23910672E+03  EK= 0.66913E+01 SP= 0.29E+00 SK= 0.91E-01 mag=     -0.000
       N       E                     dE             d eps       ncg     rms          rms(c)
DAV:   1    -0.239151148070E+03   -0.46323E-01   -0.70379E-02  6064   0.208E+00    0.912E-01
RMM:   2    -0.239157534434E+03   -0.63864E-02   -0.56132E-02  4799   0.511E-01    0.827E-01
RMM:   3    -0.239159335967E+03   -0.18015E-02   -0.15617E-02  4103   0.306E-01
    729 T=   808. E= -.23202080E+03 F= -.23915934E+03 E0= -.23915934E+03  EK= 0.65827E+01 SP= 0.46E+00 SK= 0.94E-01 mag=     -0.000
       N       E                     dE             d eps       ncg     rms          rms(c)
DAV:   1    -0.239202736690E+03   -0.45202E-01   -0.58203E-02  6000   0.210E+00    0.188E+00
RMM:   2    -0.239207479169E+03   -0.47425E-02   -0.47979E-02  4703   0.483E-01    0.870E-01
RMM:   3    -0.239207360477E+03    0.11869E-03   -0.16057E-02  3844   0.383E-01
    730 T=   794. E= -.23200854E+03 F= -.23920736E+03 E0= -.23920736E+03  EK= 0.64676E+01 SP= 0.64E+00 SK= 0.95E-01 mag=     -0.000
       N       E                     dE             d eps       ncg     rms          rms(c)
DAV:   1    -0.239245131858E+03   -0.37653E-01   -0.70475E-02  6048   0.218E+00    0.547E-01
RMM:   2    -0.239252088589E+03   -0.69567E-02   -0.63943E-02  4672   0.564E-01    0.432E-01
RMM:   3    -0.239254301995E+03   -0.22134E-02   -0.18031E-02  4551   0.311E-01
    731 T=   780. E= -.23200395E+03 F= -.23925430E+03 E0= -.23925430E+03  EK= 0.63481E+01 SP= 0.81E+00 SK= 0.92E-01 mag=     -0.000
       N       E                     dE             d eps       ncg     rms          rms(c)
DAV:   1    -0.239290391956E+03   -0.38303E-01   -0.57602E-02  6048   0.210E+00    0.133E+00
RMM:   2    -0.239292690107E+03   -0.22982E-02   -0.52273E-02  4683   0.512E-01    0.994E-01
RMM:   3    -0.239292736547E+03   -0.46439E-04   -0.21693E-02  4465   0.367E-01
    732 T=   766. E= -.23199037E+03 F= -.23929274E+03 E0= -.23929274E+03  EK= 0.62361E+01 SP= 0.98E+00 SK= 0.86E-01 mag=     -0.000
       N       E                     dE             d eps       ncg     rms          rms(c)
DAV:   1    -0.239332236296E+03   -0.39546E-01   -0.59778E-02  6048   0.208E+00    0.224E+00
RMM:   2    -0.239329453360E+03    0.27829E-02   -0.57922E-02  4442   0.547E-01    0.102E+00
RMM:   3    -0.239327797567E+03    0.16558E-02   -0.27687E-02  4323   0.410E-01
    733 T=   752. E= -.23197988E+03 F= -.23932780E+03 E0= -.23932780E+03  EK= 0.61270E+01 SP= 0.11E+01 SK= 0.78E-01 mag=      0.000
       N       E                     dE             d eps       ncg     rms          rms(c)
DAV:   1    -0.239357118143E+03   -0.27665E-01   -0.11140E-01  6040   0.223E+00    0.629E-01
RMM:   2    -0.239360252948E+03   -0.31348E-02   -0.81602E-02  4569   0.686E-01    0.462E-01
RMM:   3    -0.239361746168E+03   -0.14932E-02   -0.25483E-02  4721   0.357E-01
    734 T=   739. E= -.23197648E+03 F= -.23936175E+03 E0= -.23936175E+03  EK= 0.60213E+01 SP= 0.13E+01 SK= 0.67E-01 mag=      0.000
       N       E                     dE             d eps       ncg     rms          rms(c)
DAV:   1    -0.239383549686E+03   -0.23297E-01   -0.10448E-01  6152   0.211E+00    0.138E+00
RMM:   2    -0.239387369509E+03   -0.38198E-02   -0.65665E-02  4819   0.574E-01    0.112E+00
RMM:   3    -0.239387903010E+03   -0.53350E-03   -0.21929E-02  4352   0.348E-01
    735 T=   728. E= -.23196456E+03 F= -.23938790E+03 E0= -.23938790E+03  EK= 0.59298E+01 SP= 0.14E+01 SK= 0.56E-01 mag=      0.000
       N       E                     dE             d eps       ncg     rms          rms(c)
DAV:   1    -0.239415272595E+03   -0.27903E-01   -0.64924E-02  5816   0.208E+00    0.254E+00
RMM:   2    -0.239412300401E+03    0.29722E-02   -0.59640E-02  4452   0.517E-01    0.119E+00
RMM:   3    -0.239410809752E+03    0.14906E-02   -0.35702E-02  4330   0.466E-01    0.497E-01
RMM:   4    -0.239413370366E+03   -0.25606E-02   -0.92062E-03  3670   0.232E-01
    736 T=   718. E= -.23195876E+03 F= -.23941337E+03 E0= -.23941337E+03  EK= 0.58465E+01 SP= 0.16E+01 SK= 0.44E-01 mag=      0.000
       N       E                     dE             d eps       ncg     rms          rms(c)
DAV:   1    -0.239430064504E+03   -0.19255E-01   -0.50232E-02  5872   0.215E+00    0.603E-01
RMM:   2    -0.239433659721E+03   -0.35952E-02   -0.46867E-02  4255   0.453E-01    0.505E-01
RMM:   3    -0.239435820913E+03   -0.21612E-02   -0.14192E-02  4451   0.297E-01
    737 T=   709. E= -.23195303E+03 F= -.23943582E+03 E0= -.23943582E+03  EK= 0.57763E+01 SP= 0.17E+01 SK= 0.32E-01 mag=      0.000
       N       E                     dE             d eps       ncg     rms          rms(c)
DAV:   1    -0.239449989598E+03   -0.16330E-01   -0.59669E-02  5992   0.194E+00    0.986E-01
RMM:   2    -0.239455194278E+03   -0.52047E-02   -0.45726E-02  4872   0.475E-01    0.834E-01
RMM:   3    -0.239456130787E+03   -0.93651E-03   -0.14463E-02  3860   0.325E-01
    738 T=   703. E= -.23194145E+03 F= -.23945613E+03 E0= -.23945613E+03  EK= 0.57269E+01 SP= 0.18E+01 SK= 0.21E-01 mag=     -0.000
       N       E                     dE             d eps       ncg     rms          rms(c)
DAV:   1    -0.239474885495E+03   -0.19691E-01   -0.44318E-02  5952   0.198E+00    0.192E+00
RMM:   2    -0.239477336707E+03   -0.24512E-02   -0.41940E-02  4799   0.445E-01    0.901E-01
RMM:   3    -0.239476087873E+03    0.12488E-02   -0.15247E-02  3714   0.380E-01
    739 T=   699. E= -.23193188E+03 F= -.23947609E+03 E0= -.23947609E+03  EK= 0.56927E+01 SP= 0.18E+01 SK= 0.12E-01 mag=     -0.000
       N       E                     dE             d eps       ncg     rms          rms(c)
DAV:   1    -0.239491664549E+03   -0.14328E-01   -0.80437E-02  5816   0.209E+00    0.529E-01
RMM:   2    -0.239497549779E+03   -0.58852E-02   -0.61004E-02  4473   0.583E-01    0.405E-01
RMM:   3    -0.239499658788E+03   -0.21090E-02   -0.19443E-02  4813   0.329E-01
    740 T=   697. E= -.23192799E+03 F= -.23949966E+03 E0= -.23949966E+03  EK= 0.56745E+01 SP= 0.19E+01 SK= 0.55E-02 mag=      0.000
       N       E                     dE             d eps       ncg     rms          rms(c)
DAV:   1    -0.239517657265E+03   -0.20107E-01   -0.52048E-02  5808   0.201E+00    0.139E+00
RMM:   2    -0.239520069064E+03   -0.24118E-02   -0.52804E-02  4460   0.515E-01    0.103E+00
RMM:   3    -0.239519900796E+03    0.16827E-03   -0.23736E-02  4540   0.390E-01
    741 T=   697. E= -.23191748E+03 F= -.23951990E+03 E0= -.23951990E+03  EK= 0.56778E+01 SP= 0.19E+01 SK= 0.14E-02 mag=      0.000
       N       E                     dE             d eps       ncg     rms          rms(c)
DAV:   1    -0.239548820263E+03   -0.28751E-01   -0.68525E-02  5824   0.203E+00    0.232E+00
RMM:   2    -0.239545921388E+03    0.28989E-02   -0.59583E-02  4466   0.539E-01    0.104E+00
RMM:   3    -0.239543702792E+03    0.22186E-02   -0.27106E-02  4208   0.413E-01
    742 T=   700. E= -.23190943E+03 F= -.23954370E+03 E0= -.23954370E+03  EK= 0.57002E+01 SP= 0.19E+01 SK= 0.22E-05 mag=     -0.000
       N       E                     dE             d eps       ncg     rms          rms(c)
DAV:   1    -0.239567382134E+03   -0.21461E-01   -0.12054E-01  5880   0.220E+00    0.719E-01
RMM:   2    -0.239570831056E+03   -0.34489E-02   -0.80355E-02  4485   0.656E-01    0.470E-01
RMM:   3    -0.239572502860E+03   -0.16718E-02   -0.26202E-02  4867   0.368E-01
    743 T=   705. E= -.23190627E+03 F= -.23957250E+03 E0= -.23957250E+03  EK= 0.57402E+01 SP= 0.19E+01 SK= 0.11E-02 mag=     -0.000
       N       E                     dE             d eps       ncg     rms          rms(c)
DAV:   1    -0.239595781955E+03   -0.24951E-01   -0.10078E-01  5872   0.211E+00    0.140E+00
RMM:   2    -0.239599576200E+03   -0.37942E-02   -0.69215E-02  4683   0.575E-01    0.112E+00
RMM:   3    -0.239600581537E+03   -0.10053E-02   -0.23906E-02  4476   0.356E-01
    744 T=   713. E= -.23189719E+03 F= -.23960058E+03 E0= -.23960058E+03  EK= 0.58025E+01 SP= 0.19E+01 SK= 0.43E-02 mag=     -0.000
       N       E                     dE             d eps       ncg     rms          rms(c)
DAV:   1    -0.239638063026E+03   -0.38487E-01   -0.54386E-02  5696   0.207E+00    0.247E+00
RMM:   2    -0.239634268407E+03    0.37946E-02   -0.59993E-02  4378   0.539E-01    0.118E+00
RMM:   3    -0.239632946469E+03    0.13219E-02   -0.34728E-02  4439   0.436E-01    0.521E-01
RMM:   4    -0.239634831049E+03   -0.18846E-02   -0.75686E-03  3351   0.219E-01
    745 T=   722. E= -.23189282E+03 F= -.23963483E+03 E0= -.23963483E+03  EK= 0.58824E+01 SP= 0.19E+01 SK= 0.90E-02 mag=     -0.000
       N       E                     dE             d eps       ncg     rms          rms(c)
DAV:   1    -0.239668592302E+03   -0.35646E-01   -0.53508E-02  5936   0.215E+00    0.621E-01
RMM:   2    -0.239672201292E+03   -0.36090E-02   -0.49957E-02  4270   0.470E-01    0.497E-01
RMM:   3    -0.239674136941E+03   -0.19356E-02   -0.14323E-02  4512   0.289E-01
    746 T=   734. E= -.23188925E+03 F= -.23967414E+03 E0= -.23967414E+03  EK= 0.59813E+01 SP= 0.18E+01 SK= 0.14E-01 mag=      0.000
       N       E                     dE             d eps       ncg     rms          rms(c)
DAV:   1    -0.239712840480E+03   -0.40639E-01   -0.54405E-02  5984   0.199E+00    0.105E+00
RMM:   2    -0.239717607769E+03   -0.47673E-02   -0.46825E-02  4822   0.478E-01    0.853E-01
RMM:   3    -0.239717998388E+03   -0.39062E-03   -0.15388E-02  3834   0.348E-01
    747 T=   750. E= -.23187981E+03 F= -.23971800E+03 E0= -.23971800E+03  EK= 0.61039E+01 SP= 0.17E+01 SK= 0.20E-01 mag=     -0.000
       N       E                     dE             d eps       ncg     rms          rms(c)
DAV:   1    -0.239767703370E+03   -0.50096E-01   -0.64513E-02  5984   0.206E+00    0.194E+00
RMM:   2    -0.239770239931E+03   -0.25366E-02   -0.50771E-02  4804   0.484E-01    0.851E-01
RMM:   3    -0.239768853822E+03    0.13861E-02   -0.17592E-02  3887   0.406E-01
    748 T=   767. E= -.23187112E+03 F= -.23976885E+03 E0= -.23976885E+03  EK= 0.62439E+01 SP= 0.16E+01 SK= 0.24E-01 mag=     -0.000
       N       E                     dE             d eps       ncg     rms          rms(c)
DAV:   1    -0.239818454106E+03   -0.48214E-01   -0.95393E-02  5656   0.220E+00    0.636E-01
RMM:   2    -0.239826335785E+03   -0.78817E-02   -0.74257E-02  4567   0.591E-01    0.425E-01
RMM:   3    -0.239828951907E+03   -0.26161E-02   -0.21699E-02  4655   0.345E-01
    749 T=   785. E= -.23186748E+03 F= -.23982895E+03 E0= -.23982895E+03  EK= 0.63964E+01 SP= 0.15E+01 SK= 0.27E-01 mag=      0.000
       N       E                     dE             d eps       ncg     rms          rms(c)
DAV:   1    -0.239884188191E+03   -0.57852E-01   -0.79810E-02  5856   0.212E+00    0.129E+00
RMM:   2    -0.239887710285E+03   -0.35221E-02   -0.65406E-02  4547   0.534E-01    0.102E+00
RMM:   3    -0.239888763278E+03   -0.10530E-02   -0.24423E-02  4635   0.372E-01
    750 T=   805. E= -.23185845E+03 F= -.23988876E+03 E0= -.23988876E+03  EK= 0.65592E+01 SP= 0.14E+01 SK= 0.27E-01 mag=      0.000
       N       E                     dE             d eps       ncg     rms          rms(c)
DAV:   1    -0.239952341700E+03   -0.64631E-01   -0.64839E-02  5856   0.215E+00    0.219E+00
RMM:   2    -0.239951155207E+03    0.11865E-02   -0.62786E-02  4320   0.541E-01    0.971E-01
RMM:   3    -0.239949712392E+03    0.14428E-02   -0.26335E-02  4234   0.415E-01
    751 T=   826. E= -.23184975E+03 F= -.23994971E+03 E0= -.23994971E+03  EK= 0.67239E+01 SP= 0.14E+01 SK= 0.26E-01 mag=      0.000
       N       E                     dE             d eps       ncg     rms          rms(c)
DAV:   1    -0.239999284218E+03   -0.48129E-01   -0.12787E-01  5896   0.228E+00    0.787E-01
RMM:   2    -0.240005418014E+03   -0.61338E-02   -0.89097E-02  4577   0.686E-01    0.434E-01
RMM:   3    -0.240007468939E+03   -0.20509E-02   -0.26850E-02  4811   0.371E-01
    752 T=   845. E= -.23184506E+03 F= -.24000747E+03 E0= -.24000747E+03  EK= 0.68784E+01 SP= 0.13E+01 SK= 0.22E-01 mag=     -0.000
       N       E                     dE             d eps       ncg     rms          rms(c)
DAV:   1    -0.240043530038E+03   -0.38112E-01   -0.10191E-01  6008   0.221E+00    0.124E+00
RMM:   2    -0.240047987469E+03   -0.44574E-02   -0.76217E-02  4652   0.610E-01    0.103E+00
RMM:   3    -0.240049536188E+03   -0.15487E-02   -0.24673E-02  4496   0.339E-01
    753 T=   861. E= -.23183610E+03 F= -.24004954E+03 E0= -.24004954E+03  EK= 0.70138E+01 SP= 0.12E+01 SK= 0.17E-01 mag=     -0.000
       N       E                     dE             d eps       ncg     rms          rms(c)
DAV:   1    -0.240072914969E+03   -0.24927E-01   -0.64321E-02  5872   0.217E+00    0.220E+00
RMM:   2    -0.240072025597E+03    0.88937E-03   -0.66914E-02  4386   0.561E-01    0.988E-01
RMM:   3    -0.240071846739E+03    0.17886E-03   -0.30351E-02  4675   0.402E-01
    754 T=   874. E= -.23182654E+03 F= -.24007185E+03 E0= -.24007185E+03  EK= 0.71181E+01 SP= 0.11E+01 SK= 0.11E-01 mag=     -0.000
       N       E                     dE             d eps       ncg     rms          rms(c)
DAV:   1    -0.240063720428E+03    0.83052E-02   -0.90587E-02  5968   0.230E+00    0.765E-01
RMM:   2    -0.240069151226E+03   -0.54308E-02   -0.81759E-02  4385   0.673E-01    0.444E-01
RMM:   3    -0.240070870489E+03   -0.17193E-02   -0.22120E-02  4789   0.339E-01
    755 T=   882. E= -.23181977E+03 F= -.24007087E+03 E0= -.24007087E+03  EK= 0.71809E+01 SP= 0.11E+01 SK= 0.60E-02 mag=     -0.000
       N       E                     dE             d eps       ncg     rms          rms(c)
DAV:   1    -0.240030431025E+03    0.38720E-01   -0.85536E-02  6104   0.223E+00    0.104E+00
RMM:   2    -0.240035646278E+03   -0.52153E-02   -0.70993E-02  4496   0.626E-01    0.924E-01
RMM:   3    -0.240037347216E+03   -0.17009E-02   -0.20636E-02  4630   0.310E-01
    756 T=   884. E= -.23180872E+03 F= -.24003735E+03 E0= -.24003735E+03  EK= 0.71977E+01 SP= 0.10E+01 SK= 0.23E-02 mag=      0.000
       N       E                     dE             d eps       ncg     rms          rms(c)
DAV:   1    -0.239970778304E+03    0.64868E-01   -0.52045E-02  5824   0.213E+00    0.176E+00
RMM:   2    -0.239971950077E+03   -0.11718E-02   -0.53039E-02  4355   0.526E-01    0.776E-01
RMM:   3    -0.239972605983E+03   -0.65591E-03   -0.21878E-02  4790   0.332E-01
    757 T=   880. E= -.23179867E+03 F= -.23997261E+03 E0= -.23997261E+03  EK= 0.71637E+01 SP= 0.10E+01 SK= 0.36E-03 mag=      0.000
       N       E                     dE             d eps       ncg     rms          rms(c)
DAV:   1    -0.239871289541E+03    0.10066E+00   -0.51063E-02  6032   0.220E+00    0.675E-01
RMM:   2    -0.239876804312E+03   -0.55148E-02   -0.65406E-02  4209   0.610E-01    0.337E-01
RMM:   3    -0.239878322702E+03   -0.15184E-02   -0.16740E-02  4626   0.289E-01
    758 T=   870. E= -.23178943E+03 F= -.23987832E+03 E0= -.23987832E+03  EK= 0.70817E+01 SP= 0.10E+01 SK= 0.57E-04 mag=      0.000
       N       E                     dE             d eps       ncg     rms          rms(c)
DAV:   1    -0.239749769217E+03    0.12704E+00   -0.81751E-02  6024   0.213E+00    0.597E-01
RMM:   2    -0.239755145345E+03   -0.53761E-02   -0.59976E-02  4344   0.593E-01    0.610E-01
RMM:   3    -0.239756709182E+03   -0.15638E-02   -0.16542E-02  4695   0.271E-01
    759 T=   855. E= -.23177803E+03 F= -.23975671E+03 E0= -.23975671E+03  EK= 0.69594E+01 SP= 0.10E+01 SK= 0.87E-03 mag=      0.000
       N       E                     dE             d eps       ncg     rms          rms(c)
DAV:   1    -0.239611040689E+03    0.14410E+00   -0.56594E-02  5936   0.207E+00    0.110E+00
RMM:   2    -0.239614303576E+03   -0.32629E-02   -0.45754E-02  4505   0.488E-01    0.888E-01
RMM:   3    -0.239614788903E+03   -0.48533E-03   -0.20437E-02  4634   0.312E-01
    760 T=   836. E= -.23176623E+03 F= -.23961479E+03 E0= -.23961479E+03  EK= 0.68058E+01 SP= 0.10E+01 SK= 0.21E-02 mag=      0.000
       N       E                     dE             d eps       ncg     rms          rms(c)
DAV:   1    -0.239459019864E+03    0.15528E+00   -0.68882E-02  5920   0.212E+00    0.269E+00
RMM:   2    -0.239461884358E+03   -0.28645E-02   -0.61377E-02  4299   0.541E-01    0.125E+00
RMM:   3    -0.239461691941E+03    0.19242E-03   -0.22040E-02  4489   0.405E-01
    761 T=   815. E= -.23175133E+03 F= -.23946169E+03 E0= -.23946169E+03  EK= 0.66373E+01 SP= 0.11E+01 SK= 0.30E-02 mag=      0.000
       N       E                     dE             d eps       ncg     rms          rms(c)
DAV:   1    -0.239303393565E+03    0.15849E+00   -0.97884E-02  5872   0.220E+00    0.463E-01
RMM:   2    -0.239308046655E+03   -0.46531E-02   -0.74913E-02  4481   0.674E-01    0.495E-01
RMM:   3    -0.239310248426E+03   -0.22018E-02   -0.24530E-02  4886   0.348E-01
    762 T=   794. E= -.23173895E+03 F= -.23931025E+03 E0= -.23931025E+03  EK= 0.64656E+01 SP= 0.11E+01 SK= 0.32E-02 mag=     -0.000
       N       E                     dE             d eps       ncg     rms          rms(c)
DAV:   1    -0.239158480299E+03    0.14957E+00   -0.86372E-02  6000   0.211E+00    0.188E+00
RMM:   2    -0.239163576349E+03   -0.50960E-02   -0.56469E-02  4782   0.571E-01    0.140E+00
RMM:   3    -0.239160929995E+03    0.26464E-02   -0.24910E-02  4037   0.488E-01
    763 T=   774. E= -.23172300E+03 F= -.23916093E+03 E0= -.23916093E+03  EK= 0.63016E+01 SP= 0.11E+01 SK= 0.25E-02 mag=      0.000
       N       E                     dE             d eps       ncg     rms          rms(c)
DAV:   1    -0.239032228456E+03    0.13135E+00   -0.94547E-02  5680   0.220E+00    0.315E+00
RMM:   2    -0.239034371760E+03   -0.21433E-02   -0.76295E-02  4628   0.606E-01    0.143E+00
RMM:   3    -0.239033312998E+03    0.10588E-02   -0.39858E-02  4358   0.564E-01    0.374E-01
RMM:   4    -0.239037068670E+03   -0.37557E-02   -0.12724E-02  4209   0.266E-01    0.166E-01
RMM:   5    -0.239036904442E+03    0.16423E-03   -0.14956E-03  2541   0.105E-01
    764 T=   756. E= -.23171882E+03 F= -.23903690E+03 E0= -.23903690E+03  EK= 0.61569E+01 SP= 0.12E+01 SK= 0.14E-02 mag=      0.000
       N       E                     dE             d eps       ncg     rms          rms(c)
DAV:   1    -0.238925607275E+03    0.11146E+00   -0.68047E-02  5720   0.207E+00    0.587E-01
RMM:   2    -0.238929519674E+03   -0.39124E-02   -0.45353E-02  4522   0.520E-01    0.463E-01
RMM:   3    -0.238931199803E+03   -0.16801E-02   -0.16109E-02  4445   0.319E-01
    765 T=   742. E= -.23171082E+03 F= -.23893120E+03 E0= -.23893120E+03  EK= 0.60431E+01 SP= 0.12E+01 SK= 0.40E-03 mag=     -0.000
       N       E                     dE             d eps       ncg     rms          rms(c)
DAV:   1    -0.238846681228E+03    0.82838E-01   -0.58832E-02  5968   0.192E+00    0.689E-01
RMM:   2    -0.238851562361E+03   -0.48811E-02   -0.46968E-02  4920   0.505E-01    0.663E-01
RMM:   3    -0.238852633278E+03   -0.10709E-02   -0.10958E-02  3622   0.232E-01
    766 T=   733. E= -.23169934E+03 F= -.23885263E+03 E0= -.23885263E+03  EK= 0.59709E+01 SP= 0.12E+01 SK= 0.46E-05 mag=     -0.000
       N       E                     dE             d eps       ncg     rms          rms(c)
DAV:   1    -0.238797981718E+03    0.53581E-01   -0.51081E-02  6032   0.193E+00    0.104E+00
RMM:   2    -0.238801829709E+03   -0.38480E-02   -0.35159E-02  4666   0.441E-01    0.480E-01
RMM:   3    -0.238802950256E+03   -0.11205E-02   -0.11174E-02  3772   0.229E-01
    767 T=   729. E= -.23168774E+03 F= -.23880295E+03 E0= -.23880295E+03  EK= 0.59400E+01 SP= 0.12E+01 SK= 0.70E-03 mag=      0.000
       N       E                     dE             d eps       ncg     rms          rms(c)
DAV:   1    -0.238775375580E+03    0.26454E-01   -0.35406E-02  5304   0.196E+00    0.544E-01
RMM:   2    -0.238780131947E+03   -0.47564E-02   -0.41870E-02  5003   0.462E-01    0.284E-01
RMM:   3    -0.238781327033E+03   -0.11951E-02   -0.10411E-02  3466   0.217E-01
    768 T=   731. E= -.23167679E+03 F= -.23878133E+03 E0= -.23878133E+03  EK= 0.59495E+01 SP= 0.12E+01 SK= 0.26E-02 mag=      0.000
       N       E                     dE             d eps       ncg     rms          rms(c)
DAV:   1    -0.238780203060E+03   -0.71113E-04   -0.50970E-02  5744   0.196E+00    0.257E-01
RMM:   2    -0.238784265914E+03   -0.40629E-02   -0.36242E-02  4750   0.436E-01    0.262E-01
RMM:   3    -0.238785276552E+03   -0.10106E-02   -0.98925E-03  3519   0.205E-01
    769 T=   737. E= -.23166516E+03 F= -.23878528E+03 E0= -.23878528E+03  EK= 0.59982E+01 SP= 0.11E+01 SK= 0.56E-02 mag=      0.000
       N       E                     dE             d eps       ncg     rms          rms(c)
DAV:   1    -0.238805593519E+03   -0.21328E-01   -0.44499E-02  5768   0.193E+00    0.494E-01
RMM:   2    -0.238809605983E+03   -0.40125E-02   -0.36087E-02  4929   0.423E-01    0.450E-01
RMM:   3    -0.238810527696E+03   -0.92171E-03   -0.95660E-03  3296   0.199E-01
    770 T=   747. E= -.23165324E+03 F= -.23881053E+03 E0= -.23881053E+03  EK= 0.60807E+01 SP= 0.11E+01 SK= 0.91E-02 mag=     -0.000
       N       E                     dE             d eps       ncg     rms          rms(c)
DAV:   1    -0.238847439086E+03   -0.37833E-01   -0.36401E-02  5368   0.197E+00    0.115E+00
RMM:   2    -0.238851455723E+03   -0.40166E-02   -0.33829E-02  4949   0.419E-01    0.530E-01
RMM:   3    -0.238852204021E+03   -0.74830E-03   -0.98450E-03  3210   0.231E-01
    771 T=   760. E= -.23164278E+03 F= -.23885220E+03 E0= -.23885220E+03  EK= 0.61889E+01 SP= 0.10E+01 SK= 0.13E-01 mag=     -0.000
       N       E                     dE             d eps       ncg     rms          rms(c)
DAV:   1    -0.238899036884E+03   -0.47581E-01   -0.44289E-02  5808   0.200E+00    0.279E-01
RMM:   2    -0.238903677691E+03   -0.46408E-02   -0.38438E-02  4884   0.450E-01    0.226E-01
RMM:   3    -0.238904819986E+03   -0.11423E-02   -0.99346E-03  3495   0.215E-01
    772 T=   776. E= -.23163236E+03 F= -.23890482E+03 E0= -.23890482E+03  EK= 0.63168E+01 SP= 0.94E+00 SK= 0.15E-01 mag=     -0.000
       N       E                     dE             d eps       ncg     rms          rms(c)
DAV:   1    -0.238958394622E+03   -0.54717E-01   -0.45718E-02  5648   0.202E+00    0.623E-01
RMM:   2    -0.238962529792E+03   -0.41352E-02   -0.36547E-02  4893   0.448E-01    0.533E-01
RMM:   3    -0.238963320877E+03   -0.79108E-03   -0.10755E-02  3507   0.236E-01
    773 T=   793. E= -.23162142E+03 F= -.23896332E+03 E0= -.23896332E+03  EK= 0.64573E+01 SP= 0.87E+00 SK= 0.17E-01 mag=      0.000
       N       E                     dE             d eps       ncg     rms          rms(c)
DAV:   1    -0.239020103927E+03   -0.57574E-01   -0.46910E-02  5728   0.204E+00    0.139E+00
RMM:   2    -0.239023445881E+03   -0.33420E-02   -0.38898E-02  4851   0.448E-01    0.621E-01
RMM:   3    -0.239023841718E+03   -0.39584E-03   -0.12180E-02  3690   0.272E-01
    774 T=   811. E= -.23161036E+03 F= -.23902384E+03 E0= -.23902384E+03  EK= 0.66029E+01 SP= 0.79E+00 SK= 0.16E-01 mag=     -0.000
       N       E                     dE             d eps       ncg     rms          rms(c)
DAV:   1    -0.239078031466E+03   -0.54586E-01   -0.65311E-02  6016   0.212E+00    0.278E-01
RMM:   2    -0.239083063058E+03   -0.50316E-02   -0.47202E-02  4505   0.546E-01    0.294E-01
RMM:   3    -0.239084440397E+03   -0.13773E-02   -0.13389E-02  4271   0.265E-01
    775 T=   829. E= -.23159890E+03 F= -.23908444E+03 E0= -.23908444E+03  EK= 0.67484E+01 SP= 0.72E+00 SK= 0.15E-01 mag=     -0.000
       N       E                     dE             d eps       ncg     rms          rms(c)
DAV:   1    -0.239136715534E+03   -0.53652E-01   -0.53947E-02  5920   0.209E+00    0.956E-01
RMM:   2    -0.239141274999E+03   -0.45595E-02   -0.45418E-02  4745   0.486E-01    0.763E-01
RMM:   3    -0.239141460502E+03   -0.18550E-03   -0.16688E-02  3929   0.325E-01
    776 T=   846. E= -.23158362E+03 F= -.23914146E+03 E0= -.23914146E+03  EK= 0.68896E+01 SP= 0.66E+00 SK= 0.12E-01 mag=     -0.000
       N       E                     dE             d eps       ncg     rms          rms(c)
DAV:   1    -0.239196005570E+03   -0.54731E-01   -0.66263E-02  5936   0.212E+00    0.191E+00
RMM:   2    -0.239197613456E+03   -0.16079E-02   -0.52868E-02  4492   0.525E-01    0.849E-01
RMM:   3    -0.239197456851E+03    0.15660E-03   -0.24000E-02  4408   0.400E-01
    777 T=   862. E= -.23156925E+03 F= -.23919746E+03 E0= -.23919746E+03  EK= 0.70204E+01 SP= 0.60E+00 SK= 0.79E-02 mag=      0.000
       N       E                     dE             d eps       ncg     rms          rms(c)
DAV:   1    -0.239246186324E+03   -0.48573E-01   -0.10650E-01  5920   0.227E+00    0.452E-01
RMM:   2    -0.239251136779E+03   -0.49505E-02   -0.72202E-02  4563   0.666E-01    0.368E-01
RMM:   3    -0.239253083290E+03   -0.19465E-02   -0.23150E-02  4702   0.353E-01
    778 T=   876. E= -.23155704E+03 F= -.23925308E+03 E0= -.23925308E+03  EK= 0.71362E+01 SP= 0.56E+00 SK= 0.42E-02 mag=     -0.000
       N       E                     dE             d eps       ncg     rms          rms(c)
DAV:   1    -0.239297623295E+03   -0.46487E-01   -0.10398E-01  6008   0.220E+00    0.112E+00
RMM:   2    -0.239303983121E+03   -0.63598E-02   -0.62177E-02  4770   0.584E-01    0.965E-01
RMM:   3    -0.239304580460E+03   -0.59734E-03   -0.22599E-02  4345   0.383E-01
    779 T=   889. E= -.23153987E+03 F= -.23930458E+03 E0= -.23930458E+03  EK= 0.72367E+01 SP= 0.53E+00 SK= 0.12E-02 mag=      0.000
       N       E                     dE             d eps       ncg     rms          rms(c)
DAV:   1    -0.239352825126E+03   -0.48842E-01   -0.83130E-02  5736   0.225E+00    0.242E+00
RMM:   2    -0.239356237251E+03   -0.34121E-02   -0.67555E-02  4548   0.533E-01    0.105E+00
RMM:   3    -0.239355381510E+03    0.85574E-03   -0.33944E-02  4186   0.526E-01    0.371E-01
RMM:   4    -0.239359029780E+03   -0.36483E-02   -0.10443E-02  3934   0.255E-01    0.949E-02
RMM:   5    -0.239358952849E+03    0.76931E-04   -0.12864E-03  2531   0.104E-01
    780 T=   898. E= -.23153113E+03 F= -.23935895E+03 E0= -.23935895E+03  EK= 0.73121E+01 SP= 0.52E+00 SK= 0.47E-05 mag=      0.000
       N       E                     dE             d eps       ncg     rms          rms(c)
DAV:   1    -0.239404410080E+03   -0.45380E-01   -0.77969E-02  5992   0.220E+00    0.506E-01
RMM:   2    -0.239410243708E+03   -0.58336E-02   -0.48690E-02  4483   0.490E-01    0.443E-01
RMM:   3    -0.239412491843E+03   -0.22481E-02   -0.16112E-02  4654   0.295E-01
    781 T=   904. E= -.23152277E+03 F= -.23941249E+03 E0= -.23941249E+03  EK= 0.73643E+01 SP= 0.52E+00 SK= 0.11E-02 mag=     -0.000
       N       E                     dE             d eps       ncg     rms          rms(c)
DAV:   1    -0.239459116548E+03   -0.48873E-01   -0.74957E-02  6208   0.214E+00    0.114E+00
RMM:   2    -0.239464405612E+03   -0.52891E-02   -0.47607E-02  4983   0.485E-01    0.912E-01
RMM:   3    -0.239464212021E+03    0.19359E-03   -0.15092E-02  3772   0.319E-01
    782 T=   909. E= -.23150630E+03 F= -.23946421E+03 E0= -.23946421E+03  EK= 0.73989E+01 SP= 0.55E+00 SK= 0.51E-02 mag=     -0.000
       N       E                     dE             d eps       ncg     rms          rms(c)
DAV:   1    -0.239513116135E+03   -0.48711E-01   -0.61501E-02  6080   0.216E+00    0.210E+00
RMM:   2    -0.239516289267E+03   -0.31731E-02   -0.50136E-02  4501   0.525E-01    0.987E-01
RMM:   3    -0.239515828511E+03    0.46076E-03   -0.20598E-02  4147   0.415E-01
    783 T=   910. E= -.23149166E+03 F= -.23951583E+03 E0= -.23951583E+03  EK= 0.74068E+01 SP= 0.61E+00 SK= 0.12E-01 mag=     -0.000
       N       E                     dE             d eps       ncg     rms          rms(c)
DAV:   1    -0.239556952311E+03   -0.40663E-01   -0.94814E-02  5952   0.232E+00    0.414E-01
RMM:   2    -0.239563913131E+03   -0.69608E-02   -0.70196E-02  4693   0.671E-01    0.440E-01
RMM:   3    -0.239566442649E+03   -0.25295E-02   -0.22936E-02  4716   0.354E-01
    784 T=   907. E= -.23148244E+03 F= -.23956644E+03 E0= -.23956644E+03  EK= 0.73834E+01 SP= 0.68E+00 SK= 0.22E-01 mag=     -0.000
       N       E                     dE             d eps       ncg     rms          rms(c)
DAV:   1    -0.239601430993E+03   -0.37518E-01   -0.83391E-02  5984   0.220E+00    0.161E+00
RMM:   2    -0.239606207113E+03   -0.47761E-02   -0.56883E-02  4917   0.539E-01    0.123E+00
RMM:   3    -0.239603294028E+03    0.29131E-02   -0.24934E-02  3903   0.483E-01
    785 T=   901. E= -.23146012E+03 F= -.23960329E+03 E0= -.23960329E+03  EK= 0.73355E+01 SP= 0.77E+00 SK= 0.34E-01 mag=     -0.000
       N       E                     dE             d eps       ncg     rms          rms(c)
DAV:   1    -0.239637058429E+03   -0.30851E-01   -0.97419E-02  5712   0.230E+00    0.292E+00
RMM:   2    -0.239637677006E+03   -0.61858E-03   -0.75958E-02  4637   0.604E-01    0.133E+00
RMM:   3    -0.239635392095E+03    0.22849E-02   -0.43340E-02  4211   0.591E-01    0.363E-01
RMM:   4    -0.239639715471E+03   -0.43234E-02   -0.13804E-02  4323   0.280E-01    0.151E-01
RMM:   5    -0.239639527800E+03    0.18767E-03   -0.14163E-03  2531   0.104E-01
    786 T=   891. E= -.23144929E+03 F= -.23963953E+03 E0= -.23963953E+03  EK= 0.72538E+01 SP= 0.89E+00 SK= 0.48E-01 mag=     -0.000
       N       E                     dE             d eps       ncg     rms          rms(c)
DAV:   1    -0.239655161472E+03   -0.15446E-01   -0.77306E-02  5864   0.223E+00    0.519E-01
RMM:   2    -0.239660219077E+03   -0.50576E-02   -0.50100E-02  4476   0.540E-01    0.475E-01
RMM:   3    -0.239662256248E+03   -0.20372E-02   -0.16924E-02  4530   0.317E-01
    787 T=   876. E= -.23144135E+03 F= -.23966226E+03 E0= -.23966226E+03  EK= 0.71373E+01 SP= 0.10E+01 SK= 0.62E-01 mag=     -0.000
       N       E                     dE             d eps       ncg     rms          rms(c)
DAV:   1    -0.239668992891E+03   -0.87738E-02   -0.67051E-02  6040   0.208E+00    0.131E+00
RMM:   2    -0.239672813982E+03   -0.38211E-02   -0.49544E-02  4976   0.497E-01    0.103E+00
RMM:   3    -0.239672194982E+03    0.61900E-03   -0.17335E-02  4032   0.322E-01
    788 T=   860. E= -.23142544E+03 F= -.23967219E+03 E0= -.23967219E+03  EK= 0.70020E+01 SP= 0.12E+01 SK= 0.74E-01 mag=     -0.000
       N       E                     dE             d eps       ncg     rms          rms(c)
DAV:   1    -0.239673193069E+03   -0.37909E-03   -0.51403E-02  5960   0.209E+00    0.213E+00
RMM:   2    -0.239673873520E+03   -0.68045E-03   -0.52293E-02  4418   0.502E-01    0.103E+00
RMM:   3    -0.239672436138E+03    0.14374E-02   -0.25688E-02  4069   0.448E-01
    789 T=   840. E= -.23141268E+03 F= -.23967244E+03 E0= -.23967244E+03  EK= 0.68443E+01 SP= 0.13E+01 SK= 0.84E-01 mag=      0.000
       N       E                     dE             d eps       ncg     rms          rms(c)
DAV:   1    -0.239657977551E+03    0.15896E-01   -0.12278E-01  5792   0.228E+00    0.555E-01
RMM:   2    -0.239663929339E+03   -0.59518E-02   -0.78534E-02  4549   0.669E-01    0.419E-01
RMM:   3    -0.239666671464E+03   -0.27421E-02   -0.28150E-02  4974   0.393E-01
    790 T=   819. E= -.23140644E+03 F= -.23966667E+03 E0= -.23966667E+03  EK= 0.66698E+01 SP= 0.15E+01 SK= 0.91E-01 mag=      0.000
       N       E                     dE             d eps       ncg     rms          rms(c)
DAV:   1    -0.239644500874E+03    0.19428E-01   -0.97227E-02  5816   0.212E+00    0.148E+00
RMM:   2    -0.239649482230E+03   -0.49814E-02   -0.62557E-02  4775   0.565E-01    0.120E+00
RMM:   3    -0.239648264112E+03    0.12181E-02   -0.25414E-02  4123   0.463E-01
    791 T=   798. E= -.23138637E+03 F= -.23964826E+03 E0= -.23964826E+03  EK= 0.64971E+01 SP= 0.17E+01 SK= 0.92E-01 mag=      0.000
       N       E                     dE             d eps       ncg     rms          rms(c)
DAV:   1    -0.239632418663E+03    0.17064E-01   -0.81896E-02  5664   0.212E+00    0.283E+00
RMM:   2    -0.239632249684E+03    0.16898E-03   -0.77144E-02  4702   0.570E-01    0.121E+00
RMM:   3    -0.239629821216E+03    0.24285E-02   -0.38815E-02  4119   0.543E-01    0.404E-01
RMM:   4    -0.239633601445E+03   -0.37802E-02   -0.12663E-02  4091   0.268E-01    0.145E-01
RMM:   5    -0.239633455274E+03    0.14617E-03   -0.12124E-03  2547   0.973E-02
    792 T=   776. E= -.23137665E+03 F= -.23963346E+03 E0= -.23963346E+03  EK= 0.63226E+01 SP= 0.18E+01 SK= 0.90E-01 mag=     -0.000
       N       E                     dE             d eps       ncg     rms          rms(c)
DAV:   1    -0.239609733650E+03    0.23868E-01   -0.80738E-02  6064   0.208E+00    0.568E-01
RMM:   2    -0.239613606957E+03   -0.38733E-02   -0.48471E-02  4500   0.500E-01    0.481E-01
RMM:   3    -0.239615272281E+03   -0.16653E-02   -0.16016E-02  4461   0.297E-01
    793 T=   755. E= -.23137124E+03 F= -.23961527E+03 E0= -.23961527E+03  EK= 0.61496E+01 SP= 0.20E+01 SK= 0.83E-01 mag=      0.000
       N       E                     dE             d eps       ncg     rms          rms(c)
DAV:   1    -0.239595487207E+03    0.18120E-01   -0.56690E-02  6232   0.189E+00    0.104E+00
RMM:   2    -0.239598965546E+03   -0.34783E-02   -0.49423E-02  4918   0.469E-01    0.865E-01
RMM:   3    -0.239599228958E+03   -0.26341E-03   -0.11873E-02  3518   0.236E-01
    794 T=   736. E= -.23136174E+03 F= -.23959923E+03 E0= -.23959923E+03  EK= 0.59953E+01 SP= 0.22E+01 SK= 0.72E-01 mag=     -0.000
       N       E                     dE             d eps       ncg     rms          rms(c)
DAV:   1    -0.239588967804E+03    0.99977E-02   -0.53418E-02  6056   0.186E+00    0.176E+00
RMM:   2    -0.239588397555E+03    0.57025E-03   -0.39024E-02  4457   0.433E-01    0.874E-01
RMM:   3    -0.239587647039E+03    0.75052E-03   -0.17841E-02  4306   0.306E-01
    795 T=   720. E= -.23135356E+03 F= -.23958765E+03 E0= -.23958765E+03  EK= 0.58594E+01 SP= 0.23E+01 SK= 0.59E-01 mag=      0.000
       N       E                     dE             d eps       ncg     rms          rms(c)
DAV:   1    -0.239577256437E+03    0.11141E-01   -0.48054E-02  6136   0.198E+00    0.466E-01
RMM:   2    -0.239581034279E+03   -0.37778E-02   -0.52534E-02  4532   0.563E-01    0.403E-01
RMM:   3    -0.239582260839E+03   -0.12266E-02   -0.14343E-02  4253   0.276E-01
    796 T=   705. E= -.23134897E+03 F= -.23958226E+03 E0= -.23958226E+03  EK= 0.57433E+01 SP= 0.24E+01 SK= 0.45E-01 mag=      0.000
       N       E                     dE             d eps       ncg     rms          rms(c)
DAV:   1    -0.239575771407E+03    0.52629E-02   -0.56585E-02  6072   0.198E+00    0.112E+00
RMM:   2    -0.239578604543E+03   -0.28331E-02   -0.49090E-02  4662   0.484E-01    0.878E-01
RMM:   3    -0.239578988221E+03   -0.38368E-03   -0.15628E-02  3990   0.291E-01
    797 T=   694. E= -.23134048E+03 F= -.23957899E+03 E0= -.23957899E+03  EK= 0.56519E+01 SP= 0.26E+01 SK= 0.31E-01 mag=      0.000
       N       E                     dE             d eps       ncg     rms          rms(c)
DAV:   1    -0.239581272542E+03   -0.26680E-02   -0.41507E-02  5952   0.188E+00    0.191E+00
RMM:   2    -0.239578900075E+03    0.23725E-02   -0.42605E-02  4371   0.476E-01    0.916E-01
RMM:   3    -0.239577617787E+03    0.12823E-02   -0.23286E-02  4188   0.374E-01
    798 T=   685. E= -.23133436E+03 F= -.23957762E+03 E0= -.23957762E+03  EK= 0.55798E+01 SP= 0.26E+01 SK= 0.19E-01 mag=      0.000
       N       E                     dE             d eps       ncg     rms          rms(c)
DAV:   1    -0.239574494710E+03    0.44054E-02   -0.10043E-01  6112   0.201E+00    0.590E-01
RMM:   2    -0.239577096643E+03   -0.26019E-02   -0.67636E-02  4436   0.635E-01    0.394E-01
RMM:   3    -0.239578419788E+03   -0.13231E-02   -0.22106E-02  4755   0.338E-01
    799 T=   679. E= -.23133275E+03 F= -.23957842E+03 E0= -.23957842E+03  EK= 0.55259E+01 SP= 0.27E+01 SK= 0.90E-02 mag=      0.000
       N       E                     dE             d eps       ncg     rms          rms(c)
DAV:   1    -0.239567333071E+03    0.97636E-02   -0.75787E-02  6104   0.193E+00    0.117E+00
RMM:   2    -0.239571248187E+03   -0.39151E-02   -0.58178E-02  4712   0.545E-01    0.982E-01
RMM:   3    -0.239572039030E+03   -0.79084E-03   -0.17282E-02  3989   0.297E-01
    800 T=   674. E= -.23132584E+03 F= -.23957204E+03 E0= -.23957204E+03  EK= 0.54912E+01 SP= 0.28E+01 SK= 0.26E-02 mag=      0.000
       N       E                     dE             d eps       ncg     rms          rms(c)
DAV:   1    -0.239558489127E+03    0.12759E-01   -0.43829E-02  5768   0.188E+00    0.223E+00
RMM:   2    -0.239556768686E+03    0.17204E-02   -0.49422E-02  4377   0.475E-01    0.106E+00
RMM:   3    -0.239556141207E+03    0.62748E-03   -0.28874E-02  4392   0.406E-01
    801 T=   671. E= -.23132133E+03 F= -.23955614E+03 E0= -.23955614E+03  EK= 0.54661E+01 SP= 0.28E+01 SK= 0.35E-04 mag=     -0.000
       N       E                     dE             d eps       ncg     rms          rms(c)
DAV:   1    -0.239528651631E+03    0.28117E-01   -0.80768E-02  5976   0.204E+00    0.613E-01
RMM:   2    -0.239531083878E+03   -0.24322E-02   -0.66447E-02  4335   0.620E-01    0.462E-01
RMM:   3    -0.239532373099E+03   -0.12892E-02   -0.19617E-02  4702   0.327E-01
    802 T=   669. E= -.23132267E+03 F= -.23953237E+03 E0= -.23953237E+03  EK= 0.54490E+01 SP= 0.28E+01 SK= 0.16E-02 mag=     -0.000
       N       E                     dE             d eps       ncg     rms          rms(c)
DAV:   1    -0.239485474090E+03    0.45610E-01   -0.66684E-02  6040   0.194E+00    0.133E+00
RMM:   2    -0.239489279984E+03   -0.38059E-02   -0.59139E-02  4648   0.546E-01    0.112E+00
RMM:   3    -0.239489779754E+03   -0.49977E-03   -0.17626E-02  4086   0.310E-01
    803 T=   668. E= -.23131662E+03 F= -.23948978E+03 E0= -.23948978E+03  EK= 0.54424E+01 SP= 0.27E+01 SK= 0.75E-02 mag=      0.000
       N       E                     dE             d eps       ncg     rms          rms(c)
DAV:   1    -0.239434737719E+03    0.54542E-01   -0.51283E-02  5632   0.191E+00    0.260E+00
RMM:   2    -0.239431594278E+03    0.31434E-02   -0.51284E-02  4335   0.491E-01    0.126E+00
RMM:   3    -0.239430196097E+03    0.13982E-02   -0.31772E-02  4346   0.422E-01
    804 T=   668. E= -.23131349E+03 F= -.23943020E+03 E0= -.23943020E+03  EK= 0.54380E+01 SP= 0.27E+01 SK= 0.18E-01 mag=      0.000
       N       E                     dE             d eps       ncg     rms          rms(c)
DAV:   1    -0.239354951851E+03    0.76642E-01   -0.97156E-02  5960   0.209E+00    0.629E-01
RMM:   2    -0.239356137150E+03   -0.11853E-02   -0.74356E-02  4379   0.655E-01    0.562E-01
RMM:   3    -0.239357432041E+03   -0.12949E-02   -0.23754E-02  4850   0.345E-01
    805 T=   668. E= -.23131641E+03 F= -.23935743E+03 E0= -.23935743E+03  EK= 0.54366E+01 SP= 0.26E+01 SK= 0.32E-01 mag=     -0.000
       N       E                     dE             d eps       ncg     rms          rms(c)
DAV:   1    -0.239260453372E+03    0.95684E-01   -0.94749E-02  5960   0.196E+00    0.178E+00
RMM:   2    -0.239263634404E+03   -0.31810E-02   -0.63855E-02  4664   0.562E-01    0.141E+00
RMM:   3    -0.239262640147E+03    0.99426E-03   -0.24928E-02  4389   0.399E-01
    806 T=   669. E= -.23130767E+03 F= -.23926264E+03 E0= -.23926264E+03  EK= 0.54471E+01 SP= 0.25E+01 SK= 0.51E-01 mag=      0.000
       N       E                     dE             d eps       ncg     rms          rms(c)
DAV:   1    -0.239166568516E+03    0.97066E-01   -0.59337E-02  5312   0.201E+00    0.316E+00
RMM:   2    -0.239159171047E+03    0.73975E-02   -0.72845E-02  4439   0.545E-01    0.150E+00
RMM:   3    -0.239156191106E+03    0.29799E-02   -0.46656E-02  4271   0.490E-01    0.497E-01
RMM:   4    -0.239159260301E+03   -0.30692E-02   -0.11468E-02  3985   0.261E-01
    807 T=   671. E= -.23130603E+03 F= -.23915926E+03 E0= -.23915926E+03  EK= 0.54642E+01 SP= 0.23E+01 SK= 0.74E-01 mag=      0.000
       N       E                     dE             d eps       ncg     rms          rms(c)
DAV:   1    -0.239041486887E+03    0.11470E+00   -0.80811E-02  5856   0.204E+00    0.699E-01
RMM:   2    -0.239041868884E+03   -0.38200E-03   -0.56251E-02  4076   0.466E-01    0.637E-01
RMM:   3    -0.239043343651E+03   -0.14748E-02   -0.16465E-02  4594   0.304E-01
    808 T=   674. E= -.23130500E+03 F= -.23904334E+03 E0= -.23904334E+03  EK= 0.54905E+01 SP= 0.21E+01 SK= 0.10E+00 mag=     -0.000
       N       E                     dE             d eps       ncg     rms          rms(c)
DAV:   1    -0.238912696593E+03    0.12917E+00   -0.57883E-02  6040   0.182E+00    0.113E+00
RMM:   2    -0.238918103509E+03   -0.54069E-02   -0.45300E-02  4658   0.467E-01    0.944E-01
RMM:   3    -0.238919228557E+03   -0.11250E-02   -0.14437E-02  4057   0.336E-01
    809 T=   680. E= -.23129864E+03 F= -.23891923E+03 E0= -.23891923E+03  EK= 0.55363E+01 SP= 0.20E+01 SK= 0.13E+00 mag=      0.000
       N       E                     dE             d eps       ncg     rms          rms(c)
DAV:   1    -0.238791876878E+03    0.12623E+00   -0.55728E-02  5976   0.189E+00    0.222E+00
RMM:   2    -0.238794268431E+03   -0.23916E-02   -0.47050E-02  4764   0.447E-01    0.104E+00
RMM:   3    -0.238793138394E+03    0.11300E-02   -0.16263E-02  3797   0.384E-01
    810 T=   688. E= -.23129309E+03 F= -.23879314E+03 E0= -.23879314E+03  EK= 0.56016E+01 SP= 0.17E+01 SK= 0.16E+00 mag=     -0.000
       N       E                     dE             d eps       ncg     rms          rms(c)
DAV:   1    -0.238666096618E+03    0.12817E+00   -0.82992E-02  5840   0.202E+00    0.578E-01
RMM:   2    -0.238672182791E+03   -0.60862E-02   -0.67877E-02  4527   0.591E-01    0.469E-01
RMM:   3    -0.238674218387E+03   -0.20356E-02   -0.20006E-02  4705   0.321E-01
    811 T=   699. E= -.23129377E+03 F= -.23867422E+03 E0= -.23867422E+03  EK= 0.56899E+01 SP= 0.15E+01 SK= 0.19E+00 mag=     -0.000
       N       E                     dE             d eps       ncg     rms          rms(c)
DAV:   1    -0.238555373803E+03    0.11681E+00   -0.86121E-02  6096   0.195E+00    0.150E+00
RMM:   2    -0.238557569968E+03   -0.21962E-02   -0.55846E-02  4478   0.531E-01    0.112E+00
RMM:   3    -0.238557689874E+03   -0.11991E-03   -0.25248E-02  4767   0.386E-01
    812 T=   713. E= -.23128733E+03 F= -.23855769E+03 E0= -.23855769E+03  EK= 0.58095E+01 SP= 0.12E+01 SK= 0.22E+00 mag=      0.000
       N       E                     dE             d eps       ncg     rms          rms(c)
DAV:   1    -0.238460435868E+03    0.97134E-01   -0.72729E-02  5952   0.199E+00    0.245E+00
RMM:   2    -0.238455952439E+03    0.44834E-02   -0.62074E-02  4281   0.556E-01    0.115E+00
RMM:   3    -0.238453627558E+03    0.23249E-02   -0.29498E-02  4349   0.403E-01
    813 T=   732. E= -.23128184E+03 F= -.23845363E+03 E0= -.23845363E+03  EK= 0.59617E+01 SP= 0.96E+00 SK= 0.25E+00 mag=      0.000
       N       E                     dE             d eps       ncg     rms          rms(c)
DAV:   1    -0.238364833266E+03    0.91119E-01   -0.13892E-01  6008   0.216E+00    0.755E-01
RMM:   2    -0.238367156372E+03   -0.23231E-02   -0.85359E-02  4484   0.684E-01    0.491E-01
RMM:   3    -0.238368522042E+03   -0.13657E-02   -0.27292E-02  4973   0.370E-01
    814 T=   755. E= -.23128016E+03 F= -.23836852E+03 E0= -.23836852E+03  EK= 0.61490E+01 SP= 0.67E+00 SK= 0.27E+00 mag=      0.000
       N       E                     dE             d eps       ncg     rms          rms(c)
DAV:   1    -0.238294036912E+03    0.73119E-01   -0.11170E-01  6144   0.208E+00    0.141E+00
RMM:   2    -0.238298408931E+03   -0.43720E-02   -0.71657E-02  4757   0.601E-01    0.113E+00
RMM:   3    -0.238299492552E+03   -0.10836E-02   -0.21620E-02  4328   0.334E-01
    815 T=   783. E= -.23127280E+03 F= -.23829949E+03 E0= -.23829949E+03  EK= 0.63759E+01 SP= 0.37E+00 SK= 0.28E+00 mag=     -0.000
       N       E                     dE             d eps       ncg     rms          rms(c)
DAV:   1    -0.238255317421E+03    0.43092E-01   -0.69348E-02  5944   0.205E+00    0.244E+00
RMM:   2    -0.238252841396E+03    0.24760E-02   -0.63613E-02  4480   0.552E-01    0.117E+00
RMM:   3    -0.238252192862E+03    0.64853E-03   -0.32800E-02  4715   0.410E-01    0.539E-01
RMM:   4    -0.238253468404E+03   -0.12755E-02   -0.56728E-03  2877   0.213E-01
    816 T=   815. E= -.23126847E+03 F= -.23825347E+03 E0= -.23825347E+03  EK= 0.66374E+01 SP= 0.63E-01 SK= 0.28E+00 mag=      0.000
       N       E                     dE             d eps       ncg     rms          rms(c)
DAV:   1    -0.238224178257E+03    0.28015E-01   -0.52349E-02  6088   0.211E+00    0.640E-01
RMM:   2    -0.238228592136E+03   -0.44139E-02   -0.50302E-02  4393   0.477E-01    0.512E-01
RMM:   3    -0.238230662584E+03   -0.20704E-02   -0.15240E-02  4493   0.293E-01
    817 T=   851. E= -.23126339E+03 F= -.23823066E+03 E0= -.23823066E+03  EK= 0.69327E+01 SP= -.24E+00 SK= 0.27E+00 mag=      0.000
       N       E                     dE             d eps       ncg     rms          rms(c)
DAV:   1    -0.238226057420E+03    0.25347E-02   -0.75059E-02  5968   0.207E+00    0.110E+00
RMM:   2    -0.238230904412E+03   -0.48470E-02   -0.49051E-02  4857   0.511E-01    0.841E-01
RMM:   3    -0.238231085376E+03   -0.18096E-03   -0.17322E-02  4057   0.380E-01
    818 T=   892. E= -.23125038E+03 F= -.23823109E+03 E0= -.23823109E+03  EK= 0.72621E+01 SP= -.53E+00 SK= 0.25E+00 mag=     -0.000
       N       E                     dE             d eps       ncg     rms          rms(c)
DAV:   1    -0.238255247307E+03   -0.24343E-01   -0.69054E-02  6200   0.215E+00    0.188E+00
RMM:   2    -0.238258383126E+03   -0.31358E-02   -0.60811E-02  4990   0.536E-01    0.809E-01
RMM:   3    -0.238257131612E+03    0.12515E-02   -0.17977E-02  3949   0.408E-01
    819 T=   935. E= -.23123651E+03 F= -.23825713E+03 E0= -.23825713E+03  EK= 0.76121E+01 SP= -.80E+00 SK= 0.21E+00 mag=     -0.000
       N       E                     dE             d eps       ncg     rms          rms(c)
DAV:   1    -0.238294925992E+03   -0.36543E-01   -0.12394E-01  5896   0.235E+00    0.710E-01
RMM:   2    -0.238304566633E+03   -0.96406E-02   -0.78661E-02  4676   0.613E-01    0.396E-01
RMM:   3    -0.238307744187E+03   -0.31776E-02   -0.23076E-02  4765   0.379E-01
    820 T=   978. E= -.23122561E+03 F= -.23830774E+03 E0= -.23830774E+03  EK= 0.79659E+01 SP= -.10E+01 SK= 0.16E+00 mag=      0.000
       N       E                     dE             d eps       ncg     rms          rms(c)
DAV:   1    -0.238366842073E+03   -0.62275E-01   -0.86472E-02  6032   0.231E+00    0.112E+00
RMM:   2    -0.238372585284E+03   -0.57432E-02   -0.71371E-02  4669   0.570E-01    0.910E-01
RMM:   3    -0.238374921128E+03   -0.23358E-02   -0.23565E-02  4662   0.376E-01
    821 T=  1020. E= -.23121090E+03 F= -.23837492E+03 E0= -.23837492E+03  EK= 0.83084E+01 SP= -.13E+01 SK= 0.11E+00 mag=     -0.000
       N       E                     dE             d eps       ncg     rms          rms(c)
DAV:   1    -0.238451650556E+03   -0.79065E-01   -0.89575E-02  6104   0.232E+00    0.162E+00
RMM:   2    -0.238455526822E+03   -0.38763E-02   -0.67194E-02  4437   0.574E-01    0.677E-01
RMM:   3    -0.238456129382E+03   -0.60256E-03   -0.22977E-02  4386   0.410E-01
    822 T=  1059. E= -.23119285E+03 F= -.23845613E+03 E0= -.23845613E+03  EK= 0.86214E+01 SP= -.14E+01 SK= 0.60E-01 mag=      0.000
       N       E                     dE             d eps       ncg     rms          rms(c)
DAV:   1    -0.238535700005E+03   -0.80173E-01   -0.11501E-01  6288   0.241E+00    0.812E-01
RMM:   2    -0.238545134473E+03   -0.94345E-02   -0.89190E-02  4833   0.704E-01    0.335E-01
RMM:   3    -0.238547826467E+03   -0.26920E-02   -0.24807E-02  4667   0.373E-01
    823 T=  1091. E= -.23117546E+03 F= -.23854783E+03 E0= -.23854783E+03  EK= 0.88817E+01 SP= -.15E+01 SK= 0.22E-01 mag=      0.000
       N       E                     dE             d eps       ncg     rms          rms(c)
DAV:   1    -0.238629765210E+03   -0.84631E-01   -0.11209E-01  6192   0.242E+00    0.683E-01
RMM:   2    -0.238636807683E+03   -0.70425E-02   -0.77318E-02  4757   0.656E-01    0.633E-01
RMM:   3    -0.238639100829E+03   -0.22931E-02   -0.22087E-02  4482   0.323E-01
    824 T=  1114. E= -.23115537E+03 F= -.23863910E+03 E0= -.23863910E+03  EK= 0.90679E+01 SP= -.16E+01 SK= 0.17E-02 mag=      0.000
       N       E                     dE             d eps       ncg     rms          rms(c)
DAV:   1    -0.238717586396E+03   -0.80779E-01   -0.82185E-02  5992   0.237E+00    0.426E-01
RMM:   2    -0.238723140486E+03   -0.55541E-02   -0.62933E-02  4638   0.587E-01    0.303E-01
RMM:   3    -0.238725128658E+03   -0.19882E-02   -0.19181E-02  4417   0.305E-01
    825 T=  1125. E= -.23113445E+03 F= -.23872513E+03 E0= -.23872513E+03  EK= 0.91629E+01 SP= -.16E+01 SK= 0.52E-02 mag=      0.000
       N       E                     dE             d eps       ncg     rms          rms(c)
DAV:   1    -0.238791301797E+03   -0.68161E-01   -0.73768E-02  6032   0.238E+00    0.605E-01
RMM:   2    -0.238798521777E+03   -0.72200E-02   -0.59254E-02  4768   0.551E-01    0.206E-01
RMM:   3    -0.238800382669E+03   -0.18609E-02   -0.16445E-02  4116   0.297E-01
    826 T=  1124. E= -.23111259E+03 F= -.23880038E+03 E0= -.23880038E+03  EK= 0.91565E+01 SP= -.15E+01 SK= 0.35E-01 mag=     -0.000
       N       E                     dE             d eps       ncg     rms          rms(c)
DAV:   1    -0.238849855753E+03   -0.51334E-01   -0.92802E-02  6152   0.241E+00    0.575E-01
RMM:   2    -0.238857332810E+03   -0.74771E-02   -0.64224E-02  4835   0.577E-01    0.167E-01
RMM:   3    -0.238859292851E+03   -0.19600E-02   -0.18200E-02  4275   0.301E-01
    827 T=  1111. E= -.23108655E+03 F= -.23885929E+03 E0= -.23885929E+03  EK= 0.90477E+01 SP= -.14E+01 SK= 0.90E-01 mag=     -0.000
       N       E                     dE             d eps       ncg     rms          rms(c)
DAV:   1    -0.238890548914E+03   -0.33216E-01   -0.91430E-02  6096   0.238E+00    0.242E-01
RMM:   2    -0.238897786403E+03   -0.72375E-02   -0.61173E-02  4683   0.594E-01    0.189E-01
RMM:   3    -0.238899778079E+03   -0.19917E-02   -0.18116E-02  4430   0.291E-01
    828 T=  1085. E= -.23106038E+03 F= -.23889978E+03 E0= -.23889978E+03  EK= 0.88385E+01 SP= -.12E+01 SK= 0.16E+00 mag=     -0.000
       N       E                     dE             d eps       ncg     rms          rms(c)
DAV:   1    -0.238912971926E+03   -0.15186E-01   -0.74294E-02  6080   0.233E+00    0.359E-01
RMM:   2    -0.238919834243E+03   -0.68623E-02   -0.56125E-02  4805   0.542E-01    0.410E-01
RMM:   3    -0.238921476481E+03   -0.16422E-02   -0.15117E-02  3972   0.258E-01
    829 T=  1049. E= -.23103430E+03 F= -.23892148E+03 E0= -.23892148E+03  EK= 0.85420E+01 SP= -.91E+00 SK= 0.25E+00 mag=      0.000
       N       E                     dE             d eps       ncg     rms          rms(c)
DAV:   1    -0.238919834467E+03   -0.22413E-06   -0.73784E-02  6272   0.234E+00    0.590E-01
RMM:   2    -0.238926022367E+03   -0.61879E-02   -0.54429E-02  4971   0.526E-01    0.545E-01
RMM:   3    -0.238927594834E+03   -0.15725E-02   -0.15117E-02  3729   0.265E-01
    830 T=  1004. E= -.23100850E+03 F= -.23892759E+03 E0= -.23892759E+03  EK= 0.81787E+01 SP= -.60E+00 SK= 0.34E+00 mag=     -0.000
       N       E                     dE             d eps       ncg     rms          rms(c)
DAV:   1    -0.238916307401E+03    0.97150E-02   -0.96362E-02  6200   0.241E+00    0.259E+00
RMM:   2    -0.238919894267E+03   -0.35869E-02   -0.58543E-02  5055   0.535E-01    0.125E+00
RMM:   3    -0.238920156070E+03   -0.26180E-03   -0.18441E-02  3970   0.313E-01
    831 T=   954. E= -.23098356E+03 F= -.23892016E+03 E0= -.23892016E+03  EK= 0.77691E+01 SP= -.25E+00 SK= 0.42E+00 mag=     -0.000
       N       E                     dE             d eps       ncg     rms          rms(c)
DAV:   1    -0.238901996388E+03    0.17898E-01   -0.96902E-02  6320   0.239E+00    0.812E-01
RMM:   2    -0.238906539072E+03   -0.45427E-02   -0.60808E-02  4691   0.631E-01    0.715E-01
RMM:   3    -0.238907564840E+03   -0.10258E-02   -0.17045E-02  4406   0.296E-01
    832 T=   901. E= -.23096172E+03 F= -.23890756E+03 E0= -.23890756E+03  EK= 0.73379E+01 SP= 0.13E+00 SK= 0.48E+00 mag=      0.000
       N       E                     dE             d eps       ncg     rms          rms(c)
DAV:   1    -0.238891539047E+03    0.15000E-01   -0.10633E-01  6336   0.223E+00    0.770E-01
RMM:   2    -0.238895073488E+03   -0.35344E-02   -0.60885E-02  4604   0.608E-01    0.234E-01
RMM:   3    -0.238895608030E+03   -0.53454E-03   -0.17874E-02  4490   0.284E-01
    833 T=   848. E= -.23094128E+03 F= -.23889561E+03 E0= -.23889561E+03  EK= 0.69088E+01 SP= 0.53E+00 SK= 0.51E+00 mag=      0.000
       N       E                     dE             d eps       ncg     rms          rms(c)
DAV:   1    -0.238883570593E+03    0.11503E-01   -0.94203E-02  6192   0.217E+00    0.278E-01
RMM:   2    -0.238890569854E+03   -0.69993E-02   -0.66163E-02  4553   0.546E-01    0.266E-01
RMM:   3    -0.238892042224E+03   -0.14724E-02   -0.15810E-02  4469   0.272E-01
    834 T=   798. E= -.23092256E+03 F= -.23889204E+03 E0= -.23889204E+03  EK= 0.65020E+01 SP= 0.94E+00 SK= 0.52E+00 mag=      0.000
       N       E                     dE             d eps       ncg     rms          rms(c)
DAV:   1    -0.238901591733E+03   -0.11022E-01   -0.49673E-02  5920   0.202E+00    0.636E-01
RMM:   2    -0.238901525532E+03    0.66201E-04   -0.55156E-02  4687   0.475E-01    0.503E-01
RMM:   3    -0.238902539243E+03   -0.10137E-02   -0.20403E-02  4406   0.266E-01
    835 T=   753. E= -.23090400E+03 F= -.23890254E+03 E0= -.23890254E+03  EK= 0.61336E+01 SP= 0.14E+01 SK= 0.51E+00 mag=      0.000
       N       E                     dE             d eps       ncg     rms          rms(c)
DAV:   1    -0.238933111571E+03   -0.31586E-01   -0.52149E-02  6112   0.198E+00    0.112E+00
RMM:   2    -0.238932318744E+03    0.79283E-03   -0.48719E-02  4528   0.456E-01    0.447E-01
RMM:   3    -0.238932795616E+03   -0.47687E-03   -0.17461E-02  4206   0.269E-01
    836 T=   714. E= -.23088743E+03 F= -.23893280E+03 E0= -.23893280E+03  EK= 0.58132E+01 SP= 0.18E+01 SK= 0.48E+00 mag=      0.000
       N       E                     dE             d eps       ncg     rms          rms(c)
DAV:   1    -0.238980171871E+03   -0.47853E-01   -0.53780E-02  6136   0.196E+00    0.509E-01
RMM:   2    -0.238983511174E+03   -0.33393E-02   -0.43295E-02  4508   0.489E-01    0.200E-01
RMM:   3    -0.238984533562E+03   -0.10224E-02   -0.11687E-02  3820   0.251E-01
    837 T=   681. E= -.23087351E+03 F= -.23898453E+03 E0= -.23898453E+03  EK= 0.55446E+01 SP= 0.21E+01 SK= 0.43E+00 mag=      0.000
       N       E                     dE             d eps       ncg     rms          rms(c)
DAV:   1    -0.239052158252E+03   -0.68647E-01   -0.43737E-02  6048   0.189E+00    0.285E-01
RMM:   2    -0.239056009786E+03   -0.38515E-02   -0.37135E-02  4744   0.475E-01    0.324E-01
RMM:   3    -0.239057216793E+03   -0.12070E-02   -0.11622E-02  3774   0.225E-01
    838 T=   654. E= -.23086117E+03 F= -.23905722E+03 E0= -.23905722E+03  EK= 0.53296E+01 SP= 0.25E+01 SK= 0.37E+00 mag=     -0.000
       N       E                     dE             d eps       ncg     rms          rms(c)
DAV:   1    -0.239146693630E+03   -0.90684E-01   -0.32030E-02  5656   0.187E+00    0.885E-01
RMM:   2    -0.239148796199E+03   -0.21026E-02   -0.30543E-02  4877   0.431E-01
    839 T=   636. E= -.23083927E+03 F= -.23914880E+03 E0= -.23914880E+03  EK= 0.51767E+01 SP= 0.28E+01 SK= 0.31E+00 mag=     -0.000
       N       E                     dE             d eps       ncg     rms          rms(c)
DAV:   1    -0.239251423346E+03   -0.10473E+00   -0.10777E-01  6736   0.208E+00    0.158E+00
RMM:   2    -0.239257373655E+03   -0.59503E-02   -0.69133E-02  5242   0.573E-01    0.506E-01
RMM:   3    -0.239258195068E+03   -0.82141E-03   -0.16324E-02  3824   0.315E-01
    840 T=   623. E= -.23082042E+03 F= -.23925820E+03 E0= -.23925820E+03  EK= 0.50711E+01 SP= 0.31E+01 SK= 0.24E+00 mag=      0.000
       N       E                     dE             d eps       ncg     rms          rms(c)
DAV:   1    -0.239372785239E+03   -0.11541E+00   -0.11004E-01  6024   0.196E+00    0.774E-01
RMM:   2    -0.239378647530E+03   -0.58623E-02   -0.50417E-02  4784   0.506E-01    0.387E-01
RMM:   3    -0.239380427936E+03   -0.17804E-02   -0.15927E-02  4411   0.273E-01
    841 T=   613. E= -.23081645E+03 F= -.23938043E+03 E0= -.23938043E+03  EK= 0.49951E+01 SP= 0.34E+01 SK= 0.18E+00 mag=      0.000
       N       E                     dE             d eps       ncg     rms          rms(c)
DAV:   1    -0.239507380168E+03   -0.12873E+00   -0.39824E-02  5992   0.185E+00    0.422E-01
RMM:   2    -0.239510269132E+03   -0.28890E-02   -0.48460E-02  4666   0.464E-01    0.428E-01
RMM:   3    -0.239511495151E+03   -0.12260E-02   -0.12108E-02  3940   0.239E-01
    842 T=   609. E= -.23081347E+03 F= -.23951150E+03 E0= -.23951150E+03  EK= 0.49579E+01 SP= 0.36E+01 SK= 0.13E+00 mag=      0.000
       N       E                     dE             d eps       ncg     rms          rms(c)
DAV:   1    -0.239647652133E+03   -0.13738E+00   -0.35509E-02  5656   0.184E+00    0.515E-01
RMM:   2    -0.239649229279E+03   -0.15771E-02   -0.36035E-02  4570   0.433E-01    0.405E-01
RMM:   3    -0.239649989593E+03   -0.76031E-03   -0.10968E-02  3773   0.228E-01
    843 T=   609. E= -.23080627E+03 F= -.23964999E+03 E0= -.23964999E+03  EK= 0.49623E+01 SP= 0.38E+01 SK= 0.86E-01 mag=     -0.000
       N       E                     dE             d eps       ncg     rms          rms(c)
DAV:   1    -0.239788807585E+03   -0.13958E+00   -0.41982E-02  5872   0.185E+00    0.910E-01
RMM:   2    -0.239792029965E+03   -0.32224E-02   -0.34966E-02  4918   0.444E-01    0.339E-01
RMM:   3    -0.239792804311E+03   -0.77435E-03   -0.10260E-02  3483   0.246E-01
    844 T=   614. E= -.23079797E+03 F= -.23979280E+03 E0= -.23979280E+03  EK= 0.50009E+01 SP= 0.39E+01 SK= 0.51E-01 mag=     -0.000
       N       E                     dE             d eps       ncg     rms          rms(c)
DAV:   1    -0.239935023878E+03   -0.14299E+00   -0.39946E-02  6024   0.183E+00    0.386E-01
RMM:   2    -0.239938652085E+03   -0.36282E-02   -0.34498E-02  4706   0.457E-01    0.173E-01
RMM:   3    -0.239939629832E+03   -0.97775E-03   -0.94655E-03  3661   0.220E-01
    845 T=   622. E= -.23079267E+03 F= -.23993963E+03 E0= -.23993963E+03  EK= 0.50682E+01 SP= 0.41E+01 SK= 0.26E-01 mag=     -0.000
       N       E                     dE             d eps       ncg     rms          rms(c)
DAV:   1    -0.240084903860E+03   -0.14625E+00   -0.40993E-02  5752   0.182E+00    0.235E-01
RMM:   2    -0.240087799848E+03   -0.28960E-02   -0.30554E-02  4631   0.430E-01
    846 T=   635. E= -.23077921E+03 F= -.24008780E+03 E0= -.24008780E+03  EK= 0.51717E+01 SP= 0.41E+01 SK= 0.10E-01 mag=      0.000
       N       E                     dE             d eps       ncg     rms          rms(c)
DAV:   1    -0.240230442383E+03   -0.14554E+00   -0.81170E-02  6368   0.201E+00    0.280E-01
RMM:   2    -0.240237423454E+03   -0.69811E-02   -0.67642E-02  5214   0.587E-01    0.488E-01
RMM:   3    -0.240238778477E+03   -0.13550E-02   -0.13683E-02  3652   0.255E-01
    847 T=   651. E= -.23076571E+03 F= -.24023878E+03 E0= -.24023878E+03  EK= 0.53035E+01 SP= 0.42E+01 SK= 0.21E-02 mag=      0.000
       N       E                     dE             d eps       ncg     rms          rms(c)
DAV:   1    -0.240382970822E+03   -0.14555E+00   -0.65365E-02  5992   0.187E+00    0.721E-01
RMM:   2    -0.240386546464E+03   -0.35756E-02   -0.38145E-02  4686   0.539E-01    0.513E-01
RMM:   3    -0.240388081031E+03   -0.15346E-02   -0.18008E-02  4572   0.247E-01
    848 T=   669. E= -.23076116E+03 F= -.24038808E+03 E0= -.24038808E+03  EK= 0.54484E+01 SP= 0.42E+01 SK= 0.15E-04 mag=      0.000
       N       E                     dE             d eps       ncg     rms          rms(c)
DAV:   1    -0.240531856847E+03   -0.14531E+00   -0.27323E-02  5264   0.187E+00    0.169E+00
RMM:   2    -0.240532985825E+03   -0.11290E-02   -0.39066E-02  4773   0.432E-01    0.830E-01
RMM:   3    -0.240533553744E+03   -0.56792E-03   -0.13916E-02  3915   0.251E-01
    849 T=   689. E= -.23075851E+03 F= -.24053355E+03 E0= -.24053355E+03  EK= 0.56097E+01 SP= 0.42E+01 SK= 0.22E-02 mag=     -0.000
       N       E                     dE             d eps       ncg     rms          rms(c)
DAV:   1    -0.240670059902E+03   -0.13707E+00   -0.52157E-02  5992   0.194E+00    0.340E-01
RMM:   2    -0.240672039141E+03   -0.19792E-02   -0.44767E-02  4267   0.530E-01    0.274E-01
RMM:   3    -0.240672752892E+03   -0.71375E-03   -0.12336E-02  4100   0.255E-01
    850 T=   711. E= -.23075207E+03 F= -.24067275E+03 E0= -.24067275E+03  EK= 0.57884E+01 SP= 0.41E+01 SK= 0.68E-02 mag=     -0.000
       N       E                     dE             d eps       ncg     rms          rms(c)
DAV:   1    -0.240794712381E+03   -0.12267E+00   -0.44543E-02  5904   0.194E+00    0.628E-01
RMM:   2    -0.240798989134E+03   -0.42768E-02   -0.40647E-02  4640   0.504E-01    0.546E-01
RMM:   3    -0.240800317178E+03   -0.13280E-02   -0.13868E-02  4152   0.267E-01
    851 T=   734. E= -.23074370E+03 F= -.24080032E+03 E0= -.24080032E+03  EK= 0.59746E+01 SP= 0.41E+01 SK= 0.12E-01 mag=     -0.000
       N       E                     dE             d eps       ncg     rms          rms(c)
DAV:   1    -0.240906024489E+03   -0.10704E+00   -0.45781E-02  5872   0.197E+00    0.118E+00
RMM:   2    -0.240909404429E+03   -0.33799E-02   -0.36155E-02  4693   0.453E-01    0.540E-01
RMM:   3    -0.240910451361E+03   -0.10469E-02   -0.12265E-02  3933   0.264E-01
    852 T=   756. E= -.23073752E+03 F= -.24091045E+03 E0= -.24091045E+03  EK= 0.61552E+01 SP= 0.40E+01 SK= 0.17E-01 mag=     -0.000
       N       E                     dE             d eps       ncg     rms          rms(c)
DAV:   1    -0.240992383391E+03   -0.82979E-01   -0.45343E-02  6016   0.202E+00    0.363E-01
RMM:   2    -0.240996449484E+03   -0.40661E-02   -0.40154E-02  4422   0.507E-01    0.225E-01
RMM:   3    -0.240997622199E+03   -0.11727E-02   -0.11605E-02  4042   0.244E-01
    853 T=   777. E= -.23073051E+03 F= -.24099762E+03 E0= -.24099762E+03  EK= 0.63239E+01 SP= 0.39E+01 SK= 0.20E-01 mag=      0.000
       N       E                     dE             d eps       ncg     rms          rms(c)
DAV:   1    -0.241052832147E+03   -0.56383E-01   -0.45140E-02  5992   0.199E+00    0.471E-01
RMM:   2    -0.241056662036E+03   -0.38299E-02   -0.36850E-02  4615   0.493E-01    0.451E-01
RMM:   3    -0.241057850431E+03   -0.11884E-02   -0.11790E-02  3952   0.237E-01
    854 T=   795. E= -.23072082E+03 F= -.24105785E+03 E0= -.24105785E+03  EK= 0.64749E+01 SP= 0.38E+01 SK= 0.21E-01 mag=      0.000
       N       E                     dE             d eps       ncg     rms          rms(c)
DAV:   1    -0.241083180518E+03   -0.26518E-01   -0.36105E-02  5752   0.198E+00    0.245E-01
RMM:   2    -0.241086778648E+03   -0.35981E-02   -0.35660E-02  4841   0.445E-01    0.282E-01
RMM:   3    -0.241087827446E+03   -0.10488E-02   -0.10169E-02  3569   0.208E-01
    855 T=   810. E= -.23071070E+03 F= -.24108783E+03 E0= -.24108783E+03  EK= 0.65988E+01 SP= 0.38E+01 SK= 0.21E-01 mag=     -0.000
       N       E                     dE             d eps       ncg     rms          rms(c)
DAV:   1    -0.241082675778E+03    0.41029E-02   -0.47195E-02  5832   0.202E+00    0.214E-01
RMM:   2    -0.241086910176E+03   -0.42344E-02   -0.39365E-02  4989   0.441E-01    0.241E-01
RMM:   3    -0.241087760616E+03   -0.85044E-03   -0.87323E-03  3341   0.196E-01
    856 T=   822. E= -.23070035E+03 F= -.24108776E+03 E0= -.24108776E+03  EK= 0.66921E+01 SP= 0.37E+01 SK= 0.20E-01 mag=     -0.000
       N       E                     dE             d eps       ncg     rms          rms(c)
DAV:   1    -0.241055791425E+03    0.31119E-01   -0.44709E-02  5912   0.202E+00    0.378E-01
RMM:   2    -0.241059892002E+03   -0.41006E-02   -0.41036E-02  4999   0.435E-01    0.240E-01
RMM:   3    -0.241060820848E+03   -0.92885E-03   -0.98541E-03  3379   0.210E-01
    857 T=   830. E= -.23068786E+03 F= -.24106082E+03 E0= -.24106082E+03  EK= 0.67571E+01 SP= 0.36E+01 SK= 0.17E-01 mag=      0.000
       N       E                     dE             d eps       ncg     rms          rms(c)
DAV:   1    -0.241007326015E+03    0.52566E-01   -0.49404E-02  5976   0.200E+00    0.544E-01
RMM:   2    -0.241011811678E+03   -0.44857E-02   -0.41102E-02  5010   0.430E-01    0.154E-01
RMM:   3    -0.241012696311E+03   -0.88463E-03   -0.90669E-03  3259   0.211E-01
    858 T=   834. E= -.23067513E+03 F= -.24101270E+03 E0= -.24101270E+03  EK= 0.67957E+01 SP= 0.35E+01 SK= 0.14E-01 mag=      0.000
       N       E                     dE             d eps       ncg     rms          rms(c)
DAV:   1    -0.240944718938E+03    0.67093E-01   -0.46671E-02  6008   0.203E+00    0.362E-01
RMM:   2    -0.240949585786E+03   -0.48668E-02   -0.43126E-02  5066   0.446E-01    0.175E-01
RMM:   3    -0.240950542627E+03   -0.95684E-03   -0.88940E-03  3268   0.205E-01
    859 T=   837. E= -.23066204E+03 F= -.24095054E+03 E0= -.24095054E+03  EK= 0.68136E+01 SP= 0.35E+01 SK= 0.11E-01 mag=     -0.000
       N       E                     dE             d eps       ncg     rms          rms(c)
DAV:   1    -0.240876521287E+03    0.73064E-01   -0.55637E-02  5960   0.204E+00    0.248E-01
RMM:   2    -0.240881165819E+03   -0.46445E-02   -0.40719E-02  5013   0.448E-01    0.256E-01
RMM:   3    -0.240882182953E+03   -0.10171E-02   -0.92278E-03  3206   0.203E-01
    860 T=   837. E= -.23064661E+03 F= -.24088218E+03 E0= -.24088218E+03  EK= 0.68200E+01 SP= 0.34E+01 SK= 0.87E-02 mag=     -0.000
       N       E                     dE             d eps       ncg     rms          rms(c)
DAV:   1    -0.240809128432E+03    0.72037E-01   -0.46041E-02  5952   0.202E+00    0.292E-01
RMM:   2    -0.240813878246E+03   -0.47498E-02   -0.38767E-02  5049   0.442E-01    0.348E-01
RMM:   3    -0.240814891767E+03   -0.10135E-02   -0.91222E-03  3220   0.200E-01
    861 T=   837. E= -.23063089E+03 F= -.24081489E+03 E0= -.24081489E+03  EK= 0.68200E+01 SP= 0.34E+01 SK= 0.64E-02 mag=     -0.000
       N       E                     dE             d eps       ncg     rms          rms(c)
DAV:   1    -0.240747760583E+03    0.66118E-01   -0.42474E-02  5832   0.204E+00    0.618E-01
RMM:   2    -0.240752669588E+03   -0.49090E-02   -0.39611E-02  4954   0.474E-01    0.533E-01
RMM:   3    -0.240753678028E+03   -0.10084E-02   -0.10116E-02  3355   0.233E-01
    862 T=   837. E= -.23061681E+03 F= -.24075368E+03 E0= -.24075368E+03  EK= 0.68165E+01 SP= 0.33E+01 SK= 0.45E-02 mag=      0.000
       N       E                     dE             d eps       ncg     rms          rms(c)
DAV:   1    -0.240696761145E+03    0.55908E-01   -0.45401E-02  5872   0.211E+00    0.215E+00
RMM:   2    -0.240700497570E+03   -0.37364E-02   -0.40691E-02  5029   0.444E-01    0.109E+00
RMM:   3    -0.240701061025E+03   -0.56346E-03   -0.11250E-02  3330   0.232E-01
    863 T=   837. E= -.23060154E+03 F= -.24070106E+03 E0= -.24070106E+03  EK= 0.68150E+01 SP= 0.33E+01 SK= 0.29E-02 mag=      0.000
       N       E                     dE             d eps       ncg     rms          rms(c)
DAV:   1    -0.240651983810E+03    0.48514E-01   -0.58871E-02  6040   0.205E+00    0.706E-01
RMM:   2    -0.240656425941E+03   -0.44421E-02   -0.43728E-02  4751   0.517E-01    0.589E-01
RMM:   3    -0.240657453995E+03   -0.10281E-02   -0.12482E-02  4013   0.254E-01
    864 T=   837. E= -.23058486E+03 F= -.24065745E+03 E0= -.24065745E+03  EK= 0.68161E+01 SP= 0.33E+01 SK= 0.17E-02 mag=      0.000
       N       E                     dE             d eps       ncg     rms          rms(c)
DAV:   1    -0.240616387441E+03    0.40038E-01   -0.54637E-02  6024   0.211E+00    0.595E-01
RMM:   2    -0.240620481807E+03   -0.40944E-02   -0.44033E-02  4715   0.532E-01    0.200E-01
RMM:   3    -0.240621324795E+03   -0.84299E-03   -0.12436E-02  3976   0.244E-01
    865 T=   837. E= -.23056902E+03 F= -.24062132E+03 E0= -.24062132E+03  EK= 0.68162E+01 SP= 0.32E+01 SK= 0.77E-03 mag=      0.000
       N       E                     dE             d eps       ncg     rms          rms(c)
DAV:   1    -0.240581196514E+03    0.39285E-01   -0.58221E-02  6040   0.208E+00    0.232E-01
RMM:   2    -0.240587077631E+03   -0.58811E-02   -0.52365E-02  4777   0.499E-01    0.227E-01
RMM:   3    -0.240588240289E+03   -0.11627E-02   -0.12187E-02  3861   0.233E-01
    866 T=   837. E= -.23055248E+03 F= -.24058824E+03 E0= -.24058824E+03  EK= 0.68121E+01 SP= 0.32E+01 SK= 0.21E-03 mag=     -0.000
       N       E                     dE             d eps       ncg     rms          rms(c)
DAV:   1    -0.240550243171E+03    0.36834E-01   -0.49877E-02  5912   0.206E+00    0.439E-01
RMM:   2    -0.240552688815E+03   -0.24456E-02   -0.42968E-02  4789   0.462E-01    0.389E-01
RMM:   3    -0.240553749952E+03   -0.10611E-02   -0.14198E-02  3992   0.233E-01
    867 T=   835. E= -.23053632E+03 F= -.24055375E+03 E0= -.24055375E+03  EK= 0.67987E+01 SP= 0.32E+01 SK= 0.40E-05 mag=      0.000
       N       E                     dE             d eps       ncg     rms          rms(c)
DAV:   1    -0.240511012288E+03    0.41677E-01   -0.47072E-02  5912   0.207E+00    0.685E-01
RMM:   2    -0.240513737172E+03   -0.27249E-02   -0.40041E-02  4758   0.443E-01    0.237E-01
RMM:   3    -0.240514585106E+03   -0.84793E-03   -0.12141E-02  3765   0.225E-01
    868 T=   832. E= -.23052105E+03 F= -.24051459E+03 E0= -.24051459E+03  EK= 0.67723E+01 SP= 0.32E+01 SK= 0.96E-04 mag=      0.000
       N       E                     dE             d eps       ncg     rms          rms(c)
DAV:   1    -0.240460851843E+03    0.52885E-01   -0.54985E-02  6096   0.207E+00    0.482E-01
RMM:   2    -0.240465822995E+03   -0.49712E-02   -0.42816E-02  4962   0.448E-01    0.131E-01
RMM:   3    -0.240466756453E+03   -0.93346E-03   -0.95315E-03  3308   0.208E-01
    869 T=   827. E= -.23050543E+03 F= -.24046676E+03 E0= -.24046676E+03  EK= 0.67311E+01 SP= 0.32E+01 SK= 0.40E-03 mag=      0.000
       N       E                     dE             d eps       ncg     rms          rms(c)
DAV:   1    -0.240400170526E+03    0.65652E-01   -0.53214E-02  5912   0.207E+00    0.140E-01
RMM:   2    -0.240404861525E+03   -0.46910E-02   -0.40644E-02  4933   0.442E-01    0.195E-01
RMM:   3    -0.240405953641E+03   -0.10921E-02   -0.10494E-02  3414   0.208E-01
    870 T=   819. E= -.23048817E+03 F= -.24040595E+03 E0= -.24040595E+03  EK= 0.66731E+01 SP= 0.32E+01 SK= 0.80E-03 mag=      0.000
       N       E                     dE             d eps       ncg     rms          rms(c)
DAV:   1    -0.240324855776E+03    0.80006E-01   -0.48470E-02  5688   0.206E+00    0.372E-01
RMM:   2    -0.240329468182E+03   -0.46124E-02   -0.39173E-02  5000   0.434E-01    0.406E-01
RMM:   3    -0.240330507820E+03   -0.10396E-02   -0.98164E-03  3253   0.199E-01
    871 T=   810. E= -.23046952E+03 F= -.24033051E+03 E0= -.24033051E+03  EK= 0.65980E+01 SP= 0.33E+01 SK= 0.11E-02 mag=      0.000
       N       E                     dE             d eps       ncg     rms          rms(c)
DAV:   1    -0.240232179789E+03    0.97288E-01   -0.42684E-02  5816   0.209E+00    0.452E-01
RMM:   2    -0.240236858650E+03   -0.46789E-02   -0.40711E-02  5036   0.434E-01    0.442E-01
RMM:   3    -0.240237836052E+03   -0.97740E-03   -0.95574E-03  3173   0.196E-01
    872 T=   799. E= -.23045078E+03 F= -.24023784E+03 E0= -.24023784E+03  EK= 0.65039E+01 SP= 0.33E+01 SK= 0.12E-02 mag=      0.000
       N       E                     dE             d eps       ncg     rms          rms(c)
DAV:   1    -0.240122961026E+03    0.11390E+00   -0.47731E-02  5560   0.208E+00    0.973E-01
RMM:   2    -0.240127223085E+03   -0.42621E-02   -0.38394E-02  5009   0.415E-01    0.410E-01
RMM:   3    -0.240128068748E+03   -0.84566E-03   -0.91514E-03  3180   0.194E-01
    873 T=   785. E= -.23043482E+03 F= -.24012807E+03 E0= -.24012807E+03  EK= 0.63906E+01 SP= 0.33E+01 SK= 0.10E-02 mag=     -0.000
       N       E                     dE             d eps       ncg     rms          rms(c)
DAV:   1    -0.239996584972E+03    0.13064E+00   -0.35896E-02  5520   0.203E+00    0.383E-01
RMM:   2    -0.240001063259E+03   -0.44783E-02   -0.38323E-02  5034   0.415E-01    0.125E-01
RMM:   3    -0.240001924730E+03   -0.86147E-03   -0.84952E-03  3129   0.190E-01
    874 T=   769. E= -.23041845E+03 F= -.24000192E+03 E0= -.24000192E+03  EK= 0.62646E+01 SP= 0.33E+01 SK= 0.58E-03 mag=     -0.000
       N       E                     dE             d eps       ncg     rms          rms(c)
DAV:   1    -0.239855015488E+03    0.14605E+00   -0.43359E-02  5768   0.203E+00    0.196E-01
RMM:   2    -0.239859460258E+03   -0.44448E-02   -0.37993E-02  4973   0.418E-01    0.256E-01
RMM:   3    -0.239860465434E+03   -0.10052E-02   -0.95314E-03  3186   0.193E-01
    875 T=   753. E= -.23040070E+03 F= -.23986047E+03 E0= -.23986047E+03  EK= 0.61308E+01 SP= 0.33E+01 SK= 0.10E-03 mag=     -0.000
       N       E                     dE             d eps       ncg     rms          rms(c)
DAV:   1    -0.239700257120E+03    0.15920E+00   -0.32607E-02  5312   0.198E+00    0.653E-01
RMM:   2    -0.239704663606E+03   -0.44065E-02   -0.38000E-02  5009   0.402E-01    0.548E-01
RMM:   3    -0.239705497393E+03   -0.83379E-03   -0.87323E-03  3091   0.187E-01
    876 T=   736. E= -.23038513E+03 F= -.23970550E+03 E0= -.23970550E+03  EK= 0.59904E+01 SP= 0.33E+01 SK= 0.92E-04 mag=     -0.000
       N       E                     dE             d eps       ncg     rms          rms(c)
DAV:   1    -0.239537259509E+03    0.16740E+00   -0.54017E-02  5992   0.197E+00    0.155E+00
RMM:   2    -0.239540988186E+03   -0.37287E-02   -0.34900E-02  4982   0.405E-01    0.748E-01
RMM:   3    -0.239541766070E+03   -0.77788E-03   -0.90043E-03  3228   0.192E-01
    877 T=   719. E= -.23037094E+03 F= -.23954177E+03 E0= -.23954177E+03  EK= 0.58516E+01 SP= 0.33E+01 SK= 0.13E-02 mag=     -0.000
       N       E                     dE             d eps       ncg     rms          rms(c)
DAV:   1    -0.239368206869E+03    0.17278E+00   -0.38599E-02  5520   0.195E+00    0.331E-01
RMM:   2    -0.239372375085E+03   -0.41682E-02   -0.36837E-02  5046   0.413E-01    0.359E-01
RMM:   3    -0.239373188211E+03   -0.81313E-03   -0.80698E-03  3030   0.186E-01
    878 T=   703. E= -.23035520E+03 F= -.23937319E+03 E0= -.23937319E+03  EK= 0.57238E+01 SP= 0.33E+01 SK= 0.45E-02 mag=      0.000
       N       E                     dE             d eps       ncg     rms          rms(c)
DAV:   1    -0.239198653041E+03    0.17372E+00   -0.36165E-02  5440   0.195E+00    0.114E+00
RMM:   2    -0.239202167206E+03   -0.35142E-02   -0.33923E-02  4976   0.398E-01    0.836E-01
RMM:   3    -0.239202822922E+03   -0.65572E-03   -0.92517E-03  3125   0.190E-01
    879 T=   689. E= -.23034099E+03 F= -.23920282E+03 E0= -.23920282E+03  EK= 0.56091E+01 SP= 0.32E+01 SK= 0.11E-01 mag=     -0.000
       N       E                     dE             d eps       ncg     rms          rms(c)
DAV:   1    -0.239033599080E+03    0.16857E+00   -0.33179E-02  5608   0.193E+00    0.187E+00
RMM:   2    -0.239035157352E+03   -0.15583E-02   -0.33628E-02  4983   0.397E-01    0.966E-01
RMM:   3    -0.239035418424E+03   -0.26107E-03   -0.10725E-02  3296   0.202E-01
    880 T=   677. E= -.23032830E+03 F= -.23903542E+03 E0= -.23903542E+03  EK= 0.55142E+01 SP= 0.32E+01 SK= 0.21E-01 mag=     -0.000
       N       E                     dE             d eps       ncg     rms          rms(c)
DAV:   1    -0.238871680522E+03    0.16348E+00   -0.49676E-02  5736   0.191E+00    0.431E-01
RMM:   2    -0.238874391439E+03   -0.27109E-02   -0.40275E-02  4937   0.426E-01    0.413E-01
RMM:   3    -0.238874891482E+03   -0.50004E-03   -0.88769E-03  3285   0.201E-01
    881 T=   669. E= -.23031488E+03 F= -.23887489E+03 E0= -.23887489E+03  EK= 0.54468E+01 SP= 0.31E+01 SK= 0.36E-01 mag=      0.000
       N       E                     dE             d eps       ncg     rms          rms(c)
DAV:   1    -0.238721077695E+03    0.15331E+00   -0.49346E-02  6144   0.190E+00    0.386E-01
RMM:   2    -0.238724850837E+03   -0.37731E-02   -0.35756E-02  4976   0.413E-01    0.365E-01
RMM:   3    -0.238725500712E+03   -0.64987E-03   -0.75277E-03  3045   0.182E-01
    882 T=   664. E= -.23030286E+03 F= -.23872550E+03 E0= -.23872550E+03  EK= 0.54105E+01 SP= 0.30E+01 SK= 0.56E-01 mag=      0.000
       N       E                     dE             d eps       ncg     rms          rms(c)
DAV:   1    -0.238585929380E+03    0.13892E+00   -0.44655E-02  5824   0.188E+00    0.344E-01
RMM:   2    -0.238589556986E+03   -0.36276E-02   -0.43426E-02  5021   0.421E-01    0.304E-01
RMM:   3    -0.238590480966E+03   -0.92398E-03   -0.92216E-03  3353   0.197E-01
    883 T=   664. E= -.23029268E+03 F= -.23859048E+03 E0= -.23859048E+03  EK= 0.54090E+01 SP= 0.28E+01 SK= 0.82E-01 mag=     -0.000
       N       E                     dE             d eps       ncg     rms          rms(c)
DAV:   1    -0.238469417232E+03    0.12014E+00   -0.37546E-02  5376   0.191E+00    0.315E-01
RMM:   2    -0.238471548608E+03   -0.21314E-02   -0.34108E-02  4920   0.407E-01    0.216E-01
RMM:   3    -0.238472203341E+03   -0.65473E-03   -0.82690E-03  3205   0.190E-01
    884 T=   669. E= -.23028234E+03 F= -.23847220E+03 E0= -.23847220E+03  EK= 0.54476E+01 SP= 0.26E+01 SK= 0.11E+00 mag=     -0.000
       N       E                     dE             d eps       ncg     rms          rms(c)
DAV:   1    -0.238368104315E+03    0.10344E+00   -0.44541E-02  5920   0.190E+00    0.503E-01
RMM:   2    -0.238371919339E+03   -0.38150E-02   -0.35738E-02  4993   0.411E-01    0.177E-01
RMM:   3    -0.238372638041E+03   -0.71870E-03   -0.77409E-03  3065   0.186E-01
    885 T=   679. E= -.23027069E+03 F= -.23837264E+03 E0= -.23837264E+03  EK= 0.55300E+01 SP= 0.24E+01 SK= 0.14E+00 mag=      0.000
       N       E                     dE             d eps       ncg     rms          rms(c)
DAV:   1    -0.238288123316E+03    0.83796E-01   -0.42271E-02  5712   0.193E+00    0.330E-01
RMM:   2    -0.238292146225E+03   -0.40229E-02   -0.38771E-02  5045   0.414E-01    0.939E-02
RMM:   3    -0.238292969326E+03   -0.82310E-03   -0.82910E-03  3123   0.187E-01
    886 T=   694. E= -.23026054E+03 F= -.23829297E+03 E0= -.23829297E+03  EK= 0.56550E+01 SP= 0.22E+01 SK= 0.17E+00 mag=      0.000
       N       E                     dE             d eps       ncg     rms          rms(c)
DAV:   1    -0.238227149082E+03    0.64997E-01   -0.48335E-02  5920   0.197E+00    0.267E-01
RMM:   2    -0.238230837800E+03   -0.36887E-02   -0.35371E-02  4992   0.406E-01    0.201E-01
RMM:   3    -0.238231639953E+03   -0.80215E-03   -0.81873E-03  3195   0.187E-01
    887 T=   715. E= -.23025082E+03 F= -.23823164E+03 E0= -.23823164E+03  EK= 0.58216E+01 SP= 0.20E+01 SK= 0.20E+00 mag=      0.000
       N       E                     dE             d eps       ncg     rms          rms(c)
DAV:   1    -0.238182268320E+03    0.48569E-01   -0.44634E-02  5744   0.199E+00    0.189E-01
RMM:   2    -0.238186237008E+03   -0.39687E-02   -0.35877E-02  5034   0.412E-01    0.214E-01
RMM:   3    -0.238187043268E+03   -0.80626E-03   -0.80528E-03  3135   0.185E-01
    888 T=   740. E= -.23024046E+03 F= -.23818704E+03 E0= -.23818704E+03  EK= 0.60282E+01 SP= 0.17E+01 SK= 0.23E+00 mag=     -0.000
       N       E                     dE             d eps       ncg     rms          rms(c)
DAV:   1    -0.238151420176E+03    0.34817E-01   -0.40529E-02  5632   0.202E+00    0.202E-01
RMM:   2    -0.238155485222E+03   -0.40650E-02   -0.37278E-02  5023   0.407E-01    0.275E-01
RMM:   3    -0.238156304801E+03   -0.81958E-03   -0.81042E-03  3126   0.187E-01
    889 T=   770. E= -.23022976E+03 F= -.23815630E+03 E0= -.23815630E+03  EK= 0.62694E+01 SP= 0.14E+01 SK= 0.24E+00 mag=     -0.000
       N       E                     dE             d eps       ncg     rms          rms(c)
DAV:   1    -0.238131511725E+03    0.23973E-01   -0.47066E-02  5784   0.208E+00    0.416E-01
RMM:   2    -0.238135746058E+03   -0.42343E-02   -0.38516E-02  5067   0.424E-01    0.434E-01
RMM:   3    -0.238136605631E+03   -0.85957E-03   -0.86443E-03  3183   0.192E-01
    890 T=   803. E= -.23021876E+03 F= -.23813661E+03 E0= -.23813661E+03  EK= 0.65386E+01 SP= 0.11E+01 SK= 0.25E+00 mag=      0.000
       N       E                     dE             d eps       ncg     rms          rms(c)
DAV:   1    -0.238118800132E+03    0.16946E-01   -0.47679E-02  5712   0.211E+00    0.120E+00
RMM:   2    -0.238123115008E+03   -0.43149E-02   -0.41949E-02  5084   0.443E-01    0.917E-01
RMM:   3    -0.238123768699E+03   -0.65369E-03   -0.10325E-02  3265   0.214E-01
    891 T=   838. E= -.23020584E+03 F= -.23812377E+03 E0= -.23812377E+03  EK= 0.68281E+01 SP= 0.85E+00 SK= 0.24E+00 mag=     -0.000
       N       E                     dE             d eps       ncg     rms          rms(c)
DAV:   1    -0.238112452263E+03    0.10663E-01   -0.54844E-02  5984   0.218E+00    0.292E+00
RMM:   2    -0.238114617871E+03   -0.21656E-02   -0.45505E-02  4957   0.449E-01    0.149E+00
RMM:   3    -0.238114874939E+03   -0.25707E-03   -0.14721E-02  3678   0.237E-01
    892 T=   875. E= -.23019485E+03 F= -.23811487E+03 E0= -.23811487E+03  EK= 0.71239E+01 SP= 0.57E+00 SK= 0.22E+00 mag=      0.000
       N       E                     dE             d eps       ncg     rms          rms(c)
DAV:   1    -0.238101774590E+03    0.12843E-01   -0.69145E-02  6072   0.223E+00    0.768E-01
RMM:   2    -0.238105521353E+03   -0.37468E-02   -0.58818E-02  4660   0.528E-01    0.672E-01
RMM:   3    -0.238106300508E+03   -0.77916E-03   -0.17037E-02  4364   0.267E-01
    893 T=   911. E= -.23018407E+03 F= -.23810630E+03 E0= -.23810630E+03  EK= 0.74154E+01 SP= 0.31E+00 SK= 0.19E+00 mag=     -0.000
       N       E                     dE             d eps       ncg     rms          rms(c)
DAV:   1    -0.238091333926E+03    0.14187E-01   -0.11896E-01  6320   0.226E+00    0.632E-01
RMM:   2    -0.238094075993E+03   -0.27421E-02   -0.58275E-02  4592   0.540E-01    0.240E-01
RMM:   3    -0.238094733362E+03   -0.65737E-03   -0.17315E-02  4406   0.270E-01
    894 T=   944. E= -.23017123E+03 F= -.23809473E+03 E0= -.23809473E+03  EK= 0.76914E+01 SP= 0.77E-01 SK= 0.15E+00 mag=     -0.000
       N       E                     dE             d eps       ncg     rms          rms(c)
DAV:   1    -0.238069775897E+03    0.24300E-01   -0.86913E-02  6120   0.230E+00    0.321E-01
RMM:   2    -0.238077486897E+03   -0.77110E-02   -0.71499E-02  4743   0.540E-01    0.384E-01
RMM:   3    -0.238078929669E+03   -0.14428E-02   -0.15382E-02  4208   0.264E-01
    895 T=   975. E= -.23015935E+03 F= -.23807893E+03 E0= -.23807893E+03  EK= 0.79370E+01 SP= -.13E+00 SK= 0.11E+00 mag=     -0.000
       N       E                     dE             d eps       ncg     rms          rms(c)
DAV:   1    -0.238055399577E+03    0.22087E-01   -0.74419E-02  6000   0.236E+00    0.734E-01
RMM:   2    -0.238055491083E+03   -0.91505E-04   -0.70470E-02  4761   0.512E-01    0.665E-01
RMM:   3    -0.238056354427E+03   -0.86334E-03   -0.21680E-02  4372   0.276E-01
    896 T=  1000. E= -.23014423E+03 F= -.23805635E+03 E0= -.23805635E+03  EK= 0.81430E+01 SP= -.30E+00 SK= 0.73E-01 mag=     -0.000
       N       E                     dE             d eps       ncg     rms          rms(c)
DAV:   1    -0.238026025757E+03    0.29465E-01   -0.82468E-02  6216   0.236E+00    0.159E+00
RMM:   2    -0.238026375571E+03   -0.34981E-03   -0.58728E-02  4744   0.502E-01    0.653E-01
RMM:   3    -0.238026587927E+03   -0.21236E-03   -0.17857E-02  4159   0.265E-01
    897 T=  1019. E= -.23012974E+03 F= -.23802659E+03 E0= -.23802659E+03  EK= 0.82954E+01 SP= -.44E+00 SK= 0.39E-01 mag=     -0.000
       N       E                     dE             d eps       ncg     rms          rms(c)
DAV:   1    -0.237981349056E+03    0.45027E-01   -0.99256E-02  6256   0.243E+00    0.658E-01
RMM:   2    -0.237988484412E+03   -0.71354E-02   -0.72732E-02  4868   0.552E-01    0.291E-01
RMM:   3    -0.237989547810E+03   -0.10634E-02   -0.14468E-02  3926   0.262E-01
    898 T=  1030. E= -.23011552E+03 F= -.23798955E+03 E0= -.23798955E+03  EK= 0.83866E+01 SP= -.53E+00 SK= 0.14E-01 mag=      0.000
       N       E                     dE             d eps       ncg     rms          rms(c)
DAV:   1    -0.237937497542E+03    0.50987E-01   -0.10731E-01  6344   0.241E+00    0.385E-01
RMM:   2    -0.237944982862E+03   -0.74853E-02   -0.75416E-02  4942   0.541E-01    0.529E-01
RMM:   3    -0.237946459695E+03   -0.14768E-02   -0.14707E-02  3803   0.259E-01
    899 T=  1034. E= -.23009580E+03 F= -.23794646E+03 E0= -.23794646E+03  EK= 0.84186E+01 SP= -.57E+00 SK= 0.12E-02 mag=      0.000
       N       E                     dE             d eps       ncg     rms          rms(c)
DAV:   1    -0.237894917608E+03    0.50065E-01   -0.84100E-02  6112   0.240E+00    0.117E+00
RMM:   2    -0.237899639639E+03   -0.47220E-02   -0.67509E-02  4937   0.539E-01    0.978E-01
RMM:   3    -0.237900751354E+03   -0.11117E-02   -0.19230E-02  4077   0.270E-01
    900 T=  1030. E= -.23007988E+03 F= -.23790075E+03 E0= -.23790075E+03  EK= 0.83838E+01 SP= -.57E+00 SK= 0.23E-02 mag=      0.000
       N       E                     dE             d eps       ncg     rms          rms(c)
DAV:   1    -0.237852360701E+03    0.47279E-01   -0.93969E-02  6136   0.251E+00    0.271E+00
RMM:   2    -0.237854520444E+03   -0.21597E-02   -0.65599E-02  4903   0.541E-01    0.128E+00
RMM:   3    -0.237854523914E+03   -0.34701E-05   -0.19288E-02  4271   0.273E-01
    901 T=  1018. E= -.23006554E+03 F= -.23785452E+03 E0= -.23785452E+03  EK= 0.82880E+01 SP= -.52E+00 SK= 0.16E-01 mag=     -0.000
       N       E                     dE             d eps       ncg     rms          rms(c)
DAV:   1    -0.237808156838E+03    0.46364E-01   -0.11679E-01  6360   0.243E+00    0.527E-01
RMM:   2    -0.237811300031E+03   -0.31432E-02   -0.70662E-02  4844   0.553E-01    0.557E-01
RMM:   3    -0.237812054296E+03   -0.75426E-03   -0.14639E-02  3765   0.258E-01
    902 T=  1000. E= -.23004911E+03 F= -.23781205E+03 E0= -.23781205E+03  EK= 0.81439E+01 SP= -.42E+00 SK= 0.40E-01 mag=     -0.000
       N       E                     dE             d eps       ncg     rms          rms(c)
DAV:   1    -0.237767178964E+03    0.44121E-01   -0.84518E-02  6088   0.242E+00    0.123E+00
RMM:   2    -0.237774725331E+03   -0.75464E-02   -0.73395E-02  5013   0.545E-01    0.101E+00
RMM:   3    -0.237776093613E+03   -0.13683E-02   -0.14691E-02  3676   0.254E-01
    903 T=   977. E= -.23003444E+03 F= -.23777609E+03 E0= -.23777609E+03  EK= 0.79574E+01 SP= -.29E+00 SK= 0.72E-01 mag=     -0.000
       N       E                     dE             d eps       ncg     rms          rms(c)
DAV:   1    -0.237745491799E+03    0.29234E-01   -0.78026E-02  6168   0.242E+00    0.235E+00
RMM:   2    -0.237749729790E+03   -0.42380E-02   -0.71743E-02  4989   0.540E-01    0.113E+00
RMM:   3    -0.237750829230E+03   -0.10994E-02   -0.16698E-02  3779   0.264E-01
    904 T=   951. E= -.23001707E+03 F= -.23775083E+03 E0= -.23775083E+03  EK= 0.77454E+01 SP= -.12E+00 SK= 0.11E+00 mag=      0.000
       N       E                     dE             d eps       ncg     rms          rms(c)
DAV:   1    -0.237731960515E+03    0.17769E-01   -0.98919E-02  6176   0.241E+00    0.497E-01
RMM:   2    -0.237737487264E+03   -0.55267E-02   -0.64532E-02  4909   0.537E-01    0.486E-01
RMM:   3    -0.237738586531E+03   -0.10993E-02   -0.13186E-02  3637   0.248E-01
    905 T=   923. E= -.22999845E+03 F= -.23773859E+03 E0= -.23773859E+03  EK= 0.75179E+01 SP= 0.82E-01 SK= 0.14E+00 mag=      0.000
       N       E                     dE             d eps       ncg     rms          rms(c)
DAV:   1    -0.237735003733E+03    0.24835E-02   -0.76493E-02  6160   0.233E+00    0.118E+00
RMM:   2    -0.237740754921E+03   -0.57512E-02   -0.56527E-02  4978   0.514E-01    0.940E-01
RMM:   3    -0.237741830248E+03   -0.10753E-02   -0.12926E-02  3485   0.237E-01
    906 T=   894. E= -.22998330E+03 F= -.23774183E+03 E0= -.23774183E+03  EK= 0.72814E+01 SP= 0.31E+00 SK= 0.17E+00 mag=      0.000
       N       E                     dE             d eps       ncg     rms          rms(c)
DAV:   1    -0.237760456081E+03   -0.19701E-01   -0.64578E-02  5960   0.229E+00    0.207E+00
RMM:   2    -0.237764059779E+03   -0.36037E-02   -0.56251E-02  5075   0.502E-01    0.103E+00
RMM:   3    -0.237764756657E+03   -0.69688E-03   -0.14422E-02  3561   0.243E-01
    907 T=   866. E= -.22996806E+03 F= -.23776476E+03 E0= -.23776476E+03  EK= 0.70519E+01 SP= 0.55E+00 SK= 0.19E+00 mag=      0.000
       N       E                     dE             d eps       ncg     rms          rms(c)
DAV:   1    -0.237802685714E+03   -0.38626E-01   -0.81493E-02  6072   0.225E+00    0.426E-01
RMM:   2    -0.237807887370E+03   -0.52017E-02   -0.56586E-02  5042   0.504E-01    0.410E-01
RMM:   3    -0.237808788604E+03   -0.90123E-03   -0.11488E-02  3481   0.231E-01
    908 T=   840. E= -.22995197E+03 F= -.23780879E+03 E0= -.23780879E+03  EK= 0.68385E+01 SP= 0.81E+00 SK= 0.21E+00 mag=     -0.000
       N       E                     dE             d eps       ncg     rms          rms(c)
DAV:   1    -0.237869615194E+03   -0.61728E-01   -0.64113E-02  6056   0.220E+00    0.943E-01
RMM:   2    -0.237874416129E+03   -0.48009E-02   -0.52653E-02  5041   0.486E-01    0.758E-01
RMM:   3    -0.237875333262E+03   -0.91713E-03   -0.11389E-02  3395   0.226E-01
    909 T=   816. E= -.22993739E+03 F= -.23787533E+03 E0= -.23787533E+03  EK= 0.66457E+01 SP= 0.11E+01 SK= 0.22E+00 mag=      0.000
       N       E                     dE             d eps       ncg     rms          rms(c)
DAV:   1    -0.237963517695E+03   -0.89102E-01   -0.53430E-02  5856   0.214E+00    0.151E+00
RMM:   2    -0.237966119723E+03   -0.26020E-02   -0.49461E-02  5087   0.475E-01    0.721E-01
RMM:   3    -0.237966616680E+03   -0.49696E-03   -0.12404E-02  3455   0.227E-01
    910 T=   796. E= -.22992456E+03 F= -.23796662E+03 E0= -.23796662E+03  EK= 0.64799E+01 SP= 0.13E+01 SK= 0.22E+00 mag=      0.000
       N       E                     dE             d eps       ncg     rms          rms(c)
DAV:   1    -0.238076759162E+03   -0.11064E+00   -0.64714E-02  6056   0.213E+00    0.390E-01
RMM:   2    -0.238081228957E+03   -0.44698E-02   -0.48313E-02  5072   0.473E-01    0.297E-01
RMM:   3    -0.238081976951E+03   -0.74799E-03   -0.10032E-02  3361   0.215E-01
    911 T=   779. E= -.22991268E+03 F= -.23808198E+03 E0= -.23808198E+03  EK= 0.63443E+01 SP= 0.16E+01 SK= 0.22E+00 mag=      0.000
       N       E                     dE             d eps       ncg     rms          rms(c)
DAV:   1    -0.238213750712E+03   -0.13252E+00   -0.53434E-02  6080   0.207E+00    0.651E-01
RMM:   2    -0.238217694775E+03   -0.39441E-02   -0.46635E-02  5031   0.451E-01    0.571E-01
RMM:   3    -0.238218492737E+03   -0.79796E-03   -0.97602E-03  3291   0.206E-01
    912 T=   766. E= -.22990040E+03 F= -.23821849E+03 E0= -.23821849E+03  EK= 0.62392E+01 SP= 0.19E+01 SK= 0.21E+00 mag=     -0.000
       N       E                     dE             d eps       ncg     rms          rms(c)
DAV:   1    -0.238368243510E+03   -0.15055E+00   -0.43784E-02  6024   0.203E+00    0.103E+00
RMM:   2    -0.238370576676E+03   -0.23332E-02   -0.40199E-02  5052   0.433E-01    0.434E-01
RMM:   3    -0.238371079752E+03   -0.50308E-03   -0.10205E-02  3287   0.207E-01
    913 T=   756. E= -.22989059E+03 F= -.23837108E+03 E0= -.23837108E+03  EK= 0.61579E+01 SP= 0.21E+01 SK= 0.20E+00 mag=     -0.000
       N       E                     dE             d eps       ncg     rms          rms(c)
DAV:   1    -0.238526619199E+03   -0.15604E+00   -0.50817E-02  5936   0.204E+00    0.431E-01
RMM:   2    -0.238531241490E+03   -0.46223E-02   -0.45322E-02  5086   0.447E-01    0.238E-01
RMM:   3    -0.238531908678E+03   -0.66719E-03   -0.84434E-03  3228   0.198E-01
    914 T=   748. E= -.22988286E+03 F= -.23853191E+03 E0= -.23853191E+03  EK= 0.60939E+01 SP= 0.24E+01 SK= 0.18E+00 mag=      0.000
       N       E                     dE             d eps       ncg     rms          rms(c)
DAV:   1    -0.238688386980E+03   -0.15715E+00   -0.43891E-02  6008   0.202E+00    0.320E-01
RMM:   2    -0.238692182301E+03   -0.37953E-02   -0.41477E-02  5028   0.428E-01    0.360E-01
RMM:   3    -0.238692983319E+03   -0.80102E-03   -0.83935E-03  3168   0.194E-01
    915 T=   742. E= -.22987262E+03 F= -.23869298E+03 E0= -.23869298E+03  EK= 0.60445E+01 SP= 0.26E+01 SK= 0.17E+00 mag=      0.000
       N       E                     dE             d eps       ncg     rms          rms(c)
DAV:   1    -0.238843794838E+03   -0.15161E+00   -0.30959E-02  5512   0.201E+00    0.448E-01
RMM:   2    -0.238847021678E+03   -0.32268E-02   -0.36988E-02  5052   0.419E-01    0.431E-01
RMM:   3    -0.238847775452E+03   -0.75377E-03   -0.85058E-03  3100   0.190E-01
    916 T=   737. E= -.22986208E+03 F= -.23884778E+03 E0= -.23884778E+03  EK= 0.60015E+01 SP= 0.28E+01 SK= 0.15E+00 mag=      0.000
       N       E                     dE             d eps       ncg     rms          rms(c)
DAV:   1    -0.238987097748E+03   -0.14008E+00   -0.36266E-02  5640   0.205E+00    0.917E-01
RMM:   2    -0.238991089159E+03   -0.39914E-02   -0.39030E-02  5149   0.422E-01    0.358E-01
RMM:   3    -0.238991686727E+03   -0.59757E-03   -0.78663E-03  3059   0.187E-01
    917 T=   732. E= -.22985412E+03 F= -.23899169E+03 E0= -.23899169E+03  EK= 0.59582E+01 SP= 0.30E+01 SK= 0.13E+00 mag=      0.000
       N       E                     dE             d eps       ncg     rms          rms(c)
DAV:   1    -0.239116862933E+03   -0.12577E+00   -0.41803E-02  5888   0.200E+00    0.408E-01
RMM:   2    -0.239121080964E+03   -0.42180E-02   -0.39829E-02  5048   0.420E-01    0.150E-01
RMM:   3    -0.239121861119E+03   -0.78015E-03   -0.80906E-03  3198   0.191E-01
    918 T=   726. E= -.22984618E+03 F= -.23912186E+03 E0= -.23912186E+03  EK= 0.59150E+01 SP= 0.32E+01 SK= 0.11E+00 mag=     -0.000
       N       E                     dE             d eps       ncg     rms          rms(c)
DAV:   1    -0.239232968473E+03   -0.11189E+00   -0.42387E-02  5848   0.198E+00    0.204E-01
RMM:   2    -0.239236589437E+03   -0.36210E-02   -0.35537E-02  5019   0.410E-01    0.285E-01
RMM:   3    -0.239237360327E+03   -0.77089E-03   -0.78357E-03  3139   0.183E-01
    919 T=   721. E= -.22983809E+03 F= -.23923736E+03 E0= -.23923736E+03  EK= 0.58720E+01 SP= 0.34E+01 SK= 0.96E-01 mag=     -0.000
       N       E                     dE             d eps       ncg     rms          rms(c)
DAV:   1    -0.239333955232E+03   -0.97366E-01   -0.36890E-02  5728   0.198E+00    0.625E-01
RMM:   2    -0.239337613130E+03   -0.36579E-02   -0.35046E-02  5052   0.407E-01    0.559E-01
RMM:   3    -0.239338280026E+03   -0.66690E-03   -0.76347E-03  3095   0.181E-01
    920 T=   716. E= -.22982994E+03 F= -.23933828E+03 E0= -.23933828E+03  EK= 0.58300E+01 SP= 0.36E+01 SK= 0.79E-01 mag=      0.000
       N       E                     dE             d eps       ncg     rms          rms(c)
DAV:   1    -0.239422728832E+03   -0.85116E-01   -0.51309E-02  5984   0.197E+00    0.181E+00
RMM:   2    -0.239426150394E+03   -0.34216E-02   -0.37754E-02  5039   0.407E-01    0.862E-01
RMM:   3    -0.239426626014E+03   -0.47562E-03   -0.83881E-03  3198   0.189E-01
    921 T=   711. E= -.22982224E+03 F= -.23942663E+03 E0= -.23942663E+03  EK= 0.57910E+01 SP= 0.38E+01 SK= 0.63E-01 mag=      0.000
       N       E                     dE             d eps       ncg     rms          rms(c)
DAV:   1    -0.239499180197E+03   -0.73030E-01   -0.49898E-02  5968   0.195E+00    0.425E-01
RMM:   2    -0.239503314709E+03   -0.41345E-02   -0.40766E-02  5073   0.423E-01    0.444E-01
RMM:   3    -0.239504018309E+03   -0.70360E-03   -0.80284E-03  3199   0.190E-01
    922 T=   707. E= -.22981408E+03 F= -.23950402E+03 E0= -.23950402E+03  EK= 0.57582E+01 SP= 0.39E+01 SK= 0.48E-01 mag=     -0.000
       N       E                     dE             d eps       ncg     rms          rms(c)
DAV:   1    -0.239569377305E+03   -0.66063E-01   -0.57041E-02  6064   0.194E+00    0.130E+00
RMM:   2    -0.239572552538E+03   -0.31752E-02   -0.39851E-02  5025   0.416E-01    0.986E-01
RMM:   3    -0.239572995441E+03   -0.44290E-03   -0.97114E-03  3294   0.200E-01
    923 T=   704. E= -.22980347E+03 F= -.23957300E+03 E0= -.23957300E+03  EK= 0.57365E+01 SP= 0.40E+01 SK= 0.34E-01 mag=      0.000
       N       E                     dE             d eps       ncg     rms          rms(c)
DAV:   1    -0.239636795375E+03   -0.64243E-01   -0.51996E-02  5992   0.192E+00    0.217E+00
RMM:   2    -0.239636904377E+03   -0.10900E-03   -0.39634E-02  4961   0.422E-01    0.110E+00
RMM:   3    -0.239636829023E+03    0.75354E-04   -0.13552E-02  3631   0.220E-01
    924 T=   703. E= -.22979510E+03 F= -.23963683E+03 E0= -.23963683E+03  EK= 0.57246E+01 SP= 0.41E+01 SK= 0.23E-01 mag=      0.000
       N       E                     dE             d eps       ncg     rms          rms(c)
DAV:   1    -0.239695324609E+03   -0.58420E-01   -0.59836E-02  5896   0.197E+00    0.467E-01
RMM:   2    -0.239697048090E+03   -0.17235E-02   -0.43946E-02  4794   0.450E-01    0.436E-01
RMM:   3    -0.239697461596E+03   -0.41351E-03   -0.10075E-02  3613   0.216E-01
    925 T=   703. E= -.22978759E+03 F= -.23969746E+03 E0= -.23969746E+03  EK= 0.57259E+01 SP= 0.42E+01 SK= 0.14E-01 mag=     -0.000
       N       E                     dE             d eps       ncg     rms          rms(c)
DAV:   1    -0.239752495933E+03   -0.55448E-01   -0.54183E-02  6104   0.191E+00    0.767E-01
RMM:   2    -0.239756787625E+03   -0.42917E-02   -0.43085E-02  5017   0.437E-01    0.666E-01
RMM:   3    -0.239757472322E+03   -0.68470E-03   -0.80682E-03  3125   0.191E-01
    926 T=   706. E= -.22977705E+03 F= -.23975747E+03 E0= -.23975747E+03  EK= 0.57466E+01 SP= 0.42E+01 SK= 0.69E-02 mag=      0.000
       N       E                     dE             d eps       ncg     rms          rms(c)
DAV:   1    -0.239813426425E+03   -0.56639E-01   -0.51101E-02  5776   0.192E+00    0.151E+00
RMM:   2    -0.239817033957E+03   -0.36075E-02   -0.46339E-02  5023   0.440E-01    0.707E-01
RMM:   3    -0.239817782541E+03   -0.74858E-03   -0.10377E-02  3416   0.208E-01
    927 T=   710. E= -.22976774E+03 F= -.23981778E+03 E0= -.23981778E+03  EK= 0.57829E+01 SP= 0.43E+01 SK= 0.25E-02 mag=      0.000
       N       E                     dE             d eps       ncg     rms          rms(c)
DAV:   1    -0.239874797663E+03   -0.57764E-01   -0.44526E-02  5912   0.195E+00    0.378E-01
RMM:   2    -0.239879008512E+03   -0.42108E-02   -0.42006E-02  4977   0.436E-01    0.305E-01
RMM:   3    -0.239879880608E+03   -0.87210E-03   -0.93629E-03  3398   0.204E-01
    928 T=   717. E= -.22975902E+03 F= -.23987988E+03 E0= -.23987988E+03  EK= 0.58363E+01 SP= 0.43E+01 SK= 0.39E-03 mag=     -0.000
       N       E                     dE             d eps       ncg     rms          rms(c)
DAV:   1    -0.239940309932E+03   -0.61301E-01   -0.53958E-02  6008   0.193E+00    0.783E-01
RMM:   2    -0.239943965311E+03   -0.36554E-02   -0.40218E-02  4922   0.425E-01    0.655E-01
RMM:   3    -0.239944598086E+03   -0.63278E-03   -0.90128E-03  3262   0.196E-01
    929 T=   726. E= -.22974784E+03 F= -.23994460E+03 E0= -.23994460E+03  EK= 0.59096E+01 SP= 0.43E+01 SK= 0.66E-04 mag=      0.000
       N       E                     dE             d eps       ncg     rms          rms(c)
DAV:   1    -0.240008783874E+03   -0.64819E-01   -0.54590E-02  5960   0.195E+00    0.162E+00
RMM:   2    -0.240011210819E+03   -0.24269E-02   -0.40666E-02  5021   0.439E-01    0.756E-01
RMM:   3    -0.240011367490E+03   -0.15667E-03   -0.11214E-02  3341   0.209E-01
    930 T=   737. E= -.22973676E+03 F= -.24001137E+03 E0= -.24001137E+03  EK= 0.59986E+01 SP= 0.43E+01 SK= 0.11E-02 mag=      0.000
       N       E                     dE             d eps       ncg     rms          rms(c)
DAV:   1    -0.240073878078E+03   -0.62667E-01   -0.57592E-02  6000   0.197E+00    0.328E-01
RMM:   2    -0.240078321349E+03   -0.44433E-02   -0.47511E-02  5049   0.444E-01    0.391E-01
RMM:   3    -0.240079041308E+03   -0.71996E-03   -0.91490E-03  3272   0.202E-01
    931 T=   749. E= -.22972664E+03 F= -.24007904E+03 E0= -.24007904E+03  EK= 0.60995E+01 SP= 0.43E+01 SK= 0.28E-02 mag=     -0.000
       N       E                     dE             d eps       ncg     rms          rms(c)
DAV:   1    -0.240142094217E+03   -0.63773E-01   -0.51529E-02  5888   0.195E+00    0.124E+00
RMM:   2    -0.240144174958E+03   -0.20807E-02   -0.46445E-02  4977   0.426E-01    0.929E-01
RMM:   3    -0.240144398795E+03   -0.22384E-03   -0.11942E-02  3311   0.209E-01
    932 T=   763. E= -.22971517E+03 F= -.24014440E+03 E0= -.24014440E+03  EK= 0.62095E+01 SP= 0.42E+01 SK= 0.47E-02 mag=      0.000
       N       E                     dE             d eps       ncg     rms          rms(c)
DAV:   1    -0.240211945475E+03   -0.67771E-01   -0.63966E-02  6144   0.195E+00    0.210E+00
RMM:   2    -0.240207865373E+03    0.40801E-02   -0.44463E-02  4917   0.434E-01    0.101E+00
RMM:   3    -0.240206257532E+03    0.16078E-02   -0.18608E-02  3975   0.240E-01
    933 T=   776. E= -.22970478E+03 F= -.24020626E+03 E0= -.24020626E+03  EK= 0.63228E+01 SP= 0.42E+01 SK= 0.63E-02 mag=      0.000
       N       E                     dE             d eps       ncg     rms          rms(c)
DAV:   1    -0.240263111315E+03   -0.55246E-01   -0.10277E-01  6336   0.203E+00    0.468E-01
RMM:   2    -0.240263277290E+03   -0.16598E-03   -0.60872E-02  4892   0.508E-01    0.457E-01
RMM:   3    -0.240263219067E+03    0.58224E-04   -0.13208E-02  3709   0.240E-01
    934 T=   790. E= -.22969470E+03 F= -.24026322E+03 E0= -.24026322E+03  EK= 0.64362E+01 SP= 0.41E+01 SK= 0.73E-02 mag=     -0.000
       N       E                     dE             d eps       ncg     rms          rms(c)
DAV:   1    -0.240304423052E+03   -0.41146E-01   -0.10619E-01  6408   0.200E+00    0.768E-01
RMM:   2    -0.240310072523E+03   -0.56495E-02   -0.59453E-02  4905   0.488E-01    0.720E-01
RMM:   3    -0.240310935620E+03   -0.86310E-03   -0.99664E-03  3359   0.212E-01
    935 T=   804. E= -.22968059E+03 F= -.24031094E+03 E0= -.24031094E+03  EK= 0.65471E+01 SP= 0.41E+01 SK= 0.74E-02 mag=     -0.000
       N       E                     dE             d eps       ncg     rms          rms(c)
DAV:   1    -0.240343733191E+03   -0.33661E-01   -0.69109E-02  6112   0.198E+00    0.116E+00
RMM:   2    -0.240348102396E+03   -0.43692E-02   -0.65907E-02  4884   0.477E-01    0.467E-01
RMM:   3    -0.240349087574E+03   -0.98518E-03   -0.12113E-02  3467   0.228E-01
    936 T=   816. E= -.22966786E+03 F= -.24034909E+03 E0= -.24034909E+03  EK= 0.66471E+01 SP= 0.40E+01 SK= 0.68E-02 mag=      0.000
       N       E                     dE             d eps       ncg     rms          rms(c)
DAV:   1    -0.240370337477E+03   -0.22235E-01   -0.72784E-02  5944   0.202E+00    0.687E-01
RMM:   2    -0.240375462208E+03   -0.51247E-02   -0.53363E-02  4766   0.469E-01    0.292E-01
RMM:   3    -0.240376590963E+03   -0.11288E-02   -0.12013E-02  3601   0.224E-01
    937 T=   827. E= -.22965583E+03 F= -.24037659E+03 E0= -.24037659E+03  EK= 0.67331E+01 SP= 0.40E+01 SK= 0.56E-02 mag=      0.000
       N       E                     dE             d eps       ncg     rms          rms(c)
DAV:   1    -0.240387321308E+03   -0.11859E-01   -0.72575E-02  6056   0.202E+00    0.249E-01
RMM:   2    -0.240392498399E+03   -0.51771E-02   -0.48732E-02  4970   0.461E-01    0.325E-01
RMM:   3    -0.240393529684E+03   -0.10313E-02   -0.10263E-02  3275   0.206E-01
    938 T=   836. E= -.22964118E+03 F= -.24039353E+03 E0= -.24039353E+03  EK= 0.68060E+01 SP= 0.39E+01 SK= 0.41E-02 mag=      0.000
       N       E                     dE             d eps       ncg     rms          rms(c)
DAV:   1    -0.240394186516E+03   -0.16881E-02   -0.65143E-02  5952   0.205E+00    0.743E-01
RMM:   2    -0.240398872959E+03   -0.46864E-02   -0.46660E-02  4973   0.448E-01    0.635E-01
RMM:   3    -0.240399839798E+03   -0.96684E-03   -0.11463E-02  3308   0.211E-01
    939 T=   842. E= -.22962720E+03 F= -.24039984E+03 E0= -.24039984E+03  EK= 0.68605E+01 SP= 0.39E+01 SK= 0.25E-02 mag=     -0.000
       N       E                     dE             d eps       ncg     rms          rms(c)
DAV:   1    -0.240393188453E+03    0.56845E-02   -0.63929E-02  6032   0.204E+00    0.175E+00
RMM:   2    -0.240396712692E+03   -0.35242E-02   -0.44667E-02  5044   0.446E-01    0.825E-01
RMM:   3    -0.240397069631E+03   -0.35694E-03   -0.11162E-02  3256   0.208E-01
    940 T=   847. E= -.22961442E+03 F= -.24039707E+03 E0= -.24039707E+03  EK= 0.68960E+01 SP= 0.39E+01 SK= 0.12E-02 mag=     -0.000
       N       E                     dE             d eps       ncg     rms          rms(c)
DAV:   1    -0.240379363195E+03    0.17349E-01   -0.70895E-02  6096   0.202E+00    0.329E-01
RMM:   2    -0.240384206467E+03   -0.48433E-02   -0.47429E-02  5082   0.452E-01    0.388E-01
RMM:   3    -0.240385096723E+03   -0.89026E-03   -0.97735E-03  3187   0.202E-01
    941 T=   849. E= -.22959943E+03 F= -.24038510E+03 E0= -.24038510E+03  EK= 0.69146E+01 SP= 0.39E+01 SK= 0.30E-03 mag=      0.000
       N       E                     dE             d eps       ncg     rms          rms(c)
DAV:   1    -0.240360162972E+03    0.24043E-01   -0.68337E-02  6048   0.203E+00    0.124E+00
RMM:   2    -0.240363692348E+03   -0.35294E-02   -0.49677E-02  5046   0.445E-01    0.941E-01
RMM:   3    -0.240364269018E+03   -0.57667E-03   -0.12429E-02  3269   0.216E-01
    942 T=   849. E= -.22958605E+03 F= -.24036427E+03 E0= -.24036427E+03  EK= 0.69123E+01 SP= 0.39E+01 SK= 0.91E-08 mag=     -0.000
       N       E                     dE             d eps       ncg     rms          rms(c)
DAV:   1    -0.240336857590E+03    0.26835E-01   -0.79749E-02  6072   0.207E+00    0.210E+00
RMM:   2    -0.240336502508E+03    0.35508E-03   -0.49129E-02  4969   0.453E-01    0.104E+00
RMM:   3    -0.240335847672E+03    0.65484E-03   -0.17317E-02  3986   0.237E-01
    943 T=   846. E= -.22957294E+03 F= -.24033585E+03 E0= -.24033585E+03  EK= 0.68918E+01 SP= 0.39E+01 SK= 0.29E-03 mag=      0.000
       N       E                     dE             d eps       ncg     rms          rms(c)
DAV:   1    -0.240296626936E+03    0.39876E-01   -0.99914E-02  6248   0.203E+00    0.448E-01
RMM:   2    -0.240299028567E+03   -0.24016E-02   -0.56695E-02  4950   0.486E-01    0.446E-01
RMM:   3    -0.240299477921E+03   -0.44935E-03   -0.12014E-02  3466   0.229E-01
    944 T=   842. E= -.22955909E+03 F= -.24029948E+03 E0= -.24029948E+03  EK= 0.68542E+01 SP= 0.39E+01 SK= 0.11E-02 mag=      0.000
       N       E                     dE             d eps       ncg     rms          rms(c)
DAV:   1    -0.240248199226E+03    0.50829E-01   -0.97781E-02  6296   0.204E+00    0.755E-01
RMM:   2    -0.240254069842E+03   -0.58706E-02   -0.60996E-02  5047   0.486E-01    0.686E-01
RMM:   3    -0.240255022177E+03   -0.95233E-03   -0.10815E-02  3329   0.217E-01
    945 T=   835. E= -.22954672E+03 F= -.24025502E+03 E0= -.24025502E+03  EK= 0.67984E+01 SP= 0.39E+01 SK= 0.21E-02 mag=     -0.000
       N       E                     dE             d eps       ncg     rms          rms(c)
DAV:   1    -0.240197543693E+03    0.56526E-01   -0.81450E-02  6256   0.203E+00    0.137E+00
RMM:   2    -0.240201955167E+03   -0.44115E-02   -0.57989E-02  4912   0.474E-01    0.594E-01
RMM:   3    -0.240202938470E+03   -0.98330E-03   -0.12296E-02  3417   0.221E-01
    946 T=   826. E= -.22953448E+03 F= -.24020294E+03 E0= -.24020294E+03  EK= 0.67278E+01 SP= 0.39E+01 SK= 0.32E-02 mag=     -0.000
       N       E                     dE             d eps       ncg     rms          rms(c)
DAV:   1    -0.240137833772E+03    0.64121E-01   -0.73810E-02  6136   0.204E+00    0.510E-01
RMM:   2    -0.240142928489E+03   -0.50947E-02   -0.50338E-02  4942   0.467E-01    0.294E-01
RMM:   3    -0.240144086417E+03   -0.11579E-02   -0.11586E-02  3408   0.220E-01
    947 T=   816. E= -.22952086E+03 F= -.24014409E+03 E0= -.24014409E+03  EK= 0.66468E+01 SP= 0.40E+01 SK= 0.41E-02 mag=     -0.000
       N       E                     dE             d eps       ncg     rms          rms(c)
DAV:   1    -0.240075071534E+03    0.67857E-01   -0.69504E-02  6040   0.203E+00    0.403E-01
RMM:   2    -0.240079515467E+03   -0.44439E-02   -0.42795E-02  4974   0.444E-01    0.418E-01
RMM:   3    -0.240080501269E+03   -0.98580E-03   -0.10014E-02  3152   0.200E-01
    948 T=   805. E= -.22950681E+03 F= -.24008050E+03 E0= -.24008050E+03  EK= 0.65586E+01 SP= 0.40E+01 SK= 0.47E-02 mag=      0.000
       N       E                     dE             d eps       ncg     rms          rms(c)
DAV:   1    -0.240008657198E+03    0.70858E-01   -0.64629E-02  5952   0.200E+00    0.567E-01
RMM:   2    -0.240013038270E+03   -0.43811E-02   -0.42059E-02  5018   0.441E-01    0.509E-01
RMM:   3    -0.240014087314E+03   -0.10490E-02   -0.11155E-02  3238   0.205E-01
    949 T=   794. E= -.22949468E+03 F= -.24001409E+03 E0= -.24001409E+03  EK= 0.64651E+01 SP= 0.40E+01 SK= 0.46E-02 mag=     -0.000
       N       E                     dE             d eps       ncg     rms          rms(c)
DAV:   1    -0.239943504450E+03    0.69534E-01   -0.62256E-02  5944   0.201E+00    0.152E+00
RMM:   2    -0.239947320191E+03   -0.38157E-02   -0.41874E-02  5008   0.428E-01    0.723E-01
RMM:   3    -0.239947945866E+03   -0.62567E-03   -0.10400E-02  3181   0.201E-01
    950 T=   782. E= -.22948404E+03 F= -.23994795E+03 E0= -.23994795E+03  EK= 0.63722E+01 SP= 0.41E+01 SK= 0.41E-02 mag=     -0.000
       N       E                     dE             d eps       ncg     rms          rms(c)
DAV:   1    -0.239880347262E+03    0.66973E-01   -0.72831E-02  6016   0.200E+00    0.332E-01
RMM:   2    -0.239885406013E+03   -0.50588E-02   -0.46281E-02  5116   0.453E-01    0.315E-01
RMM:   3    -0.239886383737E+03   -0.97772E-03   -0.10064E-02  3226   0.207E-01
    951 T=   772. E= -.22947176E+03 F= -.23988638E+03 E0= -.23988638E+03  EK= 0.62894E+01 SP= 0.41E+01 SK= 0.31E-02 mag=      0.000
       N       E                     dE             d eps       ncg     rms          rms(c)
DAV:   1    -0.239827642629E+03    0.57763E-01   -0.77320E-02  6120   0.201E+00    0.971E-01
RMM:   2    -0.239831038125E+03   -0.33955E-02   -0.42830E-02  4972   0.438E-01    0.762E-01
RMM:   3    -0.239831662405E+03   -0.62428E-03   -0.11994E-02  3345   0.216E-01
    952 T=   764. E= -.22945912E+03 F= -.23983166E+03 E0= -.23983166E+03  EK= 0.62195E+01 SP= 0.42E+01 SK= 0.20E-02 mag=     -0.000
       N       E                     dE             d eps       ncg     rms          rms(c)
DAV:   1    -0.239787642206E+03    0.43396E-01   -0.61238E-02  6008   0.202E+00    0.163E+00
RMM:   2    -0.239788356798E+03   -0.71459E-03   -0.41829E-02  5053   0.446E-01    0.791E-01
RMM:   3    -0.239788187001E+03    0.16980E-03   -0.13452E-02  3515   0.225E-01
    953 T=   757. E= -.22944879E+03 F= -.23978819E+03 E0= -.23978819E+03  EK= 0.61658E+01 SP= 0.42E+01 SK= 0.93E-03 mag=     -0.000
       N       E                     dE             d eps       ncg     rms          rms(c)
DAV:   1    -0.239754720656E+03    0.33636E-01   -0.74942E-02  6184   0.203E+00    0.367E-01
RMM:   2    -0.239757880140E+03   -0.31595E-02   -0.48140E-02  4993   0.475E-01    0.344E-01
RMM:   3    -0.239758481086E+03   -0.60095E-03   -0.10156E-02  3353   0.218E-01
    954 T=   753. E= -.22943830E+03 F= -.23975848E+03 E0= -.23975848E+03  EK= 0.61342E+01 SP= 0.42E+01 SK= 0.22E-03 mag=     -0.000
       N       E                     dE             d eps       ncg     rms          rms(c)
DAV:   1    -0.239737844603E+03    0.20036E-01   -0.67283E-02  6152   0.200E+00    0.722E-01
RMM:   2    -0.239742180540E+03   -0.43359E-02   -0.51003E-02  5053   0.461E-01    0.624E-01
RMM:   3    -0.239742983018E+03   -0.80248E-03   -0.10045E-02  3248   0.208E-01
    955 T=   752. E= -.22942836E+03 F= -.23974298E+03 E0= -.23974298E+03  EK= 0.61252E+01 SP= 0.42E+01 SK= 0.43E-05 mag=     -0.000
       N       E                     dE             d eps       ncg     rms          rms(c)
DAV:   1    -0.239740044180E+03    0.21364E-02   -0.58246E-02  6000   0.200E+00    0.126E+00
RMM:   2    -0.239742197732E+03   -0.21536E-02   -0.44533E-02  5041   0.449E-01    0.579E-01
RMM:   3    -0.239742706372E+03   -0.50864E-03   -0.11537E-02  3406   0.216E-01
    956 T=   754. E= -.22941966E+03 F= -.23974271E+03 E0= -.23974271E+03  EK= 0.61393E+01 SP= 0.42E+01 SK= 0.35E-03 mag=     -0.000
       N       E                     dE             d eps       ncg     rms          rms(c)
DAV:   1    -0.239751098864E+03   -0.89011E-02   -0.68754E-02  6064   0.203E+00    0.410E-01
RMM:   2    -0.239755817154E+03   -0.47183E-02   -0.49924E-02  5097   0.468E-01    0.272E-01
RMM:   3    -0.239756634422E+03   -0.81727E-03   -0.98478E-03  3345   0.213E-01
    957 T=   758. E= -.22941066E+03 F= -.23975663E+03 E0= -.23975663E+03  EK= 0.61766E+01 SP= 0.42E+01 SK= 0.12E-02 mag=      0.000
       N       E                     dE             d eps       ncg     rms          rms(c)
DAV:   1    -0.239778600042E+03   -0.22783E-01   -0.66462E-02  6056   0.201E+00    0.498E-01
RMM:   2    -0.239782711083E+03   -0.41110E-02   -0.47435E-02  4974   0.451E-01    0.496E-01
RMM:   3    -0.239783554171E+03   -0.84309E-03   -0.95017E-03  3268   0.204E-01
    958 T=   766. E= -.22940159E+03 F= -.23978355E+03 E0= -.23978355E+03  EK= 0.62351E+01 SP= 0.41E+01 SK= 0.23E-02 mag=      0.000
       N       E                     dE             d eps       ncg     rms          rms(c)
DAV:   1    -0.239815810658E+03   -0.33100E-01   -0.45558E-02  5920   0.200E+00    0.459E-01
RMM:   2    -0.239819743550E+03   -0.39329E-02   -0.44351E-02  5084   0.435E-01    0.202E-01
RMM:   3    -0.239820594692E+03   -0.85114E-03   -0.94749E-03  3196   0.203E-01
    959 T=   775. E= -.22939279E+03 F= -.23982059E+03 E0= -.23982059E+03  EK= 0.63103E+01 SP= 0.41E+01 SK= 0.34E-02 mag=      0.000
       N       E                     dE             d eps       ncg     rms          rms(c)
DAV:   1    -0.239857984573E+03   -0.38241E-01   -0.63288E-02  6048   0.204E+00    0.601E-01
RMM:   2    -0.239862712899E+03   -0.47283E-02   -0.46624E-02  5042   0.453E-01    0.226E-01
RMM:   3    -0.239863551264E+03   -0.83836E-03   -0.92455E-03  3260   0.203E-01
    960 T=   785. E= -.22938481E+03 F= -.23986355E+03 E0= -.23986355E+03  EK= 0.63959E+01 SP= 0.41E+01 SK= 0.43E-02 mag=     -0.000
       N       E                     dE             d eps       ncg     rms          rms(c)
DAV:   1    -0.239901706818E+03   -0.38994E-01   -0.48167E-02  5896   0.206E+00    0.280E-01
RMM:   2    -0.239905918959E+03   -0.42121E-02   -0.41695E-02  5119   0.444E-01    0.162E-01
RMM:   3    -0.239906749223E+03   -0.83026E-03   -0.85549E-03  3148   0.197E-01
    961 T=   796. E= -.22937652E+03 F= -.23990675E+03 E0= -.23990675E+03  EK= 0.64854E+01 SP= 0.40E+01 SK= 0.47E-02 mag=     -0.000
       N       E                     dE             d eps       ncg     rms          rms(c)
DAV:   1    -0.239940290966E+03   -0.34372E-01   -0.46505E-02  5792   0.205E+00    0.206E-01
RMM:   2    -0.239944639199E+03   -0.43482E-02   -0.42818E-02  5061   0.428E-01    0.297E-01
RMM:   3    -0.239945398605E+03   -0.75941E-03   -0.79164E-03  3143   0.187E-01
    962 T=   807. E= -.22936786E+03 F= -.23994540E+03 E0= -.23994540E+03  EK= 0.65720E+01 SP= 0.40E+01 SK= 0.46E-02 mag=      0.000
       N       E                     dE             d eps       ncg     rms          rms(c)
DAV:   1    -0.239968949624E+03   -0.24310E-01   -0.56745E-02  5936   0.207E+00    0.431E-01
RMM:   2    -0.239973383652E+03   -0.44340E-02   -0.42748E-02  5081   0.435E-01    0.471E-01
RMM:   3    -0.239974231574E+03   -0.84792E-03   -0.88388E-03  3230   0.196E-01
    963 T=   816. E= -.22935964E+03 F= -.23997423E+03 E0= -.23997423E+03  EK= 0.66474E+01 SP= 0.40E+01 SK= 0.41E-02 mag=      0.000
       N       E                     dE             d eps       ncg     rms          rms(c)
DAV:   1    -0.239984158754E+03   -0.10775E-01   -0.58750E-02  5984   0.210E+00    0.824E-01
RMM:   2    -0.239988574803E+03   -0.44160E-02   -0.43790E-02  4997   0.438E-01    0.722E-01
RMM:   3    -0.239989288888E+03   -0.71408E-03   -0.86466E-03  3297   0.194E-01
    964 T=   823. E= -.22935198E+03 F= -.23998929E+03 E0= -.23998929E+03  EK= 0.67055E+01 SP= 0.39E+01 SK= 0.32E-02 mag=     -0.000
       N       E                     dE             d eps       ncg     rms          rms(c)
DAV:   1    -0.239984332989E+03    0.42418E-02   -0.63463E-02  6096   0.208E+00    0.317E+00
RMM:   2    -0.239987356812E+03   -0.30238E-02   -0.45674E-02  5076   0.442E-01    0.161E+00
RMM:   3    -0.239987435048E+03   -0.78236E-04   -0.10865E-02  3370   0.212E-01
    965 T=   828. E= -.22934465E+03 F= -.23998744E+03 E0= -.23998744E+03  EK= 0.67417E+01 SP= 0.39E+01 SK= 0.23E-02 mag=     -0.000
       N       E                     dE             d eps       ncg     rms          rms(c)
DAV:   1    -0.239962181810E+03    0.25175E-01   -0.71904E-02  5992   0.212E+00    0.117E+00
RMM:   2    -0.239966459273E+03   -0.42775E-02   -0.53350E-02  5013   0.474E-01    0.969E-01
RMM:   3    -0.239966598523E+03   -0.13925E-03   -0.10873E-02  3427   0.220E-01
    966 T=   829. E= -.22933557E+03 F= -.23996660E+03 E0= -.23996660E+03  EK= 0.67550E+01 SP= 0.39E+01 SK= 0.14E-02 mag=     -0.000
       N       E                     dE             d eps       ncg     rms          rms(c)
DAV:   1    -0.239928194495E+03    0.38265E-01   -0.83485E-02  6248   0.205E+00    0.123E+00
RMM:   2    -0.239928795543E+03   -0.60105E-03   -0.49523E-02  4882   0.456E-01    0.431E-01
RMM:   3    -0.239928480595E+03    0.31495E-03   -0.12426E-02  3602   0.215E-01
    967 T=   828. E= -.22932775E+03 F= -.23992848E+03 E0= -.23992848E+03  EK= 0.67436E+01 SP= 0.39E+01 SK= 0.74E-03 mag=     -0.000
       N       E                     dE             d eps       ncg     rms          rms(c)
DAV:   1    -0.239870428089E+03    0.58367E-01   -0.80721E-02  6160   0.210E+00    0.348E-01
RMM:   2    -0.239874548862E+03   -0.41208E-02   -0.59230E-02  4966   0.478E-01    0.417E-01
RMM:   3    -0.239874778472E+03   -0.22961E-03   -0.87134E-03  3313   0.206E-01
    968 T=   824. E= -.22932166E+03 F= -.23987478E+03 E0= -.23987478E+03  EK= 0.67090E+01 SP= 0.38E+01 SK= 0.33E-03 mag=      0.000
       N       E                     dE             d eps       ncg     rms          rms(c)
DAV:   1    -0.239803944568E+03    0.70604E-01   -0.63971E-02  6064   0.207E+00    0.753E-01
RMM:   2    -0.239806781961E+03   -0.28374E-02   -0.68648E-02  4973   0.477E-01    0.702E-01
RMM:   3    -0.239807554223E+03   -0.77226E-03   -0.11075E-02  3443   0.221E-01
    969 T=   818. E= -.22931074E+03 F= -.23980755E+03 E0= -.23980755E+03  EK= 0.66608E+01 SP= 0.38E+01 SK= 0.11E-03 mag=      0.000
       N       E                     dE             d eps       ncg     rms          rms(c)
DAV:   1    -0.239734894680E+03    0.71887E-01   -0.59776E-02  6088   0.202E+00    0.157E+00
RMM:   2    -0.239732746307E+03    0.21484E-02   -0.51227E-02  4915   0.455E-01    0.679E-01
RMM:   3    -0.239732495441E+03    0.25087E-03   -0.13618E-02  3687   0.224E-01
    970 T=   810. E= -.22930242E+03 F= -.23973250E+03 E0= -.23973250E+03  EK= 0.65983E+01 SP= 0.38E+01 SK= 0.32E-04 mag=     -0.000
       N       E                     dE             d eps       ncg     rms          rms(c)
DAV:   1    -0.239650684973E+03    0.82061E-01   -0.85671E-02  6256   0.214E+00    0.634E-01
RMM:   2    -0.239654793685E+03   -0.41087E-02   -0.57989E-02  4970   0.491E-01    0.347E-01
RMM:   3    -0.239654897678E+03   -0.10399E-03   -0.90962E-03  3318   0.212E-01
    971 T=   802. E= -.22929701E+03 F= -.23965490E+03 E0= -.23965490E+03  EK= 0.65283E+01 SP= 0.38E+01 SK= 0.12E-04 mag=     -0.000
       N       E                     dE             d eps       ncg     rms          rms(c)
DAV:   1    -0.239571829900E+03    0.82964E-01   -0.93493E-02  6288   0.207E+00    0.439E-01
RMM:   2    -0.239577588643E+03   -0.57587E-02   -0.67090E-02  5014   0.490E-01    0.554E-01
RMM:   3    -0.239578460768E+03   -0.87213E-03   -0.96937E-03  3355   0.214E-01
    972 T=   794. E= -.22928653E+03 F= -.23957846E+03 E0= -.23957846E+03  EK= 0.64642E+01 SP= 0.38E+01 SK= 0.19E-04 mag=      0.000
       N       E                     dE             d eps       ncg     rms          rms(c)
DAV:   1    -0.239505603064E+03    0.71986E-01   -0.61792E-02  5952   0.200E+00    0.883E-01
RMM:   2    -0.239507622083E+03   -0.20190E-02   -0.56972E-02  4969   0.465E-01    0.745E-01
RMM:   3    -0.239508244247E+03   -0.62216E-03   -0.12086E-02  3527   0.222E-01
    973 T=   786. E= -.22927894E+03 F= -.23950824E+03 E0= -.23950824E+03  EK= 0.64046E+01 SP= 0.38E+01 SK= 0.61E-04 mag=     -0.000
       N       E                     dE             d eps       ncg     rms          rms(c)
DAV:   1    -0.239445989096E+03    0.61633E-01   -0.55546E-02  6088   0.204E+00    0.200E+00
RMM:   2    -0.239447533445E+03   -0.15443E-02   -0.48130E-02  4955   0.461E-01    0.934E-01
RMM:   3    -0.239447274955E+03    0.25849E-03   -0.11555E-02  3473   0.213E-01
    974 T=   781. E= -.22927135E+03 F= -.23944727E+03 E0= -.23944727E+03  EK= 0.63569E+01 SP= 0.38E+01 SK= 0.19E-03 mag=     -0.000
       N       E                     dE             d eps       ncg     rms          rms(c)
DAV:   1    -0.239395442996E+03    0.52090E-01   -0.92720E-02  6320   0.196E+00    0.413E-01
RMM:   2    -0.239398345113E+03   -0.29021E-02   -0.50019E-02  4908   0.454E-01    0.386E-01
RMM:   3    -0.239398607661E+03   -0.26255E-03   -0.82766E-03  3243   0.201E-01
    975 T=   777. E= -.22926300E+03 F= -.23939861E+03 E0= -.23939861E+03  EK= 0.63260E+01 SP= 0.38E+01 SK= 0.45E-03 mag=     -0.000
       N       E                     dE             d eps       ncg     rms          rms(c)
DAV:   1    -0.239357694037E+03    0.40651E-01   -0.52055E-02  6136   0.197E+00    0.947E-01
RMM:   2    -0.239361994329E+03   -0.43003E-02   -0.54936E-02  5044   0.457E-01    0.807E-01
RMM:   3    -0.239362696322E+03   -0.70199E-03   -0.85283E-03  3163   0.200E-01
    976 T=   775. E= -.22925858E+03 F= -.23936270E+03 E0= -.23936270E+03  EK= 0.63084E+01 SP= 0.38E+01 SK= 0.89E-03 mag=      0.000
       N       E                     dE             d eps       ncg     rms          rms(c)
DAV:   1    -0.239337732660E+03    0.24262E-01   -0.58728E-02  5992   0.201E+00    0.173E+00
RMM:   2    -0.239339451445E+03   -0.17188E-02   -0.50948E-02  5019   0.446E-01    0.795E-01
RMM:   3    -0.239339883641E+03   -0.43220E-03   -0.11588E-02  3428   0.211E-01
    977 T=   775. E= -.22925054E+03 F= -.23933988E+03 E0= -.23933988E+03  EK= 0.63125E+01 SP= 0.38E+01 SK= 0.15E-02 mag=     -0.000
       N       E                     dE             d eps       ncg     rms          rms(c)
DAV:   1    -0.239325440623E+03    0.14011E-01   -0.51662E-02  6080   0.199E+00    0.379E-01
RMM:   2    -0.239328719904E+03   -0.32793E-02   -0.46978E-02  4982   0.450E-01    0.354E-01
RMM:   3    -0.239329176683E+03   -0.45678E-03   -0.80031E-03  3162   0.197E-01
    978 T=   778. E= -.22924123E+03 F= -.23932918E+03 E0= -.23932918E+03  EK= 0.63348E+01 SP= 0.38E+01 SK= 0.22E-02 mag=     -0.000
       N       E                     dE             d eps       ncg     rms          rms(c)
DAV:   1    -0.239323271425E+03    0.54485E-02   -0.63213E-02  6016   0.199E+00    0.755E-01
RMM:   2    -0.239327603187E+03   -0.43318E-02   -0.50556E-02  5041   0.450E-01    0.701E-01
RMM:   3    -0.239328300982E+03   -0.69780E-03   -0.83458E-03  3158   0.196E-01
    979 T=   782. E= -.22923610E+03 F= -.23932830E+03 E0= -.23932830E+03  EK= 0.63672E+01 SP= 0.37E+01 SK= 0.29E-02 mag=      0.000
       N       E                     dE             d eps       ncg     rms          rms(c)
DAV:   1    -0.239332284299E+03   -0.46811E-02   -0.52274E-02  5992   0.202E+00    0.160E+00
RMM:   2    -0.239334757263E+03   -0.24730E-02   -0.44257E-02  5036   0.432E-01    0.728E-01
RMM:   3    -0.239335177967E+03   -0.42070E-03   -0.10082E-02  3303   0.203E-01
    980 T=   787. E= -.22922983E+03 F= -.23933518E+03 E0= -.23933518E+03  EK= 0.64122E+01 SP= 0.37E+01 SK= 0.35E-02 mag=      0.000
       N       E                     dE             d eps       ncg     rms          rms(c)
DAV:   1    -0.239342107688E+03   -0.73504E-02   -0.64802E-02  5936   0.202E+00    0.382E-01
RMM:   2    -0.239346422904E+03   -0.43152E-02   -0.48317E-02  5082   0.456E-01    0.351E-01
RMM:   3    -0.239346975756E+03   -0.55285E-03   -0.81227E-03  3225   0.195E-01
    981 T=   794. E= -.22922267E+03 F= -.23934698E+03 E0= -.23934698E+03  EK= 0.64658E+01 SP= 0.37E+01 SK= 0.40E-02 mag=     -0.000
       N       E                     dE             d eps       ncg     rms          rms(c)
DAV:   1    -0.239357024034E+03   -0.10601E-01   -0.46021E-02  6016   0.201E+00    0.892E-01
RMM:   2    -0.239360082023E+03   -0.30580E-02   -0.47912E-02  4996   0.434E-01    0.757E-01
RMM:   3    -0.239360607989E+03   -0.52597E-03   -0.95957E-03  3231   0.200E-01
    982 T=   801. E= -.22921639E+03 F= -.23936061E+03 E0= -.23936061E+03  EK= 0.65219E+01 SP= 0.36E+01 SK= 0.41E-02 mag=     -0.000
       N       E                     dE             d eps       ncg     rms          rms(c)
DAV:   1    -0.239375229033E+03   -0.15147E-01   -0.68282E-02  6024   0.204E+00    0.175E+00
RMM:   2    -0.239374968806E+03    0.26023E-03   -0.45239E-02  4989   0.438E-01    0.791E-01
RMM:   3    -0.239374526759E+03    0.44205E-03   -0.13771E-02  3821   0.220E-01
    983 T=   808. E= -.22920936E+03 F= -.23937453E+03 E0= -.23937453E+03  EK= 0.65791E+01 SP= 0.36E+01 SK= 0.39E-02 mag=      0.000
       N       E                     dE             d eps       ncg     rms          rms(c)
DAV:   1    -0.239383788138E+03   -0.88193E-02   -0.73188E-02  6216   0.205E+00    0.379E-01
RMM:   2    -0.239387136975E+03   -0.33488E-02   -0.57892E-02  4966   0.475E-01    0.390E-01
RMM:   3    -0.239387412574E+03   -0.27560E-03   -0.93502E-03  3360   0.211E-01
    984 T=   815. E= -.22920258E+03 F= -.23938741E+03 E0= -.23938741E+03  EK= 0.66337E+01 SP= 0.35E+01 SK= 0.34E-02 mag=      0.000
       N       E                     dE             d eps       ncg     rms          rms(c)
DAV:   1    -0.239391383208E+03   -0.42462E-02   -0.97616E-02  6136   0.206E+00    0.760E-01
RMM:   2    -0.239396091961E+03   -0.47088E-02   -0.64633E-02  4984   0.483E-01    0.758E-01
RMM:   3    -0.239396875087E+03   -0.78313E-03   -0.99997E-03  3426   0.213E-01
    985 T=   821. E= -.22919399E+03 F= -.23939688E+03 E0= -.23939688E+03  EK= 0.66840E+01 SP= 0.35E+01 SK= 0.27E-02 mag=     -0.000
       N       E                     dE             d eps       ncg     rms          rms(c)
DAV:   1    -0.239401620438E+03   -0.55285E-02   -0.58605E-02  6056   0.204E+00    0.141E+00
RMM:   2    -0.239403624209E+03   -0.20038E-02   -0.52268E-02  4947   0.452E-01    0.603E-01
RMM:   3    -0.239404064917E+03   -0.44071E-03   -0.11096E-02  3407   0.214E-01
    986 T=   826. E= -.22918666E+03 F= -.23940406E+03 E0= -.23940406E+03  EK= 0.67267E+01 SP= 0.35E+01 SK= 0.19E-02 mag=      0.000
       N       E                     dE             d eps       ncg     rms          rms(c)
DAV:   1    -0.239401576934E+03    0.20473E-02   -0.71472E-02  6088   0.208E+00    0.647E-01
RMM:   2    -0.239406771765E+03   -0.51948E-02   -0.55895E-02  4982   0.475E-01    0.316E-01
RMM:   3    -0.239407360361E+03   -0.58860E-03   -0.88596E-03  3342   0.205E-01
    987 T=   830. E= -.22918071E+03 F= -.23940736E+03 E0= -.23940736E+03  EK= 0.67589E+01 SP= 0.35E+01 SK= 0.11E-02 mag=      0.000
       N       E                     dE             d eps       ncg     rms          rms(c)
DAV:   1    -0.239399371936E+03    0.73998E-02   -0.62364E-02  6040   0.208E+00    0.378E-01
RMM:   2    -0.239404193051E+03   -0.48211E-02   -0.55119E-02  4987   0.461E-01    0.474E-01
RMM:   3    -0.239405053656E+03   -0.86060E-03   -0.93520E-03  3288   0.208E-01
    988 T=   833. E= -.22917171E+03 F= -.23940505E+03 E0= -.23940505E+03  EK= 0.67823E+01 SP= 0.35E+01 SK= 0.51E-03 mag=      0.000
       N       E                     dE             d eps       ncg     rms          rms(c)
DAV:   1    -0.239392830485E+03    0.11363E-01   -0.55492E-02  6056   0.206E+00    0.981E-01
RMM:   2    -0.239396106580E+03   -0.32761E-02   -0.47377E-02  5027   0.449E-01    0.816E-01
RMM:   3    -0.239396691708E+03   -0.58513E-03   -0.11195E-02  3393   0.213E-01
    989 T=   834. E= -.22916306E+03 F= -.23939669E+03 E0= -.23939669E+03  EK= 0.67925E+01 SP= 0.34E+01 SK= 0.12E-03 mag=      0.000
       N       E                     dE             d eps       ncg     rms          rms(c)
DAV:   1    -0.239377981106E+03    0.18125E-01   -0.69394E-02  6088   0.211E+00    0.220E+00
RMM:   2    -0.239380617864E+03   -0.26368E-02   -0.51463E-02  4978   0.462E-01    0.103E+00
RMM:   3    -0.239380689692E+03   -0.71828E-04   -0.11884E-02  3530   0.221E-01
    990 T=   834. E= -.22915471E+03 F= -.23938069E+03 E0= -.23938069E+03  EK= 0.67876E+01 SP= 0.34E+01 SK= 0.15E-05 mag=      0.000
       N       E                     dE             d eps       ncg     rms          rms(c)
DAV:   1    -0.239351087518E+03    0.29530E-01   -0.71899E-02  6088   0.208E+00    0.382E-01
RMM:   2    -0.239355369080E+03   -0.42816E-02   -0.57749E-02  4972   0.475E-01    0.439E-01
RMM:   3    -0.239356033330E+03   -0.66425E-03   -0.97614E-03  3374   0.214E-01
    991 T=   831. E= -.22914506E+03 F= -.23935603E+03 E0= -.23935603E+03  EK= 0.67684E+01 SP= 0.34E+01 SK= 0.16E-03 mag=     -0.000
       N       E                     dE             d eps       ncg     rms          rms(c)
DAV:   1    -0.239315463638E+03    0.39905E-01   -0.80931E-02  6112   0.209E+00    0.121E+00
RMM:   2    -0.239319780323E+03   -0.43167E-02   -0.57109E-02  4992   0.476E-01    0.101E+00
RMM:   3    -0.239320456345E+03   -0.67602E-03   -0.11353E-02  3419   0.220E-01
    992 T=   827. E= -.22913660E+03 F= -.23932046E+03 E0= -.23932046E+03  EK= 0.67306E+01 SP= 0.35E+01 SK= 0.52E-03 mag=      0.000
       N       E                     dE             d eps       ncg     rms          rms(c)
DAV:   1    -0.239274962918E+03    0.44817E-01   -0.65498E-02  6016   0.213E+00    0.226E+00
RMM:   2    -0.239274897403E+03    0.65516E-04   -0.51831E-02  4985   0.474E-01    0.109E+00
RMM:   3    -0.239274660093E+03    0.23731E-03   -0.16255E-02  4001   0.239E-01
    993 T=   820. E= -.22912651E+03 F= -.23927466E+03 E0= -.23927466E+03  EK= 0.66788E+01 SP= 0.35E+01 SK= 0.97E-03 mag=     -0.000
       N       E                     dE             d eps       ncg     rms          rms(c)
DAV:   1    -0.239217777525E+03    0.57120E-01   -0.83951E-02  6184   0.208E+00    0.481E-01
RMM:   2    -0.239220413054E+03   -0.26355E-02   -0.60713E-02  4910   0.495E-01    0.488E-01
RMM:   3    -0.239220837350E+03   -0.42430E-03   -0.11126E-02  3590   0.228E-01
    994 T=   812. E= -.22911520E+03 F= -.23922084E+03 E0= -.23922084E+03  EK= 0.66162E+01 SP= 0.35E+01 SK= 0.14E-02 mag=     -0.000
       N       E                     dE             d eps       ncg     rms          rms(c)
DAV:   1    -0.239155386034E+03    0.65027E-01   -0.80113E-02  6096   0.206E+00    0.106E+00
RMM:   2    -0.239160549194E+03   -0.51632E-02   -0.63814E-02  4932   0.493E-01    0.932E-01
RMM:   3    -0.239161386912E+03   -0.83772E-03   -0.10816E-02  3472   0.223E-01
    995 T=   804. E= -.22910580E+03 F= -.23916139E+03 E0= -.23916139E+03  EK= 0.65437E+01 SP= 0.35E+01 SK= 0.16E-02 mag=      0.000
       N       E                     dE             d eps       ncg     rms          rms(c)
DAV:   1    -0.239099638829E+03    0.60910E-01   -0.60916E-02  6048   0.208E+00    0.215E+00
RMM:   2    -0.239101151410E+03   -0.15126E-02   -0.55890E-02  4942   0.473E-01    0.101E+00
RMM:   3    -0.239101429812E+03   -0.27840E-03   -0.13476E-02  3623   0.232E-01
    996 T=   795. E= -.22909555E+03 F= -.23910143E+03 E0= -.23910143E+03  EK= 0.64711E+01 SP= 0.35E+01 SK= 0.16E-02 mag=      0.000
       N       E                     dE             d eps       ncg     rms          rms(c)
DAV:   1    -0.239040417020E+03    0.60734E-01   -0.77890E-02  6080   0.204E+00    0.503E-01
RMM:   2    -0.239044489601E+03   -0.40726E-02   -0.55753E-02  4914   0.487E-01    0.451E-01
RMM:   3    -0.239045149837E+03   -0.66024E-03   -0.10436E-02  3522   0.222E-01
    997 T=   786. E= -.22908409E+03 F= -.23904515E+03 E0= -.23904515E+03  EK= 0.64047E+01 SP= 0.36E+01 SK= 0.13E-02 mag=      0.000
       N       E                     dE             d eps       ncg     rms          rms(c)
DAV:   1    -0.238990924537E+03    0.53565E-01   -0.57604E-02  5968   0.201E+00    0.114E+00
RMM:   2    -0.238994822926E+03   -0.38984E-02   -0.56503E-02  4934   0.475E-01    0.952E-01
RMM:   3    -0.238995464499E+03   -0.64157E-03   -0.10914E-02  3426   0.220E-01
    998 T=   779. E= -.22907373E+03 F= -.23899546E+03 E0= -.23899546E+03  EK= 0.63467E+01 SP= 0.36E+01 SK= 0.90E-03 mag=     -0.000
       N       E                     dE             d eps       ncg     rms          rms(c)
DAV:   1    -0.238954792573E+03    0.40030E-01   -0.56522E-02  5992   0.203E+00    0.209E+00
RMM:   2    -0.238955111872E+03   -0.31930E-03   -0.50958E-02  4938   0.452E-01    0.100E+00
RMM:   3    -0.238954822365E+03    0.28951E-03   -0.15117E-02  3851   0.232E-01
    999 T=   774. E= -.22906442E+03 F= -.23895482E+03 E0= -.23895482E+03  EK= 0.63008E+01 SP= 0.36E+01 SK= 0.47E-03 mag=      0.000
       N       E                     dE             d eps       ncg     rms          rms(c)
DAV:   1    -0.238921321509E+03    0.33790E-01   -0.79733E-02  6080   0.201E+00    0.480E-01
RMM:   2    -0.238924717069E+03   -0.33956E-02   -0.57579E-02  4877   0.488E-01    0.451E-01
RMM:   3    -0.238925144702E+03   -0.42763E-03   -0.10225E-02  3514   0.219E-01
   1000 T=   770. E= -.22905666E+03 F= -.23892514E+03 E0= -.23892514E+03  EK= 0.62695E+01 SP= 0.36E+01 SK= 0.14E-03 mag=      0.000
       N       E                     dE             d eps       ncg     rms          rms(c)
DAV:   1    -0.238900312803E+03    0.24404E-01   -0.68423E-02  6048   0.198E+00    0.105E+00
RMM:   2    -0.238904525674E+03   -0.42129E-02   -0.60535E-02  4870   0.477E-01    0.886E-01
RMM:   3    -0.238905224136E+03   -0.69846E-03   -0.10826E-02  3472   0.218E-01
   1001 T=   768. E= -.22904804E+03 F= -.23890522E+03 E0= -.23890522E+03  EK= 0.62547E+01 SP= 0.36E+01 SK= 0.59E-06 mag=     -0.000
       N       E                     dE             d eps       ncg     rms          rms(c)
DAV:   1    -0.238896912423E+03    0.76133E-02   -0.67692E-02  5984   0.197E+00    0.191E+00
RMM:   2    -0.238897352117E+03   -0.43969E-03   -0.52312E-02  4857   0.452E-01    0.897E-01
RMM:   3    -0.238897204338E+03    0.14778E-03   -0.14045E-02  3694   0.229E-01
   1002 T=   768. E= -.22903942E+03 F= -.23889720E+03 E0= -.23889720E+03  EK= 0.62580E+01 SP= 0.36E+01 SK= 0.11E-03 mag=      0.000
       N       E                     dE             d eps       ncg     rms          rms(c)
DAV:   1    -0.238898324572E+03   -0.97245E-03   -0.68278E-02  6056   0.196E+00    0.489E-01
RMM:   2    -0.238902208108E+03   -0.38835E-02   -0.55836E-02  4845   0.479E-01    0.405E-01
RMM:   3    -0.238902723359E+03   -0.51525E-03   -0.10178E-02  3560   0.219E-01
   1003 T=   771. E= -.22903147E+03 F= -.23890272E+03 E0= -.23890272E+03  EK= 0.62802E+01 SP= 0.36E+01 SK= 0.45E-03 mag=      0.000
       N       E                     dE             d eps       ncg     rms          rms(c)
DAV:   1    -0.238917037777E+03   -0.14830E-01   -0.71243E-02  6056   0.195E+00    0.931E-01
RMM:   2    -0.238920973339E+03   -0.39356E-02   -0.59295E-02  4855   0.474E-01    0.789E-01
RMM:   3    -0.238921667959E+03   -0.69462E-03   -0.10766E-02  3510   0.218E-01
   1004 T=   776. E= -.22902248E+03 F= -.23892167E+03 E0= -.23892167E+03  EK= 0.63226E+01 SP= 0.36E+01 SK= 0.93E-03 mag=     -0.000
       N       E                     dE             d eps       ncg     rms          rms(c)
DAV:   1    -0.238956252805E+03   -0.35279E-01   -0.55288E-02  6024   0.195E+00    0.157E+00
RMM:   2    -0.238956781397E+03   -0.52859E-03   -0.47916E-02  4881   0.446E-01    0.722E-01
RMM:   3    -0.238956652985E+03    0.12841E-03   -0.12871E-02  3573   0.224E-01
   1005 T=   784. E= -.22901442E+03 F= -.23895665E+03 E0= -.23895665E+03  EK= 0.63848E+01 SP= 0.36E+01 SK= 0.14E-02 mag=     -0.000
       N       E                     dE             d eps       ncg     rms          rms(c)
DAV:   1    -0.239002580405E+03   -0.45799E-01   -0.75050E-02  5976   0.199E+00    0.503E-01
RMM:   2    -0.239007109714E+03   -0.45293E-02   -0.57035E-02  4925   0.487E-01    0.348E-01
RMM:   3    -0.239007633350E+03   -0.52364E-03   -0.10054E-02  3555   0.219E-01
   1006 T=   794. E= -.22900765E+03 F= -.23900763E+03 E0= -.23900763E+03  EK= 0.64651E+01 SP= 0.35E+01 SK= 0.17E-02 mag=      0.000
       N       E                     dE             d eps       ncg     rms          rms(c)
DAV:   1    -0.239068332920E+03   -0.61223E-01   -0.60631E-02  6040   0.197E+00    0.696E-01
RMM:   2    -0.239072611251E+03   -0.42783E-02   -0.58617E-02  4937   0.466E-01    0.634E-01
RMM:   3    -0.239073368880E+03   -0.75763E-03   -0.97314E-03  3392   0.213E-01
   1007 T=   806. E= -.22900088E+03 F= -.23907337E+03 E0= -.23907337E+03  EK= 0.65616E+01 SP= 0.35E+01 SK= 0.17E-02 mag=      0.000
       N       E                     dE             d eps       ncg     rms          rms(c)
DAV:   1    -0.239148152699E+03   -0.75541E-01   -0.62507E-02  6040   0.199E+00    0.108E+00
RMM:   2    -0.239150766625E+03   -0.26139E-02   -0.49345E-02  4917   0.450E-01    0.432E-01
RMM:   3    -0.239151232754E+03   -0.46613E-03   -0.10477E-02  3455   0.214E-01
   1008 T=   819. E= -.22899418E+03 F= -.23915123E+03 E0= -.23915123E+03  EK= 0.66695E+01 SP= 0.35E+01 SK= 0.14E-02 mag=      0.000
       N       E                     dE             d eps       ncg     rms          rms(c)
DAV:   1    -0.239230040100E+03   -0.79273E-01   -0.55977E-02  6032   0.201E+00    0.559E-01
RMM:   2    -0.239235282761E+03   -0.52427E-02   -0.53548E-02  5007   0.472E-01    0.268E-01
RMM:   3    -0.239236011359E+03   -0.72860E-03   -0.91599E-03  3339   0.209E-01
   1009 T=   833. E= -.22898709E+03 F= -.23923601E+03 E0= -.23923601E+03  EK= 0.67810E+01 SP= 0.35E+01 SK= 0.78E-03 mag=     -0.000
       N       E                     dE             d eps       ncg     rms          rms(c)
DAV:   1    -0.239317577261E+03   -0.82295E-01   -0.68868E-02  6104   0.202E+00    0.292E-01
RMM:   2    -0.239322337911E+03   -0.47607E-02   -0.50004E-02  4952   0.452E-01    0.357E-01
RMM:   3    -0.239323182501E+03   -0.84459E-03   -0.89910E-03  3351   0.204E-01
   1010 T=   846. E= -.22898001E+03 F= -.23932318E+03 E0= -.23932318E+03  EK= 0.68884E+01 SP= 0.35E+01 SK= 0.20E-03 mag=     -0.000
       N       E                     dE             d eps       ncg     rms          rms(c)
DAV:   1    -0.239400278620E+03   -0.77941E-01   -0.46001E-02  5888   0.202E+00    0.633E-01
RMM:   2    -0.239404261161E+03   -0.39825E-02   -0.45563E-02  5024   0.438E-01    0.586E-01
RMM:   3    -0.239404931424E+03   -0.67026E-03   -0.90672E-03  3287   0.202E-01
   1011 T=   857. E= -.22897227E+03 F= -.23940493E+03 E0= -.23940493E+03  EK= 0.69814E+01 SP= 0.35E+01 SK= 0.19E-04 mag=      0.000
       N       E                     dE             d eps       ncg     rms          rms(c)
DAV:   1    -0.239472075002E+03   -0.67814E-01   -0.68932E-02  6136   0.206E+00    0.176E+00
RMM:   2    -0.239476096924E+03   -0.40219E-02   -0.48453E-02  5048   0.454E-01    0.785E-01
RMM:   3    -0.239476388935E+03   -0.29201E-03   -0.98157E-03  3346   0.211E-01
   1012 T=   866. E= -.22896491E+03 F= -.23947639E+03 E0= -.23947639E+03  EK= 0.70513E+01 SP= 0.35E+01 SK= 0.68E-03 mag=      0.000
       N       E                     dE             d eps       ncg     rms          rms(c)
DAV:   1    -0.239527988175E+03   -0.51891E-01   -0.67232E-02  6112   0.209E+00    0.347E-01
RMM:   2    -0.239533331069E+03   -0.53429E-02   -0.52078E-02  5094   0.472E-01    0.388E-01
RMM:   3    -0.239534090344E+03   -0.75928E-03   -0.91496E-03  3279   0.208E-01
   1013 T=   871. E= -.22895680E+03 F= -.23953409E+03 E0= -.23953409E+03  EK= 0.70938E+01 SP= 0.35E+01 SK= 0.25E-02 mag=      0.000
       N       E                     dE             d eps       ncg     rms          rms(c)
DAV:   1    -0.239572954319E+03   -0.39623E-01   -0.50731E-02  5992   0.209E+00    0.133E+00
RMM:   2    -0.239575563633E+03   -0.26093E-02   -0.47338E-02  5008   0.454E-01    0.993E-01
RMM:   3    -0.239575942190E+03   -0.37856E-03   -0.12993E-02  3471   0.223E-01
   1014 T=   873. E= -.22894663E+03 F= -.23957594E+03 E0= -.23957594E+03  EK= 0.71069E+01 SP= 0.35E+01 SK= 0.58E-02 mag=     -0.000
       N       E                     dE             d eps       ncg     rms          rms(c)
DAV:   1    -0.239605649292E+03   -0.30086E-01   -0.53748E-02  6088   0.209E+00    0.215E+00
RMM:   2    -0.239603028011E+03    0.26213E-02   -0.51270E-02  4989   0.460E-01    0.104E+00
RMM:   3    -0.239601996470E+03    0.10315E-02   -0.18283E-02  4189   0.253E-01
   1015 T=   870. E= -.22893613E+03 F= -.23960200E+03 E0= -.23960200E+03  EK= 0.70886E+01 SP= 0.36E+01 SK= 0.10E-01 mag=     -0.000
       N       E                     dE             d eps       ncg     rms          rms(c)
DAV:   1    -0.239614523589E+03   -0.11496E-01   -0.98390E-02  6200   0.213E+00    0.476E-01
RMM:   2    -0.239614691319E+03   -0.16773E-03   -0.58555E-02  4685   0.525E-01    0.405E-01
RMM:   3    -0.239614932176E+03   -0.24086E-03   -0.16469E-02  4241   0.267E-01
   1016 T=   865. E= -.22892595E+03 F= -.23961493E+03 E0= -.23961493E+03  EK= 0.70418E+01 SP= 0.36E+01 SK= 0.16E-01 mag=     -0.000
       N       E                     dE             d eps       ncg     rms          rms(c)
DAV:   1    -0.239609229501E+03    0.54618E-02   -0.85290E-02  6296   0.208E+00    0.748E-01
RMM:   2    -0.239615183601E+03   -0.59541E-02   -0.57939E-02  4917   0.501E-01    0.698E-01
RMM:   3    -0.239616072315E+03   -0.88871E-03   -0.99282E-03  3437   0.218E-01
   1017 T=   856. E= -.22891229E+03 F= -.23961607E+03 E0= -.23961607E+03  EK= 0.69733E+01 SP= 0.37E+01 SK= 0.22E-01 mag=     -0.000
       N       E                     dE             d eps       ncg     rms          rms(c)
DAV:   1    -0.239602734206E+03    0.12449E-01   -0.74834E-02  6128   0.208E+00    0.143E+00
RMM:   2    -0.239607740285E+03   -0.50061E-02   -0.59534E-02  4928   0.489E-01    0.614E-01
RMM:   3    -0.239608754276E+03   -0.10140E-02   -0.11931E-02  3576   0.236E-01
   1018 T=   845. E= -.22889936E+03 F= -.23960875E+03 E0= -.23960875E+03  EK= 0.68845E+01 SP= 0.38E+01 SK= 0.27E-01 mag=     -0.000
       N       E                     dE             d eps       ncg     rms          rms(c)
DAV:   1    -0.239590800960E+03    0.16939E-01   -0.48848E-02  6032   0.209E+00    0.527E-01
RMM:   2    -0.239596083382E+03   -0.52824E-02   -0.51532E-02  4887   0.474E-01    0.315E-01
RMM:   3    -0.239597140863E+03   -0.10575E-02   -0.10701E-02  3459   0.223E-01
   1019 T=   833. E= -.22888749E+03 F= -.23959714E+03 E0= -.23959714E+03  EK= 0.67821E+01 SP= 0.39E+01 SK= 0.32E-01 mag=     -0.000
       N       E                     dE             d eps       ncg     rms          rms(c)
DAV:   1    -0.239577052559E+03    0.19031E-01   -0.63630E-02  6096   0.207E+00    0.440E-01
RMM:   2    -0.239581836490E+03   -0.47839E-02   -0.45748E-02  4916   0.465E-01    0.441E-01
RMM:   3    -0.239582845628E+03   -0.10091E-02   -0.10394E-02  3425   0.210E-01
   1020 T=   820. E= -.22887268E+03 F= -.23958285E+03 E0= -.23958285E+03  EK= 0.66747E+01 SP= 0.40E+01 SK= 0.35E-01 mag=     -0.000
       N       E                     dE             d eps       ncg     rms          rms(c)
DAV:   1    -0.239561249281E+03    0.20587E-01   -0.48541E-02  5816   0.204E+00    0.471E-01
RMM:   2    -0.239566047532E+03   -0.47983E-02   -0.44673E-02  5023   0.451E-01    0.449E-01
RMM:   3    -0.239567018548E+03   -0.97102E-03   -0.99601E-03  3267   0.206E-01
   1021 T=   806. E= -.22885783E+03 F= -.23956702E+03 E0= -.23956702E+03  EK= 0.65635E+01 SP= 0.41E+01 SK= 0.37E-01 mag=      0.000
       N       E                     dE             d eps       ncg     rms          rms(c)
DAV:   1    -0.239545164961E+03    0.20883E-01   -0.52351E-02  5992   0.205E+00    0.112E+00
RMM:   2    -0.239549866914E+03   -0.47020E-02   -0.43911E-02  5014   0.435E-01    0.488E-01
RMM:   3    -0.239550720168E+03   -0.85325E-03   -0.96377E-03  3232   0.206E-01
   1022 T=   792. E= -.22884564E+03 F= -.23955072E+03 E0= -.23955072E+03  EK= 0.64499E+01 SP= 0.42E+01 SK= 0.37E-01 mag=      0.000
       N       E                     dE             d eps       ncg     rms          rms(c)
DAV:   1    -0.239526826292E+03    0.23041E-01   -0.51791E-02  5928   0.204E+00    0.401E-01
RMM:   2    -0.239531672932E+03   -0.48466E-02   -0.43672E-02  5051   0.442E-01    0.207E-01
RMM:   3    -0.239532608179E+03   -0.93525E-03   -0.92923E-03  3230   0.203E-01
   1023 T=   778. E= -.22883336E+03 F= -.23953261E+03 E0= -.23953261E+03  EK= 0.63380E+01 SP= 0.43E+01 SK= 0.35E-01 mag=      0.000
       N       E                     dE             d eps       ncg     rms          rms(c)
DAV:   1    -0.239506306463E+03    0.25366E-01   -0.44804E-02  5912   0.205E+00    0.331E-01
RMM:   2    -0.239510566786E+03   -0.42603E-02   -0.39471E-02  4974   0.431E-01    0.359E-01
RMM:   3    -0.239511429090E+03   -0.86230E-03   -0.86879E-03  3158   0.195E-01
   1024 T=   765. E= -.22881978E+03 F= -.23951143E+03 E0= -.23951143E+03  EK= 0.62303E+01 SP= 0.44E+01 SK= 0.31E-01 mag=     -0.000
       N       E                     dE             d eps       ncg     rms          rms(c)
DAV:   1    -0.239480313494E+03    0.30253E-01   -0.38486E-02  5720   0.201E+00    0.658E-01
RMM:   2    -0.239484607179E+03   -0.42937E-02   -0.39751E-02  5087   0.430E-01    0.571E-01
RMM:   3    -0.239485430522E+03   -0.82334E-03   -0.90925E-03  3163   0.197E-01
   1025 T=   752. E= -.22880793E+03 F= -.23948543E+03 E0= -.23948543E+03  EK= 0.61245E+01 SP= 0.45E+01 SK= 0.26E-01 mag=      0.000
       N       E                     dE             d eps       ncg     rms          rms(c)
DAV:   1    -0.239448886957E+03    0.35720E-01   -0.35625E-02  5616   0.206E+00    0.173E+00
RMM:   2    -0.239452434083E+03   -0.35471E-02   -0.38439E-02  5068   0.423E-01    0.851E-01
RMM:   3    -0.239452958115E+03   -0.52403E-03   -0.86794E-03  3132   0.196E-01
   1026 T=   739. E= -.22879850E+03 F= -.23945296E+03 E0= -.23945296E+03  EK= 0.60203E+01 SP= 0.46E+01 SK= 0.20E-01 mag=     -0.000
       N       E                     dE             d eps       ncg     rms          rms(c)
DAV:   1    -0.239408679050E+03    0.43755E-01   -0.50919E-02  5736   0.204E+00    0.394E-01
RMM:   2    -0.239413020895E+03   -0.43418E-02   -0.41345E-02  5069   0.441E-01    0.408E-01
RMM:   3    -0.239413817479E+03   -0.79658E-03   -0.86274E-03  3228   0.197E-01
   1027 T=   727. E= -.22878845E+03 F= -.23941382E+03 E0= -.23941382E+03  EK= 0.59225E+01 SP= 0.47E+01 SK= 0.14E-01 mag=     -0.000
       N       E                     dE             d eps       ncg     rms          rms(c)
DAV:   1    -0.239362666984E+03    0.50354E-01   -0.36468E-02  5552   0.198E+00    0.108E+00
RMM:   2    -0.239366098752E+03   -0.34318E-02   -0.38165E-02  5024   0.416E-01    0.814E-01
RMM:   3    -0.239366627603E+03   -0.52885E-03   -0.86448E-03  3127   0.193E-01
   1028 T=   716. E= -.22877673E+03 F= -.23936663E+03 E0= -.23936663E+03  EK= 0.58326E+01 SP= 0.47E+01 SK= 0.83E-02 mag=     -0.000
       N       E                     dE             d eps       ncg     rms          rms(c)
DAV:   1    -0.239309549349E+03    0.56549E-01   -0.43557E-02  5952   0.200E+00    0.181E+00
RMM:   2    -0.239311632053E+03   -0.20827E-02   -0.40837E-02  5050   0.437E-01    0.896E-01
RMM:   3    -0.239311813667E+03   -0.18161E-03   -0.10133E-02  3315   0.204E-01
   1029 T=   706. E= -.22876696E+03 F= -.23931181E+03 E0= -.23931181E+03  EK= 0.57489E+01 SP= 0.48E+01 SK= 0.36E-02 mag=     -0.000
       N       E                     dE             d eps       ncg     rms          rms(c)
DAV:   1    -0.239247235469E+03    0.64397E-01   -0.67307E-02  5968   0.198E+00    0.355E-01
RMM:   2    -0.239251163696E+03   -0.39282E-02   -0.46123E-02  5009   0.450E-01    0.385E-01
RMM:   3    -0.239251810083E+03   -0.64639E-03   -0.87240E-03  3305   0.201E-01
   1030 T=   697. E= -.22875883E+03 F= -.23925181E+03 E0= -.23925181E+03  EK= 0.56755E+01 SP= 0.48E+01 SK= 0.62E-03 mag=     -0.000
       N       E                     dE             d eps       ncg     rms          rms(c)
DAV:   1    -0.239183664368E+03    0.67499E-01   -0.46559E-02  5872   0.192E+00    0.984E-01
RMM:   2    -0.239187085574E+03   -0.34212E-02   -0.44590E-02  4987   0.424E-01    0.785E-01
RMM:   3    -0.239187570058E+03   -0.48448E-03   -0.88264E-03  3212   0.195E-01
   1031 T=   690. E= -.22874917E+03 F= -.23918757E+03 E0= -.23918757E+03  EK= 0.56176E+01 SP= 0.48E+01 SK= 0.17E-03 mag=      0.000
       N       E                     dE             d eps       ncg     rms          rms(c)
DAV:   1    -0.239121204022E+03    0.65882E-01   -0.57658E-02  5920   0.192E+00    0.174E+00
RMM:   2    -0.239122099086E+03   -0.89506E-03   -0.43996E-02  4978   0.439E-01    0.830E-01
RMM:   3    -0.239122033679E+03    0.65407E-04   -0.11594E-02  3507   0.211E-01
   1032 T=   684. E= -.22874323E+03 F= -.23912203E+03 E0= -.23912203E+03  EK= 0.55738E+01 SP= 0.48E+01 SK= 0.28E-02 mag=      0.000
       N       E                     dE             d eps       ncg     rms          rms(c)
DAV:   1    -0.239052003405E+03    0.70096E-01   -0.66722E-02  6016   0.194E+00    0.364E-01
RMM:   2    -0.239055640653E+03   -0.36372E-02   -0.49759E-02  4959   0.454E-01    0.369E-01
RMM:   3    -0.239056114590E+03   -0.47394E-03   -0.86479E-03  3314   0.202E-01
   1033 T=   681. E= -.22873875E+03 F= -.23905611E+03 E0= -.23905611E+03  EK= 0.55478E+01 SP= 0.48E+01 SK= 0.89E-02 mag=      0.000
       N       E                     dE             d eps       ncg     rms          rms(c)
DAV:   1    -0.238987398519E+03    0.68242E-01   -0.60423E-02  5992   0.188E+00    0.883E-01
RMM:   2    -0.238990580973E+03   -0.31825E-02   -0.48355E-02  4942   0.436E-01    0.758E-01
RMM:   3    -0.238991057069E+03   -0.47610E-03   -0.86689E-03  3233   0.196E-01
   1034 T=   681. E= -.22873141E+03 F= -.23899106E+03 E0= -.23899106E+03  EK= 0.55458E+01 SP= 0.47E+01 SK= 0.19E-01 mag=      0.000
       N       E                     dE             d eps       ncg     rms          rms(c)
DAV:   1    -0.238928879022E+03    0.61702E-01   -0.45541E-02  5880   0.187E+00    0.160E+00
RMM:   2    -0.238929211466E+03   -0.33244E-03   -0.44480E-02  5015   0.430E-01    0.744E-01
RMM:   3    -0.238929012044E+03    0.19942E-03   -0.11184E-02  3402   0.207E-01
   1035 T=   683. E= -.22872746E+03 F= -.23892901E+03 E0= -.23892901E+03  EK= 0.55640E+01 SP= 0.46E+01 SK= 0.32E-01 mag=      0.000
       N       E                     dE             d eps       ncg     rms          rms(c)
DAV:   1    -0.238866706055E+03    0.62505E-01   -0.73214E-02  6024   0.194E+00    0.450E-01
RMM:   2    -0.238870816487E+03   -0.41104E-02   -0.54471E-02  5002   0.466E-01    0.355E-01
RMM:   3    -0.238871238324E+03   -0.42184E-03   -0.92133E-03  3383   0.207E-01
   1036 T=   688. E= -.22872588E+03 F= -.23887124E+03 E0= -.23887124E+03  EK= 0.56046E+01 SP= 0.45E+01 SK= 0.48E-01 mag=     -0.000
       N       E                     dE             d eps       ncg     rms          rms(c)
DAV:   1    -0.238813280369E+03    0.57536E-01   -0.68204E-02  5936   0.188E+00    0.727E-01
RMM:   2    -0.238816970985E+03   -0.36906E-02   -0.55904E-02  4927   0.449E-01    0.696E-01
RMM:   3    -0.238817603180E+03   -0.63219E-03   -0.90724E-03  3326   0.202E-01
   1037 T=   697. E= -.22871999E+03 F= -.23881760E+03 E0= -.23881760E+03  EK= 0.56740E+01 SP= 0.44E+01 SK= 0.66E-01 mag=      0.000
       N       E                     dE             d eps       ncg     rms          rms(c)
DAV:   1    -0.238769743224E+03    0.47228E-01   -0.48132E-02  5896   0.186E+00    0.129E+00
RMM:   2    -0.238771543184E+03   -0.18000E-02   -0.46902E-02  4926   0.428E-01    0.554E-01
RMM:   3    -0.238771871522E+03   -0.32834E-03   -0.99996E-03  3372   0.205E-01
   1038 T=   708. E= -.22871668E+03 F= -.23877187E+03 E0= -.23877187E+03  EK= 0.57688E+01 SP= 0.42E+01 SK= 0.85E-01 mag=      0.000
       N       E                     dE             d eps       ncg     rms          rms(c)
DAV:   1    -0.238730283437E+03    0.41260E-01   -0.71448E-02  6016   0.195E+00    0.610E-01
RMM:   2    -0.238735324876E+03   -0.50414E-02   -0.54799E-02  4995   0.468E-01    0.301E-01
RMM:   3    -0.238735952652E+03   -0.62778E-03   -0.91754E-03  3414   0.206E-01
   1039 T=   723. E= -.22871540E+03 F= -.23873595E+03 E0= -.23873595E+03  EK= 0.58903E+01 SP= 0.40E+01 SK= 0.10E+00 mag=     -0.000
       N       E                     dE             d eps       ncg     rms          rms(c)
DAV:   1    -0.238705288852E+03    0.30036E-01   -0.79716E-02  6048   0.195E+00    0.379E-01
RMM:   2    -0.238710021512E+03   -0.47327E-02   -0.54377E-02  4952   0.455E-01    0.494E-01
RMM:   3    -0.238710796056E+03   -0.77454E-03   -0.86854E-03  3300   0.199E-01
   1040 T=   742. E= -.22871042E+03 F= -.23871080E+03 E0= -.23871080E+03  EK= 0.60441E+01 SP= 0.38E+01 SK= 0.12E+00 mag=     -0.000
       N       E                     dE             d eps       ncg     rms          rms(c)
DAV:   1    -0.238694905093E+03    0.15116E-01   -0.54099E-02  5952   0.194E+00    0.113E+00
RMM:   2    -0.238698146476E+03   -0.32414E-02   -0.48204E-02  4942   0.439E-01    0.914E-01
RMM:   3    -0.238698727872E+03   -0.58140E-03   -0.12978E-02  3594   0.221E-01
   1041 T=   764. E= -.22870784E+03 F= -.23869873E+03 E0= -.23869873E+03  EK= 0.62244E+01 SP= 0.36E+01 SK= 0.13E+00 mag=      0.000
       N       E                     dE             d eps       ncg     rms          rms(c)
DAV:   1    -0.238697950578E+03    0.19590E-03   -0.80299E-02  6080   0.202E+00    0.237E+00
RMM:   2    -0.238700096794E+03   -0.21462E-02   -0.54290E-02  4778   0.464E-01    0.113E+00
RMM:   3    -0.238700215092E+03   -0.11830E-03   -0.14282E-02  3912   0.236E-01
   1042 T=   790. E= -.22870511E+03 F= -.23870022E+03 E0= -.23870022E+03  EK= 0.64313E+01 SP= 0.34E+01 SK= 0.14E+00 mag=      0.000
       N       E                     dE             d eps       ncg     rms          rms(c)
DAV:   1    -0.238709913224E+03   -0.98164E-02   -0.78021E-02  6040   0.202E+00    0.402E-01
RMM:   2    -0.238713803492E+03   -0.38903E-02   -0.56986E-02  4720   0.489E-01    0.422E-01
RMM:   3    -0.238714839224E+03   -0.10357E-02   -0.13041E-02  4000   0.241E-01
   1043 T=   818. E= -.22870047E+03 F= -.23871484E+03 E0= -.23871484E+03  EK= 0.66623E+01 SP= 0.32E+01 SK= 0.14E+00 mag=     -0.000
       N       E                     dE             d eps       ncg     rms          rms(c)
DAV:   1    -0.238734675230E+03   -0.20872E-01   -0.68798E-02  6104   0.206E+00    0.131E+00
RMM:   2    -0.238739101563E+03   -0.44263E-02   -0.50868E-02  4865   0.469E-01    0.104E+00
RMM:   3    -0.238739587304E+03   -0.48574E-03   -0.12374E-02  3710   0.238E-01
   1044 T=   848. E= -.22869749E+03 F= -.23873959E+03 E0= -.23873959E+03  EK= 0.69055E+01 SP= 0.30E+01 SK= 0.13E+00 mag=      0.000
       N       E                     dE             d eps       ncg     rms          rms(c)
DAV:   1    -0.238767426323E+03   -0.28325E-01   -0.71195E-02  6072   0.216E+00    0.231E+00
RMM:   2    -0.238769414559E+03   -0.19882E-02   -0.56187E-02  4873   0.496E-01    0.113E+00
RMM:   3    -0.238769519114E+03   -0.10456E-03   -0.17758E-02  4241   0.264E-01
   1045 T=   879. E= -.22869145E+03 F= -.23876952E+03 E0= -.23876952E+03  EK= 0.71544E+01 SP= 0.28E+01 SK= 0.11E+00 mag=      0.000
       N       E                     dE             d eps       ncg     rms          rms(c)
DAV:   1    -0.238793797800E+03   -0.24383E-01   -0.83632E-02  6088   0.220E+00    0.454E-01
RMM:   2    -0.238797981901E+03   -0.41841E-02   -0.59442E-02  4656   0.543E-01    0.436E-01
RMM:   3    -0.238799356027E+03   -0.13741E-02   -0.16976E-02  4558   0.281E-01
   1046 T=   908. E= -.22868409E+03 F= -.23879936E+03 E0= -.23879936E+03  EK= 0.73943E+01 SP= 0.26E+01 SK= 0.91E-01 mag=     -0.000
       N       E                     dE             d eps       ncg     rms          rms(c)
DAV:   1    -0.238816889878E+03   -0.18908E-01   -0.71270E-02  6112   0.220E+00    0.125E+00
RMM:   2    -0.238821872817E+03   -0.49829E-02   -0.58527E-02  4833   0.513E-01    0.100E+00
RMM:   3    -0.238822584680E+03   -0.71186E-03   -0.15545E-02  4144   0.275E-01
   1047 T=   934. E= -.22867759E+03 F= -.23882258E+03 E0= -.23882258E+03  EK= 0.76080E+01 SP= 0.25E+01 SK= 0.67E-01 mag=      0.000
       N       E                     dE             d eps       ncg     rms          rms(c)
DAV:   1    -0.238834027518E+03   -0.12155E-01   -0.10097E-01  6080   0.227E+00    0.242E+00
RMM:   2    -0.238835806934E+03   -0.17794E-02   -0.61728E-02  4687   0.543E-01    0.117E+00
RMM:   3    -0.238835650993E+03    0.15594E-03   -0.22437E-02  4831   0.310E-01
   1048 T=   956. E= -.22866954E+03 F= -.23883565E+03 E0= -.23883565E+03  EK= 0.77861E+01 SP= 0.23E+01 SK= 0.43E-01 mag=      0.000
       N       E                     dE             d eps       ncg     rms          rms(c)
DAV:   1    -0.238825683029E+03    0.10124E-01   -0.10037E-01  6136   0.235E+00    0.476E-01
RMM:   2    -0.238831726202E+03   -0.60432E-02   -0.78328E-02  4526   0.638E-01    0.498E-01
RMM:   3    -0.238833448394E+03   -0.17222E-02   -0.20512E-02  4842   0.313E-01
   1049 T=   972. E= -.22865943E+03 F= -.23883345E+03 E0= -.23883345E+03  EK= 0.79164E+01 SP= 0.22E+01 SK= 0.22E-01 mag=     -0.000
       N       E                     dE             d eps       ncg     rms          rms(c)
DAV:   1    -0.238805578758E+03    0.26147E-01   -0.10458E-01  6200   0.231E+00    0.143E+00
RMM:   2    -0.238811212615E+03   -0.56339E-02   -0.73239E-02  4654   0.583E-01    0.113E+00
RMM:   3    -0.238812099136E+03   -0.88652E-03   -0.23029E-02  4886   0.343E-01
   1050 T=   981. E= -.22864679E+03 F= -.23881210E+03 E0= -.23881210E+03  EK= 0.79895E+01 SP= 0.22E+01 SK= 0.75E-02 mag=      0.000
       N       E                     dE             d eps       ncg     rms          rms(c)
DAV:   1    -0.238776433501E+03    0.34779E-01   -0.11613E-01  6160   0.237E+00    0.277E+00
RMM:   2    -0.238776272216E+03    0.16128E-03   -0.73672E-02  4563   0.608E-01    0.133E+00
RMM:   3    -0.238775066874E+03    0.12053E-02   -0.28038E-02  5021   0.363E-01
   1051 T=   983. E= -.22863331E+03 F= -.23877507E+03 E0= -.23877507E+03  EK= 0.80037E+01 SP= 0.21E+01 SK= 0.48E-03 mag=      0.000
       N       E                     dE             d eps       ncg     rms          rms(c)
DAV:   1    -0.238718615632E+03    0.57657E-01   -0.12671E-01  6256   0.247E+00    0.556E-01
RMM:   2    -0.238724356072E+03   -0.57404E-02   -0.91293E-02  4466   0.724E-01    0.561E-01
RMM:   3    -0.238726141128E+03   -0.17851E-02   -0.24792E-02  5104   0.350E-01
   1052 T=   978. E= -.22862033E+03 F= -.23872614E+03 E0= -.23872614E+03  EK= 0.79605E+01 SP= 0.21E+01 SK= 0.18E-02 mag=      0.000
       N       E                     dE             d eps       ncg     rms          rms(c)
DAV:   1    -0.238662049255E+03    0.62307E-01   -0.11013E-01  6200   0.237E+00    0.165E+00
RMM:   2    -0.238666764353E+03   -0.47151E-02   -0.77041E-02  4694   0.638E-01    0.126E+00
RMM:   3    -0.238667581694E+03   -0.81734E-03   -0.30051E-02  5144   0.402E-01
   1053 T=   966. E= -.22860268E+03 F= -.23866758E+03 E0= -.23866758E+03  EK= 0.78691E+01 SP= 0.22E+01 SK= 0.11E-01 mag=     -0.000
       N       E                     dE             d eps       ncg     rms          rms(c)
DAV:   1    -0.238614589287E+03    0.52175E-01   -0.94488E-02  6216   0.236E+00    0.291E+00
RMM:   2    -0.238610196848E+03    0.43924E-02   -0.82726E-02  4505   0.647E-01    0.141E+00
RMM:   3    -0.238608025227E+03    0.21716E-02   -0.38348E-02  4944   0.412E-01    0.488E-01
RMM:   4    -0.238609118599E+03   -0.10934E-02   -0.69646E-03  3075   0.220E-01
   1054 T=   950. E= -.22859066E+03 F= -.23860912E+03 E0= -.23860912E+03  EK= 0.77330E+01 SP= 0.23E+01 SK= 0.25E-01 mag=     -0.000
       N       E                     dE             d eps       ncg     rms          rms(c)
DAV:   1    -0.238548591491E+03    0.59434E-01   -0.11035E-01  6616   0.240E+00    0.750E-01
RMM:   2    -0.238551073075E+03   -0.24816E-02   -0.66270E-02  4641   0.587E-01    0.603E-01
RMM:   3    -0.238552327774E+03   -0.12547E-02   -0.22815E-02  5000   0.339E-01
   1055 T=   929. E= -.22857959E+03 F= -.23855233E+03 E0= -.23855233E+03  EK= 0.75641E+01 SP= 0.24E+01 SK= 0.43E-01 mag=      0.000
       N       E                     dE             d eps       ncg     rms          rms(c)
DAV:   1    -0.238494440812E+03    0.56632E-01   -0.84765E-02  6192   0.225E+00    0.728E-01
RMM:   2    -0.238500847818E+03   -0.64070E-02   -0.62101E-02  4870   0.600E-01    0.626E-01
RMM:   3    -0.238502993920E+03   -0.21461E-02   -0.21037E-02  4698   0.333E-01
   1056 T=   907. E= -.22856165E+03 F= -.23850299E+03 E0= -.23850299E+03  EK= 0.73826E+01 SP= 0.25E+01 SK= 0.63E-01 mag=      0.000
       N       E                     dE             d eps       ncg     rms          rms(c)
DAV:   1    -0.238457063263E+03    0.43785E-01   -0.71655E-02  6080   0.224E+00    0.719E-01
RMM:   2    -0.238462637900E+03   -0.55746E-02   -0.53756E-02  4754   0.528E-01    0.294E-01
RMM:   3    -0.238464214532E+03   -0.15766E-02   -0.16005E-02  4296   0.294E-01
   1057 T=   883. E= -.22854327E+03 F= -.23846421E+03 E0= -.23846421E+03  EK= 0.71920E+01 SP= 0.26E+01 SK= 0.80E-01 mag=      0.000
       N       E                     dE             d eps       ncg     rms          rms(c)
DAV:   1    -0.238428397514E+03    0.34240E-01   -0.60658E-02  5888   0.223E+00    0.726E-01
RMM:   2    -0.238433833936E+03   -0.54364E-02   -0.49208E-02  4715   0.540E-01    0.308E-01
RMM:   3    -0.238435533359E+03   -0.16994E-02   -0.16855E-02  4379   0.299E-01
   1058 T=   859. E= -.22852801E+03 F= -.23843553E+03 E0= -.23843553E+03  EK= 0.69946E+01 SP= 0.28E+01 SK= 0.95E-01 mag=     -0.000
       N       E                     dE             d eps       ncg     rms          rms(c)
DAV:   1    -0.238410762445E+03    0.23071E-01   -0.57342E-02  6032   0.218E+00    0.337E-01
RMM:   2    -0.238416042168E+03   -0.52797E-02   -0.49144E-02  4733   0.536E-01    0.195E-01
RMM:   3    -0.238417470387E+03   -0.14282E-02   -0.14418E-02  4256   0.262E-01
   1059 T=   835. E= -.22851239E+03 F= -.23841747E+03 E0= -.23841747E+03  EK= 0.68007E+01 SP= 0.30E+01 SK= 0.11E+00 mag=     -0.000
       N       E                     dE             d eps       ncg     rms          rms(c)
DAV:   1    -0.238402022056E+03    0.14020E-01   -0.63595E-02  5896   0.215E+00    0.384E-01
RMM:   2    -0.238407485598E+03   -0.54635E-02   -0.50543E-02  4914   0.522E-01    0.345E-01
RMM:   3    -0.238408984668E+03   -0.14991E-02   -0.14481E-02  3993   0.262E-01
   1060 T=   812. E= -.22849505E+03 F= -.23840898E+03 E0= -.23840898E+03  EK= 0.66161E+01 SP= 0.32E+01 SK= 0.11E+00 mag=     -0.000
       N       E                     dE             d eps       ncg     rms          rms(c)
DAV:   1    -0.238403274409E+03    0.42112E-02   -0.55468E-02  5968   0.210E+00    0.256E-01
RMM:   2    -0.238408335916E+03   -0.50615E-02   -0.42712E-02  4925   0.479E-01    0.261E-01
RMM:   3    -0.238409672917E+03   -0.13370E-02   -0.12074E-02  3612   0.233E-01
   1061 T=   791. E= -.22847978E+03 F= -.23840967E+03 E0= -.23840967E+03  EK= 0.64412E+01 SP= 0.34E+01 SK= 0.11E+00 mag=      0.000
       N       E                     dE             d eps       ncg     rms          rms(c)
DAV:   1    -0.238413959842E+03   -0.56239E-02   -0.60097E-02  6000   0.208E+00    0.259E-01
RMM:   2    -0.238418633256E+03   -0.46734E-02   -0.40899E-02  5064   0.469E-01    0.257E-01
RMM:   3    -0.238419837596E+03   -0.12043E-02   -0.11430E-02  3558   0.226E-01
   1062 T=   771. E= -.22846615E+03 F= -.23841984E+03 E0= -.23841984E+03  EK= 0.62809E+01 SP= 0.36E+01 SK= 0.11E+00 mag=      0.000
       N       E                     dE             d eps       ncg     rms          rms(c)
DAV:   1    -0.238435863085E+03   -0.17230E-01   -0.49981E-02  6008   0.205E+00    0.325E-01
RMM:   2    -0.238440466444E+03   -0.46034E-02   -0.38286E-02  5022   0.460E-01    0.266E-01
RMM:   3    -0.238441549614E+03   -0.10832E-02   -0.10215E-02  3381   0.218E-01
   1063 T=   754. E= -.22845223E+03 F= -.23844155E+03 E0= -.23844155E+03  EK= 0.61421E+01 SP= 0.37E+01 SK= 0.99E-01 mag=     -0.000
       N       E                     dE             d eps       ncg     rms          rms(c)
DAV:   1    -0.238471648788E+03   -0.31182E-01   -0.43966E-02  5864   0.203E+00    0.332E-01
RMM:   2    -0.238476002059E+03   -0.43533E-02   -0.38876E-02  5088   0.448E-01    0.145E-01
RMM:   3    -0.238476986494E+03   -0.98444E-03   -0.98328E-03  3285   0.216E-01
   1064 T=   740. E= -.22843877E+03 F= -.23847699E+03 E0= -.23847699E+03  EK= 0.60288E+01 SP= 0.39E+01 SK= 0.87E-01 mag=     -0.000
       N       E                     dE             d eps       ncg     rms          rms(c)
DAV:   1    -0.238521918572E+03   -0.45917E-01   -0.38568E-02  5328   0.202E+00    0.403E-01
RMM:   2    -0.238526201222E+03   -0.42826E-02   -0.36959E-02  5109   0.438E-01    0.141E-01
RMM:   3    -0.238527147109E+03   -0.94589E-03   -0.91826E-03  3193   0.209E-01
   1065 T=   730. E= -.22842748E+03 F= -.23852715E+03 E0= -.23852715E+03  EK= 0.59416E+01 SP= 0.41E+01 SK= 0.74E-01 mag=     -0.000
       N       E                     dE             d eps       ncg     rms          rms(c)
DAV:   1    -0.238588066744E+03   -0.61866E-01   -0.36796E-02  5528   0.198E+00    0.300E-01
RMM:   2    -0.238592032278E+03   -0.39655E-02   -0.34592E-02  5085   0.419E-01    0.144E-01
RMM:   3    -0.238592880530E+03   -0.84825E-03   -0.81070E-03  3115   0.197E-01
   1066 T=   723. E= -.22841683E+03 F= -.23859288E+03 E0= -.23859288E+03  EK= 0.58841E+01 SP= 0.42E+01 SK= 0.61E-01 mag=      0.000
       N       E                     dE             d eps       ncg     rms          rms(c)
DAV:   1    -0.238670125641E+03   -0.78093E-01   -0.37413E-02  5600   0.197E+00    0.184E-01
RMM:   2    -0.238674200952E+03   -0.40753E-02   -0.34940E-02  5090   0.423E-01    0.195E-01
RMM:   3    -0.238675101712E+03   -0.90076E-03   -0.82610E-03  3165   0.194E-01
   1067 T=   719. E= -.22840572E+03 F= -.23867510E+03 E0= -.23867510E+03  EK= 0.58585E+01 SP= 0.44E+01 SK= 0.48E-01 mag=      0.000
       N       E                     dE             d eps       ncg     rms          rms(c)
DAV:   1    -0.238767548921E+03   -0.93348E-01   -0.37983E-02  5784   0.195E+00    0.271E-01
RMM:   2    -0.238771655997E+03   -0.41071E-02   -0.35246E-02  5120   0.413E-01    0.322E-01
RMM:   3    -0.238772466748E+03   -0.81075E-03   -0.77551E-03  3069   0.186E-01
   1068 T=   720. E= -.22839509E+03 F= -.23877247E+03 E0= -.23877247E+03  EK= 0.58623E+01 SP= 0.45E+01 SK= 0.36E-01 mag=      0.000
       N       E                     dE             d eps       ncg     rms          rms(c)
DAV:   1    -0.238877152757E+03   -0.10550E+00   -0.40296E-02  5784   0.196E+00    0.541E-01
RMM:   2    -0.238881328880E+03   -0.41761E-02   -0.37928E-02  5092   0.442E-01    0.489E-01
RMM:   3    -0.238882161996E+03   -0.83312E-03   -0.87680E-03  3257   0.203E-01
   1069 T=   724. E= -.22838532E+03 F= -.23888216E+03 E0= -.23888216E+03  EK= 0.58919E+01 SP= 0.46E+01 SK= 0.26E-01 mag=      0.000
       N       E                     dE             d eps       ncg     rms          rms(c)
DAV:   1    -0.238998338789E+03   -0.11701E+00   -0.53113E-02  5912   0.199E+00    0.237E+00
RMM:   2    -0.239000964490E+03   -0.26257E-02   -0.37335E-02  5091   0.426E-01    0.120E+00
RMM:   3    -0.239001265372E+03   -0.30088E-03   -0.10194E-02  3323   0.209E-01
   1070 T=   730. E= -.22837685E+03 F= -.23900127E+03 E0= -.23900127E+03  EK= 0.59429E+01 SP= 0.47E+01 SK= 0.19E-01 mag=     -0.000
       N       E                     dE             d eps       ncg     rms          rms(c)
DAV:   1    -0.239121435182E+03   -0.12047E+00   -0.43819E-02  5960   0.201E+00    0.952E-01
RMM:   2    -0.239125182898E+03   -0.37477E-02   -0.43308E-02  5160   0.456E-01    0.771E-01
RMM:   3    -0.239125532025E+03   -0.34913E-03   -0.91969E-03  3206   0.209E-01
   1071 T=   738. E= -.22836774E+03 F= -.23912553E+03 E0= -.23912553E+03  EK= 0.60119E+01 SP= 0.47E+01 SK= 0.13E-01 mag=      0.000
       N       E                     dE             d eps       ncg     rms          rms(c)
DAV:   1    -0.239248233478E+03   -0.12305E+00   -0.67262E-02  6208   0.197E+00    0.112E+00
RMM:   2    -0.239249535659E+03   -0.13022E-02   -0.40225E-02  4949   0.452E-01    0.422E-01
RMM:   3    -0.239249504178E+03    0.31481E-04   -0.12238E-02  3638   0.218E-01
   1072 T=   748. E= -.22835944E+03 F= -.23924950E+03 E0= -.23924950E+03  EK= 0.60906E+01 SP= 0.48E+01 SK= 0.86E-02 mag=      0.000
       N       E                     dE             d eps       ncg     rms          rms(c)
DAV:   1    -0.239365431496E+03   -0.11590E+00   -0.61338E-02  6040   0.203E+00    0.293E-01
RMM:   2    -0.239369062801E+03   -0.36313E-02   -0.47918E-02  5039   0.472E-01    0.370E-01
RMM:   3    -0.239369513958E+03   -0.45116E-03   -0.87064E-03  3369   0.207E-01
   1073 T=   758. E= -.22835326E+03 F= -.23936951E+03 E0= -.23936951E+03  EK= 0.61723E+01 SP= 0.48E+01 SK= 0.58E-02 mag=      0.000
       N       E                     dE             d eps       ncg     rms          rms(c)
DAV:   1    -0.239478174962E+03   -0.10911E+00   -0.46704E-02  5896   0.205E+00    0.876E-01
RMM:   2    -0.239479304259E+03   -0.11293E-02   -0.52690E-02  5026   0.466E-01    0.711E-01
RMM:   3    -0.239479875243E+03   -0.57098E-03   -0.12146E-02  3437   0.219E-01
   1074 T=   768. E= -.22834244E+03 F= -.23947988E+03 E0= -.23947988E+03  EK= 0.62564E+01 SP= 0.49E+01 SK= 0.40E-02 mag=      0.000
       N       E                     dE             d eps       ncg     rms          rms(c)
DAV:   1    -0.239584350363E+03   -0.10505E+00   -0.51971E-02  6136   0.199E+00    0.166E+00
RMM:   2    -0.239578530180E+03    0.58202E-02   -0.44414E-02  4957   0.441E-01    0.770E-01
RMM:   3    -0.239577483130E+03    0.10471E-02   -0.18141E-02  4024   0.242E-01
   1075 T=   777. E= -.22833478E+03 F= -.23957748E+03 E0= -.23957748E+03  EK= 0.63304E+01 SP= 0.49E+01 SK= 0.28E-02 mag=     -0.000
       N       E                     dE             d eps       ncg     rms          rms(c)
DAV:   1    -0.239658604561E+03   -0.80074E-01   -0.97123E-02  6344   0.211E+00    0.517E-01
RMM:   2    -0.239658847280E+03   -0.24272E-03   -0.57231E-02  4948   0.508E-01    0.343E-01
RMM:   3    -0.239658509300E+03    0.33798E-03   -0.11022E-02  3585   0.230E-01
   1076 T=   785. E= -.22832815E+03 F= -.23965851E+03 E0= -.23965851E+03  EK= 0.63907E+01 SP= 0.49E+01 SK= 0.22E-02 mag=      0.000
       N       E                     dE             d eps       ncg     rms          rms(c)
DAV:   1    -0.239713468314E+03   -0.54621E-01   -0.11532E-01  6440   0.205E+00    0.466E-01
RMM:   2    -0.239718989737E+03   -0.55214E-02   -0.55074E-02  5039   0.495E-01    0.567E-01
RMM:   3    -0.239719821703E+03   -0.83197E-03   -0.90073E-03  3417   0.212E-01
   1077 T=   791. E= -.22831649E+03 F= -.23971982E+03 E0= -.23971982E+03  EK= 0.64392E+01 SP= 0.50E+01 SK= 0.18E-02 mag=      0.000
       N       E                     dE             d eps       ncg     rms          rms(c)
DAV:   1    -0.239760311425E+03   -0.41322E-01   -0.44350E-02  5952   0.203E+00    0.125E+00
RMM:   2    -0.239759798436E+03    0.51299E-03   -0.57138E-02  5021   0.470E-01    0.928E-01
RMM:   3    -0.239760396368E+03   -0.59793E-03   -0.15449E-02  3776   0.235E-01
   1078 T=   794. E= -.22830847E+03 F= -.23976040E+03 E0= -.23976040E+03  EK= 0.64651E+01 SP= 0.50E+01 SK= 0.16E-02 mag=      0.000
       N       E                     dE             d eps       ncg     rms          rms(c)
DAV:   1    -0.239785031150E+03   -0.25233E-01   -0.58572E-02  6168   0.213E+00    0.235E+00
RMM:   2    -0.239781702722E+03    0.33284E-02   -0.45483E-02  4851   0.463E-01    0.117E+00
RMM:   3    -0.239780806594E+03    0.89613E-03   -0.18871E-02  4089   0.252E-01
   1079 T=   795. E= -.22829821E+03 F= -.23978081E+03 E0= -.23978081E+03  EK= 0.64741E+01 SP= 0.50E+01 SK= 0.14E-02 mag=      0.000
       N       E                     dE             d eps       ncg     rms          rms(c)
DAV:   1    -0.239786546281E+03   -0.48436E-02   -0.96370E-02  6392   0.208E+00    0.519E-01
RMM:   2    -0.239784435986E+03    0.21103E-02   -0.52596E-02  4887   0.516E-01    0.453E-01
RMM:   3    -0.239784604100E+03   -0.16811E-03   -0.16550E-02  4124   0.257E-01
   1080 T=   794. E= -.22828601E+03 F= -.23978460E+03 E0= -.23978460E+03  EK= 0.64695E+01 SP= 0.50E+01 SK= 0.13E-02 mag=     -0.000
       N       E                     dE             d eps       ncg     rms          rms(c)
DAV:   1    -0.239768640586E+03    0.15795E-01   -0.83817E-02  6256   0.210E+00    0.869E-01
RMM:   2    -0.239774035745E+03   -0.53952E-02   -0.53907E-02  5078   0.498E-01    0.766E-01
RMM:   3    -0.239774763850E+03   -0.72811E-03   -0.93476E-03  3414   0.218E-01
   1081 T=   792. E= -.22827597E+03 F= -.23977476E+03 E0= -.23977476E+03  EK= 0.64502E+01 SP= 0.50E+01 SK= 0.11E-02 mag=     -0.000
       N       E                     dE             d eps       ncg     rms          rms(c)
DAV:   1    -0.239751382927E+03    0.22653E-01   -0.78489E-02  6320   0.204E+00    0.198E+00
RMM:   2    -0.239756084342E+03   -0.47014E-02   -0.51524E-02  5090   0.477E-01    0.898E-01
RMM:   3    -0.239756821727E+03   -0.73738E-03   -0.98593E-03  3372   0.218E-01
   1082 T=   789. E= -.22826410E+03 F= -.23975682E+03 E0= -.23975682E+03  EK= 0.64263E+01 SP= 0.51E+01 SK= 0.90E-03 mag=     -0.000
       N       E                     dE             d eps       ncg     rms          rms(c)
DAV:   1    -0.239731446140E+03    0.24638E-01   -0.50020E-02  5832   0.207E+00    0.475E-01
RMM:   2    -0.239736470101E+03   -0.50240E-02   -0.48822E-02  5066   0.471E-01    0.432E-01
RMM:   3    -0.239737320532E+03   -0.85043E-03   -0.95565E-03  3269   0.215E-01
   1083 T=   786. E= -.22825152E+03 F= -.23973732E+03 E0= -.23973732E+03  EK= 0.64037E+01 SP= 0.51E+01 SK= 0.65E-03 mag=     -0.000
       N       E                     dE             d eps       ncg     rms          rms(c)
DAV:   1    -0.239719139994E+03    0.17330E-01   -0.43404E-02  5952   0.205E+00    0.144E+00
RMM:   2    -0.239721452021E+03   -0.23120E-02   -0.40662E-02  5117   0.457E-01    0.102E+00
RMM:   3    -0.239721964893E+03   -0.51287E-03   -0.12925E-02  3440   0.228E-01
   1084 T=   785. E= -.22823659E+03 F= -.23972196E+03 E0= -.23972196E+03  EK= 0.63904E+01 SP= 0.51E+01 SK= 0.42E-03 mag=      0.000
       N       E                     dE             d eps       ncg     rms          rms(c)
DAV:   1    -0.239719237606E+03    0.22144E-02   -0.60724E-02  6248   0.202E+00    0.218E+00
RMM:   2    -0.239716931900E+03    0.23057E-02   -0.42476E-02  5041   0.458E-01    0.107E+00
RMM:   3    -0.239716550118E+03    0.38178E-03   -0.17830E-02  4035   0.249E-01
   1085 T=   784. E= -.22822498E+03 F= -.23971655E+03 E0= -.23971655E+03  EK= 0.63867E+01 SP= 0.51E+01 SK= 0.22E-03 mag=      0.000
       N       E                     dE             d eps       ncg     rms          rms(c)
DAV:   1    -0.239724873568E+03   -0.79417E-02   -0.62354E-02  6160   0.210E+00    0.476E-01
RMM:   2    -0.239723998383E+03    0.87519E-03   -0.48330E-02  4604   0.511E-01    0.370E-01
RMM:   3    -0.239724497537E+03   -0.49915E-03   -0.19352E-02  4537   0.277E-01
   1086 T=   786. E= -.22821478E+03 F= -.23972450E+03 E0= -.23972450E+03  EK= 0.63981E+01 SP= 0.51E+01 SK= 0.93E-04 mag=      0.000
       N       E                     dE             d eps       ncg     rms          rms(c)
DAV:   1    -0.239741655321E+03   -0.17657E-01   -0.67424E-02  6304   0.203E+00    0.653E-01
RMM:   2    -0.239745088600E+03   -0.34333E-02   -0.40780E-02  4620   0.485E-01    0.505E-01
RMM:   3    -0.239746220134E+03   -0.11315E-02   -0.14727E-02  4308   0.261E-01
   1087 T=   790. E= -.22820115E+03 F= -.23974622E+03 E0= -.23974622E+03  EK= 0.64294E+01 SP= 0.51E+01 SK= 0.28E-04 mag=     -0.000
       N       E                     dE             d eps       ncg     rms          rms(c)
DAV:   1    -0.239774924983E+03   -0.29836E-01   -0.42180E-02  5736   0.204E+00    0.917E-01
RMM:   2    -0.239779022733E+03   -0.40977E-02   -0.41809E-02  4774   0.484E-01    0.404E-01
RMM:   3    -0.239780143233E+03   -0.11205E-02   -0.12777E-02  3933   0.241E-01
   1088 T=   795. E= -.22819065E+03 F= -.23978014E+03 E0= -.23978014E+03  EK= 0.64720E+01 SP= 0.51E+01 SK= 0.61E-05 mag=     -0.000
       N       E                     dE             d eps       ncg     rms          rms(c)
DAV:   1    -0.239817489802E+03   -0.38467E-01   -0.39130E-02  5648   0.205E+00    0.331E-01
RMM:   2    -0.239821684413E+03   -0.41946E-02   -0.38585E-02  4781   0.474E-01    0.139E-01
RMM:   3    -0.239822840886E+03   -0.11565E-02   -0.11596E-02  3596   0.230E-01
   1089 T=   801. E= -.22817939E+03 F= -.23982284E+03 E0= -.23982284E+03  EK= 0.65251E+01 SP= 0.51E+01 SK= 0.31E-05 mag=     -0.000
       N       E                     dE             d eps       ncg     rms          rms(c)
DAV:   1    -0.239864031651E+03   -0.42347E-01   -0.49277E-02  5912   0.205E+00    0.246E-01
RMM:   2    -0.239868212163E+03   -0.41805E-02   -0.37978E-02  4841   0.458E-01    0.223E-01
RMM:   3    -0.239869408480E+03   -0.11963E-02   -0.11970E-02  3677   0.223E-01
   1090 T=   809. E= -.22816518E+03 F= -.23986941E+03 E0= -.23986941E+03  EK= 0.65847E+01 SP= 0.51E+01 SK= 0.12E-04 mag=      0.000
       N       E                     dE             d eps       ncg     rms          rms(c)
DAV:   1    -0.239907747204E+03   -0.39535E-01   -0.52193E-02  5936   0.207E+00    0.332E-01
RMM:   2    -0.239912244297E+03   -0.44971E-02   -0.39856E-02  4988   0.456E-01    0.335E-01
RMM:   3    -0.239913371117E+03   -0.11268E-02   -0.11084E-02  3434   0.211E-01
   1091 T=   815. E= -.22815244E+03 F= -.23991337E+03 E0= -.23991337E+03  EK= 0.66385E+01 SP= 0.51E+01 SK= 0.60E-04 mag=     -0.000
       N       E                     dE             d eps       ncg     rms          rms(c)
DAV:   1    -0.239943942426E+03   -0.31698E-01   -0.52144E-02  5896   0.207E+00    0.180E-01
RMM:   2    -0.239948518068E+03   -0.45756E-02   -0.40276E-02  5067   0.438E-01    0.293E-01
RMM:   3    -0.239949530792E+03   -0.10127E-02   -0.98114E-03  3292   0.200E-01
   1092 T=   820. E= -.22814040E+03 F= -.23994953E+03 E0= -.23994953E+03  EK= 0.66807E+01 SP= 0.51E+01 SK= 0.20E-03 mag=     -0.000
       N       E                     dE             d eps       ncg     rms          rms(c)
DAV:   1    -0.239968486901E+03   -0.19969E-01   -0.57690E-02  6016   0.210E+00    0.329E-01
RMM:   2    -0.239972959079E+03   -0.44722E-02   -0.40653E-02  5060   0.446E-01    0.258E-01
RMM:   3    -0.239973937673E+03   -0.97859E-03   -0.99262E-03  3254   0.203E-01
   1093 T=   824. E= -.22812702E+03 F= -.23997394E+03 E0= -.23997394E+03  EK= 0.67082E+01 SP= 0.51E+01 SK= 0.48E-03 mag=      0.000
       N       E                     dE             d eps       ncg     rms          rms(c)
DAV:   1    -0.239979282013E+03   -0.63229E-02   -0.51338E-02  5888   0.209E+00    0.456E-01
RMM:   2    -0.239983978098E+03   -0.46961E-02   -0.41960E-02  5068   0.439E-01    0.177E-01
RMM:   3    -0.239985005326E+03   -0.10272E-02   -0.10112E-02  3281   0.204E-01
   1094 T=   825. E= -.22811417E+03 F= -.23998501E+03 E0= -.23998501E+03  EK= 0.67169E+01 SP= 0.52E+01 SK= 0.93E-03 mag=     -0.000
       N       E                     dE             d eps       ncg     rms          rms(c)
DAV:   1    -0.239978530849E+03    0.54472E-02   -0.56374E-02  5992   0.208E+00    0.430E-01
RMM:   2    -0.239983143585E+03   -0.46127E-02   -0.41025E-02  5128   0.438E-01    0.117E-01
RMM:   3    -0.239984065746E+03   -0.92216E-03   -0.92875E-03  3207   0.200E-01
   1095 T=   824. E= -.22810155E+03 F= -.23998407E+03 E0= -.23998407E+03  EK= 0.67082E+01 SP= 0.52E+01 SK= 0.15E-02 mag=     -0.000
       N       E                     dE             d eps       ncg     rms          rms(c)
DAV:   1    -0.239967555307E+03    0.15588E-01   -0.53297E-02  5904   0.208E+00    0.320E-01
RMM:   2    -0.239972468261E+03   -0.49130E-02   -0.42807E-02  5139   0.436E-01    0.201E-01
RMM:   3    -0.239973415310E+03   -0.94705E-03   -0.93299E-03  3135   0.198E-01
   1096 T=   821. E= -.22808827E+03 F= -.23997342E+03 E0= -.23997342E+03  EK= 0.66856E+01 SP= 0.52E+01 SK= 0.22E-02 mag=     -0.000
       N       E                     dE             d eps       ncg     rms          rms(c)
DAV:   1    -0.239951682119E+03    0.20786E-01   -0.55651E-02  6072   0.207E+00    0.229E-01
RMM:   2    -0.239956252462E+03   -0.45703E-02   -0.39409E-02  5084   0.433E-01    0.224E-01
RMM:   3    -0.239957217630E+03   -0.96517E-03   -0.94101E-03  3208   0.198E-01
   1097 T=   817. E= -.22807564E+03 F= -.23995722E+03 E0= -.23995722E+03  EK= 0.66526E+01 SP= 0.52E+01 SK= 0.29E-02 mag=     -0.000
       N       E                     dE             d eps       ncg     rms          rms(c)
DAV:   1    -0.239934358343E+03    0.21894E-01   -0.49231E-02  5904   0.208E+00    0.307E-01
RMM:   2    -0.239938912233E+03   -0.45539E-02   -0.39296E-02  5154   0.433E-01    0.353E-01
RMM:   3    -0.239939830819E+03   -0.91859E-03   -0.90076E-03  3124   0.197E-01
   1098 T=   812. E= -.22806292E+03 F= -.23993983E+03 E0= -.23993983E+03  EK= 0.66152E+01 SP= 0.53E+01 SK= 0.35E-02 mag=     -0.000
       N       E                     dE             d eps       ncg     rms          rms(c)
DAV:   1    -0.239918824098E+03    0.20088E-01   -0.51637E-02  5912   0.209E+00    0.816E-01
RMM:   2    -0.239923301433E+03   -0.44773E-02   -0.39703E-02  5136   0.439E-01    0.663E-01
RMM:   3    -0.239924159102E+03   -0.85767E-03   -0.93514E-03  3161   0.201E-01
   1099 T=   808. E= -.22805030E+03 F= -.23992416E+03 E0= -.23992416E+03  EK= 0.65771E+01 SP= 0.53E+01 SK= 0.39E-02 mag=      0.000
       N       E                     dE             d eps       ncg     rms          rms(c)
DAV:   1    -0.239907593323E+03    0.15708E-01   -0.49956E-02  5952   0.209E+00    0.249E+00
RMM:   2    -0.239910588209E+03   -0.29949E-02   -0.38887E-02  5171   0.428E-01    0.128E+00
RMM:   3    -0.239911044205E+03   -0.45600E-03   -0.10983E-02  3226   0.210E-01
   1100 T=   803. E= -.22803770E+03 F= -.23991104E+03 E0= -.23991104E+03  EK= 0.65402E+01 SP= 0.53E+01 SK= 0.41E-02 mag=      0.000
       N       E                     dE             d eps       ncg     rms          rms(c)
DAV:   1    -0.239895104882E+03    0.15483E-01   -0.70397E-02  6144   0.211E+00    0.822E-01
RMM:   2    -0.239899024862E+03   -0.39200E-02   -0.44973E-02  5139   0.466E-01    0.697E-01
RMM:   3    -0.239899464805E+03   -0.43994E-03   -0.98478E-03  3318   0.213E-01
   1101 T=   799. E= -.22802446E+03 F= -.23989946E+03 E0= -.23989946E+03  EK= 0.65050E+01 SP= 0.54E+01 SK= 0.42E-02 mag=     -0.000
       N       E                     dE             d eps       ncg     rms          rms(c)
DAV:   1    -0.239885430775E+03    0.13594E-01   -0.67163E-02  6216   0.210E+00    0.978E-01
RMM:   2    -0.239887131894E+03   -0.17011E-02   -0.43354E-02  5120   0.447E-01    0.342E-01
RMM:   3    -0.239886914846E+03    0.21705E-03   -0.10366E-02  3179   0.207E-01
   1102 T=   794. E= -.22801260E+03 F= -.23988691E+03 E0= -.23988691E+03  EK= 0.64679E+01 SP= 0.54E+01 SK= 0.40E-02 mag=     -0.000
       N       E                     dE             d eps       ncg     rms          rms(c)
DAV:   1    -0.239864661461E+03    0.22470E-01   -0.83078E-02  6176   0.210E+00    0.356E-01
RMM:   2    -0.239869937736E+03   -0.52763E-02   -0.57612E-02  5137   0.483E-01    0.365E-01
RMM:   3    -0.239870341597E+03   -0.40386E-03   -0.92935E-03  3331   0.214E-01
   1103 T=   789. E= -.22800257E+03 F= -.23987034E+03 E0= -.23987034E+03  EK= 0.64264E+01 SP= 0.54E+01 SK= 0.37E-02 mag=     -0.000
       N       E                     dE             d eps       ncg     rms          rms(c)
DAV:   1    -0.239843944763E+03    0.25993E-01   -0.55764E-02  5896   0.210E+00    0.732E-01
RMM:   2    -0.239845425962E+03   -0.14812E-02   -0.60449E-02  5116   0.471E-01    0.624E-01
RMM:   3    -0.239846238621E+03   -0.81266E-03   -0.11833E-02  3411   0.226E-01
   1104 T=   784. E= -.22799030E+03 F= -.23984624E+03 E0= -.23984624E+03  EK= 0.63819E+01 SP= 0.55E+01 SK= 0.31E-02 mag=      0.000
       N       E                     dE             d eps       ncg     rms          rms(c)
DAV:   1    -0.239819070426E+03    0.26356E-01   -0.45104E-02  6040   0.208E+00    0.125E+00
RMM:   2    -0.239816560736E+03    0.25097E-02   -0.43251E-02  5047   0.441E-01    0.530E-01
RMM:   3    -0.239816324028E+03    0.23671E-03   -0.13161E-02  3469   0.225E-01
   1105 T=   778. E= -.22797935E+03 F= -.23981632E+03 E0= -.23981632E+03  EK= 0.63337E+01 SP= 0.55E+01 SK= 0.24E-02 mag=      0.000
       N       E                     dE             d eps       ncg     rms          rms(c)
DAV:   1    -0.239777883644E+03    0.38677E-01   -0.72820E-02  6208   0.212E+00    0.552E-01
RMM:   2    -0.239781066092E+03   -0.31824E-02   -0.47948E-02  5095   0.481E-01    0.259E-01
RMM:   3    -0.239781201079E+03   -0.13499E-03   -0.85147E-03  3138   0.212E-01
   1106 T=   772. E= -.22796964E+03 F= -.23978120E+03 E0= -.23978120E+03  EK= 0.62836E+01 SP= 0.55E+01 SK= 0.16E-02 mag=      0.000
       N       E                     dE             d eps       ncg     rms          rms(c)
DAV:   1    -0.239735970354E+03    0.45096E-01   -0.66851E-02  6248   0.209E+00    0.320E-01
RMM:   2    -0.239740829735E+03   -0.48594E-02   -0.49014E-02  5222   0.471E-01    0.400E-01
RMM:   3    -0.239741696321E+03   -0.86659E-03   -0.90357E-03  3141   0.207E-01
   1107 T=   766. E= -.22795680E+03 F= -.23974170E+03 E0= -.23974170E+03  EK= 0.62379E+01 SP= 0.55E+01 SK= 0.83E-03 mag=     -0.000
       N       E                     dE             d eps       ncg     rms          rms(c)
DAV:   1    -0.239698690095E+03    0.42140E-01   -0.44462E-02  5824   0.204E+00    0.753E-01
RMM:   2    -0.239700635400E+03   -0.19453E-02   -0.49143E-02  5156   0.454E-01    0.612E-01
RMM:   3    -0.239701395129E+03   -0.75973E-03   -0.11449E-02  3297   0.216E-01
   1108 T=   761. E= -.22794434E+03 F= -.23970140E+03 E0= -.23970140E+03  EK= 0.61977E+01 SP= 0.56E+01 SK= 0.25E-03 mag=     -0.000
       N       E                     dE             d eps       ncg     rms          rms(c)
DAV:   1    -0.239663656117E+03    0.36979E-01   -0.58110E-02  6096   0.207E+00    0.154E+00
RMM:   2    -0.239664800216E+03   -0.11441E-02   -0.40398E-02  5079   0.454E-01    0.713E-01
RMM:   3    -0.239664850961E+03   -0.50745E-04   -0.10971E-02  3365   0.216E-01
   1109 T=   757. E= -.22793300E+03 F= -.23966485E+03 E0= -.23966485E+03  EK= 0.61677E+01 SP= 0.56E+01 SK= 0.21E-05 mag=      0.000
       N       E                     dE             d eps       ncg     rms          rms(c)
DAV:   1    -0.239631412156E+03    0.33388E-01   -0.82638E-02  6184   0.203E+00    0.387E-01
RMM:   2    -0.239634464734E+03   -0.30526E-02   -0.46313E-02  5091   0.461E-01    0.310E-01
RMM:   3    -0.239634896781E+03   -0.43205E-03   -0.85464E-03  3189   0.204E-01
   1110 T=   756. E= -.22792044E+03 F= -.23963490E+03 E0= -.23963490E+03  EK= 0.61535E+01 SP= 0.56E+01 SK= 0.19E-03 mag=      0.000
       N       E                     dE             d eps       ncg     rms          rms(c)
DAV:   1    -0.239605442622E+03    0.29022E-01   -0.52645E-02  6080   0.202E+00    0.657E-01
RMM:   2    -0.239610039051E+03   -0.45964E-02   -0.48957E-02  5158   0.454E-01    0.590E-01
RMM:   3    -0.239610903222E+03   -0.86417E-03   -0.91914E-03  3106   0.204E-01
   1111 T=   756. E= -.22790776E+03 F= -.23961090E+03 E0= -.23961090E+03  EK= 0.61539E+01 SP= 0.55E+01 SK= 0.88E-03 mag=      0.000
       N       E                     dE             d eps       ncg     rms          rms(c)
DAV:   1    -0.239590009269E+03    0.20030E-01   -0.57879E-02  6032   0.202E+00    0.130E+00
RMM:   2    -0.239592950006E+03   -0.29407E-02   -0.43701E-02  5102   0.440E-01    0.580E-01
RMM:   3    -0.239593730341E+03   -0.78034E-03   -0.10452E-02  3318   0.209E-01
   1112 T=   758. E= -.22789577E+03 F= -.23959373E+03 E0= -.23959373E+03  EK= 0.61688E+01 SP= 0.55E+01 SK= 0.20E-02 mag=     -0.000
       N       E                     dE             d eps       ncg     rms          rms(c)
DAV:   1    -0.239577909670E+03    0.15040E-01   -0.53074E-02  5880   0.202E+00    0.337E-01
RMM:   2    -0.239582361637E+03   -0.44520E-02   -0.45986E-02  5117   0.456E-01    0.281E-01
RMM:   3    -0.239583163547E+03   -0.80191E-03   -0.91433E-03  3249   0.204E-01
   1113 T=   761. E= -.22788363E+03 F= -.23958316E+03 E0= -.23958316E+03  EK= 0.61987E+01 SP= 0.55E+01 SK= 0.35E-02 mag=     -0.000
       N       E                     dE             d eps       ncg     rms          rms(c)
DAV:   1    -0.239572003099E+03    0.10359E-01   -0.52783E-02  5856   0.201E+00    0.676E-01
RMM:   2    -0.239575899587E+03   -0.38965E-02   -0.42428E-02  5102   0.438E-01    0.582E-01
RMM:   3    -0.239576680595E+03   -0.78101E-03   -0.95024E-03  3204   0.201E-01
   1114 T=   766. E= -.22787185E+03 F= -.23957668E+03 E0= -.23957668E+03  EK= 0.62399E+01 SP= 0.55E+01 SK= 0.52E-02 mag=      0.000
       N       E                     dE             d eps       ncg     rms          rms(c)
DAV:   1    -0.239569849967E+03    0.60496E-02   -0.56634E-02  6024   0.201E+00    0.139E+00
RMM:   2    -0.239571869818E+03   -0.20199E-02   -0.39475E-02  5078   0.428E-01    0.622E-01
RMM:   3    -0.239572129505E+03   -0.25969E-03   -0.10627E-02  3302   0.207E-01
   1115 T=   772. E= -.22786109E+03 F= -.23957213E+03 E0= -.23957213E+03  EK= 0.62888E+01 SP= 0.54E+01 SK= 0.69E-02 mag=      0.000
       N       E                     dE             d eps       ncg     rms          rms(c)
DAV:   1    -0.239564686044E+03    0.71838E-02   -0.61802E-02  6112   0.202E+00    0.290E-01
RMM:   2    -0.239568704369E+03   -0.40183E-02   -0.45974E-02  5108   0.450E-01    0.312E-01
RMM:   3    -0.239569259228E+03   -0.55486E-03   -0.82326E-03  3151   0.198E-01
   1116 T=   779. E= -.22785033E+03 F= -.23956926E+03 E0= -.23956926E+03  EK= 0.63452E+01 SP= 0.54E+01 SK= 0.84E-02 mag=     -0.000
       N       E                     dE             d eps       ncg     rms          rms(c)
DAV:   1    -0.239563549571E+03    0.51548E-02   -0.56839E-02  6032   0.200E+00    0.737E-01
RMM:   2    -0.239567148320E+03   -0.35987E-02   -0.48237E-02  5094   0.449E-01    0.639E-01
RMM:   3    -0.239567858970E+03   -0.71065E-03   -0.97224E-03  3256   0.204E-01
   1117 T=   787. E= -.22783834E+03 F= -.23956786E+03 E0= -.23956786E+03  EK= 0.64088E+01 SP= 0.53E+01 SK= 0.96E-02 mag=      0.000
       N       E                     dE             d eps       ncg     rms          rms(c)
DAV:   1    -0.239568817655E+03   -0.16693E-02   -0.54843E-02  6008   0.199E+00    0.139E+00
RMM:   2    -0.239569542738E+03   -0.72508E-03   -0.44114E-02  5025   0.435E-01    0.621E-01
RMM:   3    -0.239569552845E+03   -0.10107E-04   -0.12083E-02  3438   0.217E-01
   1118 T=   795. E= -.22782782E+03 F= -.23956955E+03 E0= -.23956955E+03  EK= 0.64771E+01 SP= 0.53E+01 SK= 0.10E-01 mag=      0.000
       N       E                     dE             d eps       ncg     rms          rms(c)
DAV:   1    -0.239572277425E+03   -0.27347E-02   -0.71004E-02  6064   0.203E+00    0.414E-01
RMM:   2    -0.239576387663E+03   -0.41102E-02   -0.50605E-02  5075   0.465E-01    0.307E-01
RMM:   3    -0.239576747102E+03   -0.35944E-03   -0.84664E-03  3226   0.205E-01
   1119 T=   805. E= -.22781817E+03 F= -.23957675E+03 E0= -.23957675E+03  EK= 0.65517E+01 SP= 0.52E+01 SK= 0.10E-01 mag=      0.000
       N       E                     dE             d eps       ncg     rms          rms(c)
DAV:   1    -0.239585675829E+03   -0.92882E-02   -0.66788E-02  6056   0.203E+00    0.558E-01
RMM:   2    -0.239590109380E+03   -0.44336E-02   -0.54801E-02  5098   0.463E-01    0.561E-01
RMM:   3    -0.239590925963E+03   -0.81658E-03   -0.90969E-03  3249   0.208E-01
   1120 T=   815. E= -.22780553E+03 F= -.23959093E+03 E0= -.23959093E+03  EK= 0.66360E+01 SP= 0.51E+01 SK= 0.95E-02 mag=      0.000
       N       E                     dE             d eps       ncg     rms          rms(c)
DAV:   1    -0.239610085562E+03   -0.19976E-01   -0.57386E-02  6040   0.204E+00    0.707E-01
RMM:   2    -0.239613077608E+03   -0.29920E-02   -0.47228E-02  5022   0.453E-01    0.284E-01
RMM:   3    -0.239613837004E+03   -0.75940E-03   -0.98755E-03  3321   0.210E-01
   1121 T=   826. E= -.22779345E+03 F= -.23961384E+03 E0= -.23961384E+03  EK= 0.67261E+01 SP= 0.51E+01 SK= 0.82E-02 mag=     -0.000
       N       E                     dE             d eps       ncg     rms          rms(c)
DAV:   1    -0.239640562582E+03   -0.27485E-01   -0.63389E-02  5968   0.208E+00    0.658E-01
RMM:   2    -0.239645632482E+03   -0.50699E-02   -0.48256E-02  5108   0.465E-01    0.249E-01
RMM:   3    -0.239646433160E+03   -0.80068E-03   -0.89512E-03  3262   0.203E-01
   1122 T=   837. E= -.22778343E+03 F= -.23964643E+03 E0= -.23964643E+03  EK= 0.68192E+01 SP= 0.50E+01 SK= 0.63E-02 mag=      0.000
       N       E                     dE             d eps       ncg     rms          rms(c)
DAV:   1    -0.239680699309E+03   -0.35067E-01   -0.62195E-02  6120   0.211E+00    0.233E-01
RMM:   2    -0.239685699970E+03   -0.50007E-02   -0.48210E-02  5076   0.454E-01    0.200E-01
RMM:   3    -0.239686610901E+03   -0.91093E-03   -0.92122E-03  3192   0.205E-01
   1123 T=   849. E= -.22777054E+03 F= -.23968661E+03 E0= -.23968661E+03  EK= 0.69155E+01 SP= 0.50E+01 SK= 0.41E-02 mag=      0.000
       N       E                     dE             d eps       ncg     rms          rms(c)
DAV:   1    -0.239725891690E+03   -0.40192E-01   -0.68281E-02  6024   0.211E+00    0.318E-01
RMM:   2    -0.239730820649E+03   -0.49290E-02   -0.47882E-02  5073   0.459E-01    0.391E-01
RMM:   3    -0.239731846912E+03   -0.10263E-02   -0.10107E-02  3330   0.207E-01
   1124 T=   861. E= -.22775712E+03 F= -.23973185E+03 E0= -.23973185E+03  EK= 0.70074E+01 SP= 0.50E+01 SK= 0.20E-02 mag=      0.000
       N       E                     dE             d eps       ncg     rms          rms(c)
DAV:   1    -0.239771466963E+03   -0.40646E-01   -0.59790E-02  6096   0.217E+00    0.494E-01
RMM:   2    -0.239776687132E+03   -0.52202E-02   -0.49163E-02  5134   0.464E-01    0.497E-01
RMM:   3    -0.239777604582E+03   -0.91745E-03   -0.96111E-03  3204   0.204E-01
   1125 T=   870. E= -.22774412E+03 F= -.23977760E+03 E0= -.23977760E+03  EK= 0.70867E+01 SP= 0.49E+01 SK= 0.45E-03 mag=     -0.000
       N       E                     dE             d eps       ncg     rms          rms(c)
DAV:   1    -0.239814078573E+03   -0.37391E-01   -0.81063E-02  6112   0.222E+00    0.746E-01
RMM:   2    -0.239819491380E+03   -0.54128E-02   -0.51842E-02  5018   0.460E-01    0.248E-01
RMM:   3    -0.239820489815E+03   -0.99844E-03   -0.10446E-02  3387   0.212E-01
   1126 T=   878. E= -.22773094E+03 F= -.23982049E+03 E0= -.23982049E+03  EK= 0.71481E+01 SP= 0.49E+01 SK= 0.26E-04 mag=      0.000
       N       E                     dE             d eps       ncg     rms          rms(c)
DAV:   1    -0.239848839087E+03   -0.29348E-01   -0.73339E-02  6088   0.219E+00    0.646E-01
RMM:   2    -0.239854440795E+03   -0.56017E-02   -0.52613E-02  5029   0.467E-01    0.209E-01
RMM:   3    -0.239855513443E+03   -0.10726E-02   -0.10689E-02  3293   0.215E-01
   1127 T=   882. E= -.22771629E+03 F= -.23985551E+03 E0= -.23985551E+03  EK= 0.71860E+01 SP= 0.50E+01 SK= 0.11E-02 mag=      0.000
       N       E                     dE             d eps       ncg     rms          rms(c)
DAV:   1    -0.239874831971E+03   -0.20391E-01   -0.76198E-02  6096   0.223E+00    0.198E-01
RMM:   2    -0.239880472828E+03   -0.56409E-02   -0.50725E-02  5034   0.472E-01    0.214E-01
RMM:   3    -0.239881601134E+03   -0.11283E-02   -0.11017E-02  3280   0.211E-01
   1128 T=   884. E= -.22770090E+03 F= -.23988160E+03 E0= -.23988160E+03  EK= 0.71974E+01 SP= 0.50E+01 SK= 0.40E-02 mag=      0.000
       N       E                     dE             d eps       ncg     rms          rms(c)
DAV:   1    -0.239890963718E+03   -0.10491E-01   -0.71328E-02  5920   0.225E+00    0.530E-01
RMM:   2    -0.239896610177E+03   -0.56465E-02   -0.49407E-02  5080   0.464E-01    0.514E-01
RMM:   3    -0.239897685290E+03   -0.10751E-02   -0.10686E-02  3231   0.209E-01
   1129 T=   882. E= -.22768366E+03 F= -.23989769E+03 E0= -.23989769E+03  EK= 0.71820E+01 SP= 0.50E+01 SK= 0.85E-02 mag=      0.000
       N       E                     dE             d eps       ncg     rms          rms(c)
DAV:   1    -0.239899926856E+03   -0.33167E-02   -0.86522E-02  6104   0.221E+00    0.130E+00
RMM:   2    -0.239905234189E+03   -0.53073E-02   -0.50047E-02  5045   0.463E-01    0.559E-01
RMM:   3    -0.239906260722E+03   -0.10265E-02   -0.11399E-02  3295   0.214E-01
   1130 T=   877. E= -.22766679E+03 F= -.23990626E+03 E0= -.23990626E+03  EK= 0.71409E+01 SP= 0.51E+01 SK= 0.15E-01 mag=     -0.000
       N       E                     dE             d eps       ncg     rms          rms(c)
DAV:   1    -0.239904767910E+03    0.46628E-03   -0.69822E-02  6064   0.225E+00    0.243E-01
RMM:   2    -0.239910525362E+03   -0.57575E-02   -0.52035E-02  5110   0.481E-01    0.253E-01
RMM:   3    -0.239911623234E+03   -0.10979E-02   -0.11048E-02  3246   0.212E-01
   1131 T=   870. E= -.22764925E+03 F= -.23991162E+03 E0= -.23991162E+03  EK= 0.70809E+01 SP= 0.52E+01 SK= 0.21E-01 mag=     -0.000
       N       E                     dE             d eps       ncg     rms          rms(c)
DAV:   1    -0.239912103460E+03   -0.15781E-02   -0.74603E-02  6112   0.223E+00    0.799E-01
RMM:   2    -0.239916797964E+03   -0.46945E-02   -0.48481E-02  5029   0.471E-01    0.671E-01
RMM:   3    -0.239917709164E+03   -0.91120E-03   -0.12125E-02  3255   0.215E-01
   1132 T=   861. E= -.22762777E+03 F= -.23991771E+03 E0= -.23991771E+03  EK= 0.70112E+01 SP= 0.53E+01 SK= 0.29E-01 mag=      0.000
       N       E                     dE             d eps       ncg     rms          rms(c)
DAV:   1    -0.239927073753E+03   -0.10276E-01   -0.65398E-02  6000   0.214E+00    0.156E+00
RMM:   2    -0.239929474462E+03   -0.24007E-02   -0.49992E-02  5033   0.451E-01    0.725E-01
RMM:   3    -0.239929876199E+03   -0.40174E-03   -0.14013E-02  3367   0.228E-01
   1133 T=   851. E= -.22760831E+03 F= -.23992988E+03 E0= -.23992988E+03  EK= 0.69334E+01 SP= 0.54E+01 SK= 0.36E-01 mag=      0.000
       N       E                     dE             d eps       ncg     rms          rms(c)
DAV:   1    -0.239947587840E+03   -0.18113E-01   -0.96695E-02  6032   0.221E+00    0.341E-01
RMM:   2    -0.239952121160E+03   -0.45333E-02   -0.55344E-02  4964   0.481E-01    0.343E-01
RMM:   3    -0.239952792896E+03   -0.67174E-03   -0.10512E-02  3278   0.215E-01
   1134 T=   842. E= -.22759092E+03 F= -.23995279E+03 E0= -.23995279E+03  EK= 0.68547E+01 SP= 0.55E+01 SK= 0.42E-01 mag=     -0.000
       N       E                     dE             d eps       ncg     rms          rms(c)
DAV:   1    -0.239980491277E+03   -0.28370E-01   -0.89121E-02  6144   0.214E+00    0.695E-01
RMM:   2    -0.239985791420E+03   -0.53001E-02   -0.55300E-02  4978   0.469E-01    0.629E-01
RMM:   3    -0.239986856916E+03   -0.10655E-02   -0.11046E-02  3193   0.211E-01
   1135 T=   833. E= -.22756843E+03 F= -.23998686E+03 E0= -.23998686E+03  EK= 0.67847E+01 SP= 0.56E+01 SK= 0.48E-01 mag=      0.000
       N       E                     dE             d eps       ncg     rms          rms(c)
DAV:   1    -0.240029863838E+03   -0.44072E-01   -0.79649E-02  5976   0.206E+00    0.129E+00
RMM:   2    -0.240032597535E+03   -0.27337E-02   -0.51622E-02  4958   0.457E-01    0.578E-01
RMM:   3    -0.240033378153E+03   -0.78062E-03   -0.13487E-02  3480   0.225E-01
   1136 T=   825. E= -.22755076E+03 F= -.24003338E+03 E0= -.24003338E+03  EK= 0.67166E+01 SP= 0.57E+01 SK= 0.53E-01 mag=      0.000
       N       E                     dE             d eps       ncg     rms          rms(c)
DAV:   1    -0.240083659704E+03   -0.51062E-01   -0.79416E-02  6024   0.213E+00    0.403E-01
RMM:   2    -0.240089243468E+03   -0.55838E-02   -0.56161E-02  4980   0.467E-01    0.285E-01
RMM:   3    -0.240090001479E+03   -0.75801E-03   -0.10033E-02  3238   0.206E-01
   1137 T=   817. E= -.22753647E+03 F= -.24009000E+03 E0= -.24009000E+03  EK= 0.66516E+01 SP= 0.58E+01 SK= 0.56E-01 mag=     -0.000
       N       E                     dE             d eps       ncg     rms          rms(c)
DAV:   1    -0.240146095179E+03   -0.56852E-01   -0.92991E-02  6160   0.207E+00    0.469E-01
RMM:   2    -0.240151310973E+03   -0.52158E-02   -0.56410E-02  4942   0.450E-01    0.495E-01
RMM:   3    -0.240152343427E+03   -0.10325E-02   -0.10467E-02  3237   0.205E-01
   1138 T=   810. E= -.22751749E+03 F= -.24015234E+03 E0= -.24015234E+03  EK= 0.65947E+01 SP= 0.60E+01 SK= 0.58E-01 mag=     -0.000
       N       E                     dE             d eps       ncg     rms          rms(c)
DAV:   1    -0.240211097146E+03   -0.59786E-01   -0.74778E-02  5960   0.201E+00    0.397E-01
RMM:   2    -0.240215166064E+03   -0.40689E-02   -0.46834E-02  4958   0.435E-01    0.258E-01
RMM:   3    -0.240216111566E+03   -0.94550E-03   -0.10280E-02  3209   0.199E-01
   1139 T=   803. E= -.22750148E+03 F= -.24021611E+03 E0= -.24021611E+03  EK= 0.65355E+01 SP= 0.61E+01 SK= 0.59E-01 mag=      0.000
       N       E                     dE             d eps       ncg     rms          rms(c)
DAV:   1    -0.240269401274E+03   -0.54235E-01   -0.66902E-02  5960   0.205E+00    0.517E-01
RMM:   2    -0.240274622256E+03   -0.52210E-02   -0.47242E-02  5022   0.435E-01    0.203E-01
RMM:   3    -0.240275508009E+03   -0.88575E-03   -0.87795E-03  3097   0.186E-01
   1140 T=   794. E= -.22749042E+03 F= -.24027551E+03 E0= -.24027551E+03  EK= 0.64678E+01 SP= 0.63E+01 SK= 0.59E-01 mag=      0.000
       N       E                     dE             d eps       ncg     rms          rms(c)
DAV:   1    -0.240320041740E+03   -0.45419E-01   -0.69312E-02  5824   0.203E+00    0.416E-01
RMM:   2    -0.240325124409E+03   -0.50827E-02   -0.49522E-02  4953   0.417E-01    0.143E-01
RMM:   3    -0.240326071018E+03   -0.94661E-03   -0.96806E-03  3196   0.192E-01
   1141 T=   785. E= -.22747862E+03 F= -.24032607E+03 E0= -.24032607E+03  EK= 0.63946E+01 SP= 0.64E+01 SK= 0.57E-01 mag=     -0.000
       N       E                     dE             d eps       ncg     rms          rms(c)
DAV:   1    -0.240358334718E+03   -0.33210E-01   -0.68313E-02  6008   0.198E+00    0.211E-01
RMM:   2    -0.240363208722E+03   -0.48740E-02   -0.43566E-02  4933   0.409E-01    0.166E-01
RMM:   3    -0.240364054668E+03   -0.84595E-03   -0.84714E-03  3131   0.181E-01
   1142 T=   775. E= -.22746627E+03 F= -.24036405E+03 E0= -.24036405E+03  EK= 0.63139E+01 SP= 0.65E+01 SK= 0.54E-01 mag=     -0.000
       N       E                     dE             d eps       ncg     rms          rms(c)
DAV:   1    -0.240379669774E+03   -0.16461E-01   -0.68639E-02  5872   0.196E+00    0.196E-01
RMM:   2    -0.240384437970E+03   -0.47682E-02   -0.42576E-02  4904   0.400E-01    0.305E-01
RMM:   3    -0.240385264851E+03   -0.82688E-03   -0.81219E-03  3110   0.176E-01
   1143 T=   764. E= -.22745646E+03 F= -.24038526E+03 E0= -.24038526E+03  EK= 0.62205E+01 SP= 0.67E+01 SK= 0.49E-01 mag=      0.000
       N       E                     dE             d eps       ncg     rms          rms(c)
DAV:   1    -0.240382204537E+03    0.22334E-02   -0.67781E-02  5976   0.198E+00    0.386E-01
RMM:   2    -0.240386823344E+03   -0.46188E-02   -0.41643E-02  4905   0.400E-01    0.443E-01
RMM:   3    -0.240387656189E+03   -0.83284E-03   -0.83928E-03  3170   0.177E-01
   1144 T=   751. E= -.22744784E+03 F= -.24038766E+03 E0= -.24038766E+03  EK= 0.61159E+01 SP= 0.68E+01 SK= 0.43E-01 mag=      0.000
       N       E                     dE             d eps       ncg     rms          rms(c)
DAV:   1    -0.240365500672E+03    0.21323E-01   -0.61117E-02  5992   0.198E+00    0.843E-01
RMM:   2    -0.240369848036E+03   -0.43474E-02   -0.41552E-02  4938   0.404E-01    0.721E-01
RMM:   3    -0.240370543366E+03   -0.69533E-03   -0.80481E-03  3059   0.175E-01
   1145 T=   737. E= -.22743830E+03 F= -.24037054E+03 E0= -.24037054E+03  EK= 0.60039E+01 SP= 0.69E+01 SK= 0.35E-01 mag=     -0.000
       N       E                     dE             d eps       ncg     rms          rms(c)
DAV:   1    -0.240331881585E+03    0.37966E-01   -0.63651E-02  6064   0.197E+00    0.304E+00
RMM:   2    -0.240333559488E+03   -0.16779E-02   -0.41537E-02  4937   0.410E-01    0.154E+00
RMM:   3    -0.240333470061E+03    0.89427E-04   -0.11754E-02  3325   0.201E-01
   1146 T=   722. E= -.22743057E+03 F= -.24033347E+03 E0= -.24033347E+03  EK= 0.58835E+01 SP= 0.70E+01 SK= 0.26E-01 mag=     -0.000
       N       E                     dE             d eps       ncg     rms          rms(c)
DAV:   1    -0.240275519951E+03    0.58040E-01   -0.75091E-02  5992   0.204E+00    0.110E+00
RMM:   2    -0.240278514785E+03   -0.29948E-02   -0.50288E-02  4982   0.447E-01    0.927E-01
RMM:   3    -0.240278150500E+03    0.36429E-03   -0.10967E-02  3281   0.202E-01
   1147 T=   707. E= -.22742254E+03 F= -.24027815E+03 E0= -.24027815E+03  EK= 0.57610E+01 SP= 0.71E+01 SK= 0.17E-01 mag=      0.000
       N       E                     dE             d eps       ncg     rms          rms(c)
DAV:   1    -0.240209816778E+03    0.68698E-01   -0.11069E-01  6336   0.187E+00    0.119E+00
RMM:   2    -0.240207208878E+03    0.26079E-02   -0.48354E-02  4765   0.434E-01    0.391E-01
RMM:   3    -0.240206090495E+03    0.11184E-02   -0.14433E-02  3834   0.208E-01
   1148 T=   692. E= -.22741621E+03 F= -.24020609E+03 E0= -.24020609E+03  EK= 0.56379E+01 SP= 0.71E+01 SK= 0.93E-02 mag=      0.000
       N       E                     dE             d eps       ncg     rms          rms(c)
DAV:   1    -0.240117989865E+03    0.89219E-01   -0.11781E-01  6304   0.200E+00    0.397E-01
RMM:   2    -0.240121056432E+03   -0.30666E-02   -0.61398E-02  4807   0.470E-01    0.441E-01
RMM:   3    -0.240120857062E+03    0.19937E-03   -0.85073E-03  3237   0.196E-01
   1149 T=   678. E= -.22741097E+03 F= -.24012086E+03 E0= -.24012086E+03  EK= 0.55203E+01 SP= 0.72E+01 SK= 0.31E-02 mag=     -0.000
       N       E                     dE             d eps       ncg     rms          rms(c)
DAV:   1    -0.240020574506E+03    0.10048E+00   -0.96260E-02  6216   0.190E+00    0.566E-01
RMM:   2    -0.240024433631E+03   -0.38591E-02   -0.66514E-02  4796   0.462E-01    0.600E-01
RMM:   3    -0.240025248431E+03   -0.81480E-03   -0.95796E-03  3314   0.202E-01
   1150 T=   666. E= -.22739895E+03 F= -.24002525E+03 E0= -.24002525E+03  EK= 0.54204E+01 SP= 0.72E+01 SK= 0.10E-03 mag=     -0.000
       N       E                     dE             d eps       ncg     rms          rms(c)
DAV:   1    -0.239927085285E+03    0.97348E-01   -0.40882E-02  5904   0.181E+00    0.648E-01
RMM:   2    -0.239927149506E+03   -0.64221E-04   -0.55221E-02  4755   0.420E-01    0.325E-01
RMM:   3    -0.239927678448E+03   -0.52894E-03   -0.99586E-03  3301   0.201E-01
   1151 T=   655. E= -.22739201E+03 F= -.23992768E+03 E0= -.23992768E+03  EK= 0.53361E+01 SP= 0.72E+01 SK= 0.15E-02 mag=     -0.000
       N       E                     dE             d eps       ncg     rms          rms(c)
DAV:   1    -0.239827764810E+03    0.99385E-01   -0.62981E-02  5984   0.188E+00    0.854E-01
RMM:   2    -0.239832552768E+03   -0.47880E-02   -0.48009E-02  4926   0.444E-01    0.297E-01
RMM:   3    -0.239833013165E+03   -0.46040E-03   -0.70978E-03  3106   0.182E-01
   1152 T=   648. E= -.22738791E+03 F= -.23983301E+03 E0= -.23983301E+03  EK= 0.52755E+01 SP= 0.72E+01 SK= 0.84E-02 mag=      0.000
       N       E                     dE             d eps       ncg     rms          rms(c)
DAV:   1    -0.239740477172E+03    0.92076E-01   -0.61056E-02  6112   0.185E+00    0.370E-01
RMM:   2    -0.239745148091E+03   -0.46709E-02   -0.48773E-02  4939   0.429E-01    0.162E-01
RMM:   3    -0.239745885210E+03   -0.73712E-03   -0.78842E-03  3101   0.186E-01
   1153 T=   645. E= -.22738017E+03 F= -.23974589E+03 E0= -.23974589E+03  EK= 0.52506E+01 SP= 0.71E+01 SK= 0.21E-01 mag=      0.000
       N       E                     dE             d eps       ncg     rms          rms(c)
DAV:   1    -0.239666627801E+03    0.78520E-01   -0.41512E-02  5720   0.181E+00    0.309E-01
RMM:   2    -0.239670227696E+03   -0.35999E-02   -0.39742E-02  4934   0.404E-01    0.354E-01
RMM:   3    -0.239670923604E+03   -0.69591E-03   -0.74663E-03  3111   0.177E-01
   1154 T=   646. E= -.22737263E+03 F= -.23967092E+03 E0= -.23967092E+03  EK= 0.52628E+01 SP= 0.70E+01 SK= 0.40E-01 mag=      0.000
       N       E                     dE             d eps       ncg     rms          rms(c)
DAV:   1    -0.239608242479E+03    0.61985E-01   -0.43956E-02  5968   0.184E+00    0.397E-01
RMM:   2    -0.239612405582E+03   -0.41631E-02   -0.40077E-02  5001   0.402E-01    0.443E-01
RMM:   3    -0.239613084273E+03   -0.67869E-03   -0.70336E-03  3029   0.170E-01
   1155 T=   653. E= -.22736723E+03 F= -.23961308E+03 E0= -.23961308E+03  EK= 0.53157E+01 SP= 0.69E+01 SK= 0.65E-01 mag=     -0.000
       N       E                     dE             d eps       ncg     rms          rms(c)
DAV:   1    -0.239570587334E+03    0.41818E-01   -0.38687E-02  5936   0.194E+00    0.506E-01
RMM:   2    -0.239573969056E+03   -0.33817E-02   -0.38862E-02  5001   0.410E-01    0.489E-01
RMM:   3    -0.239574563765E+03   -0.59471E-03   -0.72496E-03  3020   0.171E-01
   1156 T=   665. E= -.22736051E+03 F= -.23957456E+03 E0= -.23957456E+03  EK= 0.54151E+01 SP= 0.67E+01 SK= 0.93E-01 mag=     -0.000
       N       E                     dE             d eps       ncg     rms          rms(c)
DAV:   1    -0.239553982557E+03    0.19986E-01   -0.70570E-02  6176   0.198E+00    0.218E+00
RMM:   2    -0.239555884467E+03   -0.19019E-02   -0.41684E-02  5013   0.423E-01    0.101E+00
RMM:   3    -0.239555745349E+03    0.13912E-03   -0.10180E-02  3225   0.197E-01
   1157 T=   683. E= -.22735589E+03 F= -.23955575E+03 E0= -.23955575E+03  EK= 0.55579E+01 SP= 0.65E+01 SK= 0.12E+00 mag=     -0.000
       N       E                     dE             d eps       ncg     rms          rms(c)
DAV:   1    -0.239553127323E+03    0.27571E-02   -0.58923E-02  6208   0.212E+00    0.598E-01
RMM:   2    -0.239556583554E+03   -0.34562E-02   -0.49493E-02  5037   0.468E-01    0.597E-01
RMM:   3    -0.239556777247E+03   -0.19369E-03   -0.77269E-03  3146   0.190E-01
   1158 T=   705. E= -.22735271E+03 F= -.23955678E+03 E0= -.23955678E+03  EK= 0.57444E+01 SP= 0.63E+01 SK= 0.15E+00 mag=     -0.000
       N       E                     dE             d eps       ncg     rms          rms(c)
DAV:   1    -0.239569245702E+03   -0.12662E-01   -0.10445E-01  6376   0.200E+00    0.589E-01
RMM:   2    -0.239573254269E+03   -0.40086E-02   -0.53195E-02  4898   0.459E-01    0.354E-01
RMM:   3    -0.239573361534E+03   -0.10727E-03   -0.87802E-03  3309   0.195E-01
   1159 T=   733. E= -.22734781E+03 F= -.23957336E+03 E0= -.23957336E+03  EK= 0.59718E+01 SP= 0.61E+01 SK= 0.17E+00 mag=     -0.000
       N       E                     dE             d eps       ncg     rms          rms(c)
DAV:   1    -0.239591958590E+03   -0.18704E-01   -0.76654E-02  6152   0.206E+00    0.427E-01
RMM:   2    -0.239598643387E+03   -0.66848E-02   -0.77240E-02  4670   0.488E-01    0.356E-01
RMM:   3    -0.239600204281E+03   -0.15609E-02   -0.16777E-02  4212   0.256E-01
   1160 T=   765. E= -.22734562E+03 F= -.23960020E+03 E0= -.23960020E+03  EK= 0.62278E+01 SP= 0.58E+01 SK= 0.19E+00 mag=      0.000
       N       E                     dE             d eps       ncg     rms          rms(c)
DAV:   1    -0.239631720010E+03   -0.33077E-01   -0.55913E-02  6000   0.205E+00    0.525E-01
RMM:   2    -0.239630390469E+03    0.13295E-02   -0.60496E-02  4572   0.472E-01    0.442E-01
RMM:   3    -0.239631163262E+03   -0.77279E-03   -0.17596E-02  4179   0.247E-01
   1161 T=   799. E= -.22734062E+03 F= -.23963116E+03 E0= -.23963116E+03  EK= 0.65075E+01 SP= 0.56E+01 SK= 0.19E+00 mag=     -0.000
       N       E                     dE             d eps       ncg     rms          rms(c)
DAV:   1    -0.239658040454E+03   -0.27650E-01   -0.53548E-02  6008   0.200E+00    0.824E-01
RMM:   2    -0.239659181962E+03   -0.11415E-02   -0.43200E-02  4424   0.440E-01    0.286E-01
RMM:   3    -0.239659527565E+03   -0.34560E-03   -0.11947E-02  4020   0.223E-01
   1162 T=   835. E= -.22733502E+03 F= -.23965953E+03 E0= -.23965953E+03  EK= 0.67962E+01 SP= 0.53E+01 SK= 0.19E+00 mag=      0.000
       N       E                     dE             d eps       ncg     rms          rms(c)
DAV:   1    -0.239671763972E+03   -0.12582E-01   -0.43845E-02  5960   0.208E+00    0.516E-01
RMM:   2    -0.239677164638E+03   -0.54007E-02   -0.52997E-02  4817   0.465E-01    0.151E-01
RMM:   3    -0.239678016158E+03   -0.85152E-03   -0.96360E-03  3496   0.210E-01
   1163 T=   869. E= -.22733205E+03 F= -.23967802E+03 E0= -.23967802E+03  EK= 0.70758E+01 SP= 0.51E+01 SK= 0.17E+00 mag=      0.000
       N       E                     dE             d eps       ncg     rms          rms(c)
DAV:   1    -0.239673339083E+03    0.38256E-02   -0.67486E-02  6136   0.211E+00    0.233E-01
RMM:   2    -0.239678202436E+03   -0.48634E-02   -0.51975E-02  4882   0.450E-01    0.253E-01
RMM:   3    -0.239679175620E+03   -0.97318E-03   -0.10576E-02  3605   0.210E-01
   1164 T=   901. E= -.22732509E+03 F= -.23967918E+03 E0= -.23967918E+03  EK= 0.73368E+01 SP= 0.49E+01 SK= 0.15E+00 mag=      0.000
       N       E                     dE             d eps       ncg     rms          rms(c)
DAV:   1    -0.239652404732E+03    0.25798E-01   -0.57475E-02  5992   0.211E+00    0.304E-01
RMM:   2    -0.239657249855E+03   -0.48451E-02   -0.46668E-02  4951   0.452E-01    0.396E-01
RMM:   3    -0.239658189686E+03   -0.93983E-03   -0.96892E-03  3416   0.202E-01
   1165 T=   929. E= -.22731550E+03 F= -.23965819E+03 E0= -.23965819E+03  EK= 0.75637E+01 SP= 0.47E+01 SK= 0.12E+00 mag=      0.000
       N       E                     dE             d eps       ncg     rms          rms(c)
DAV:   1    -0.239605644145E+03    0.51606E-01   -0.61957E-02  6040   0.221E+00    0.512E-01
RMM:   2    -0.239610782538E+03   -0.51384E-02   -0.50468E-02  4931   0.459E-01    0.560E-01
RMM:   3    -0.239611727513E+03   -0.94498E-03   -0.98618E-03  3418   0.206E-01
   1166 T=   951. E= -.22730609E+03 F= -.23961173E+03 E0= -.23961173E+03  EK= 0.77411E+01 SP= 0.45E+01 SK= 0.88E-01 mag=     -0.000
       N       E                     dE             d eps       ncg     rms          rms(c)
DAV:   1    -0.239532741547E+03    0.78041E-01   -0.57935E-02  6128   0.223E+00    0.172E+00
RMM:   2    -0.239537228047E+03   -0.44865E-02   -0.51059E-02  4991   0.477E-01    0.126E+00
RMM:   3    -0.239537862503E+03   -0.63446E-03   -0.11383E-02  3469   0.221E-01
   1167 T=   965. E= -.22729435E+03 F= -.23953786E+03 E0= -.23953786E+03  EK= 0.78614E+01 SP= 0.43E+01 SK= 0.58E-01 mag=     -0.000
       N       E                     dE             d eps       ncg     rms          rms(c)
DAV:   1    -0.239434917666E+03    0.10231E+00   -0.76894E-02  6168   0.221E+00    0.375E+00
RMM:   2    -0.239436626237E+03   -0.17086E-02   -0.52851E-02  4971   0.487E-01    0.192E+00
RMM:   3    -0.239436706778E+03   -0.80542E-04   -0.14994E-02  3791   0.248E-01
   1168 T=   972. E= -.22728241E+03 F= -.23943671E+03 E0= -.23943671E+03  EK= 0.79165E+01 SP= 0.42E+01 SK= 0.32E-01 mag=     -0.000
       N       E                     dE             d eps       ncg     rms          rms(c)
DAV:   1    -0.239308977584E+03    0.12765E+00   -0.66665E-02  6024   0.223E+00    0.101E+00
RMM:   2    -0.239312181524E+03   -0.32039E-02   -0.59048E-02  4887   0.532E-01    0.853E-01
RMM:   3    -0.239312533621E+03   -0.35210E-03   -0.14110E-02  3866   0.248E-01
   1169 T=   971. E= -.22726892E+03 F= -.23931253E+03 E0= -.23931253E+03  EK= 0.79087E+01 SP= 0.41E+01 SK= 0.14E-01 mag=      0.000
       N       E                     dE             d eps       ncg     rms          rms(c)
DAV:   1    -0.239171338637E+03    0.14084E+00   -0.10289E-01  6344   0.217E+00    0.961E-01
RMM:   2    -0.239170989925E+03    0.34871E-03   -0.58753E-02  4809   0.500E-01    0.311E-01
RMM:   3    -0.239170558257E+03    0.43167E-03   -0.15373E-02  3926   0.239E-01
   1170 T=   963. E= -.22725494E+03 F= -.23917056E+03 E0= -.23917056E+03  EK= 0.78416E+01 SP= 0.41E+01 SK= 0.36E-02 mag=      0.000
       N       E                     dE             d eps       ncg     rms          rms(c)
DAV:   1    -0.239011329736E+03    0.15966E+00   -0.10768E-01  6232   0.223E+00    0.395E-01
RMM:   2    -0.239017105270E+03   -0.57755E-02   -0.68492E-02  4887   0.532E-01    0.441E-01
RMM:   3    -0.239017655277E+03   -0.55001E-03   -0.11831E-02  3698   0.240E-01
   1171 T=   948. E= -.22724158E+03 F= -.23901766E+03 E0= -.23901766E+03  EK= 0.77232E+01 SP= 0.41E+01 SK= 0.22E-04 mag=     -0.000
       N       E                     dE             d eps       ncg     rms          rms(c)
DAV:   1    -0.238859861782E+03    0.15724E+00   -0.60687E-02  6120   0.217E+00    0.896E-01
RMM:   2    -0.238860252071E+03   -0.39029E-03   -0.75105E-02  4929   0.513E-01    0.756E-01
RMM:   3    -0.238861216342E+03   -0.96427E-03   -0.16924E-02  3900   0.256E-01
   1172 T=   930. E= -.22722223E+03 F= -.23886122E+03 E0= -.23886122E+03  EK= 0.75719E+01 SP= 0.41E+01 SK= 0.20E-02 mag=      0.000
       N       E                     dE             d eps       ncg     rms          rms(c)
DAV:   1    -0.238719271272E+03    0.14098E+00   -0.50002E-02  6184   0.209E+00    0.165E+00
RMM:   2    -0.238713032526E+03    0.62387E-02   -0.53169E-02  4813   0.480E-01    0.745E-01
RMM:   3    -0.238712200518E+03    0.83201E-03   -0.20858E-02  4189   0.262E-01
   1173 T=   908. E= -.22720617E+03 F= -.23871220E+03 E0= -.23871220E+03  EK= 0.73951E+01 SP= 0.41E+01 SK= 0.75E-02 mag=      0.000
       N       E                     dE             d eps       ncg     rms          rms(c)
DAV:   1    -0.238579781099E+03    0.13325E+00   -0.93650E-02  6432   0.218E+00    0.628E-01
RMM:   2    -0.238581031765E+03   -0.12507E-02   -0.58766E-02  4768   0.528E-01    0.328E-01
RMM:   3    -0.238581085160E+03   -0.53395E-04   -0.13880E-02  3898   0.254E-01
   1174 T=   886. E= -.22719157E+03 F= -.23858109E+03 E0= -.23858109E+03  EK= 0.72114E+01 SP= 0.42E+01 SK= 0.15E-01 mag=      0.000
       N       E                     dE             d eps       ncg     rms          rms(c)
DAV:   1    -0.238467928144E+03    0.11310E+00   -0.10001E-01  6536   0.212E+00    0.508E-01
RMM:   2    -0.238474010567E+03   -0.60824E-02   -0.57222E-02  5057   0.513E-01    0.558E-01
RMM:   3    -0.238475017784E+03   -0.10072E-02   -0.10410E-02  3415   0.226E-01
   1175 T=   865. E= -.22717079E+03 F= -.23847502E+03 E0= -.23847502E+03  EK= 0.70418E+01 SP= 0.42E+01 SK= 0.22E-01 mag=     -0.000
       N       E                     dE             d eps       ncg     rms          rms(c)
DAV:   1    -0.238400498007E+03    0.73513E-01   -0.52048E-02  5832   0.204E+00    0.787E-01
RMM:   2    -0.238402956878E+03   -0.24589E-02   -0.61261E-02  5034   0.494E-01    0.651E-01
RMM:   3    -0.238403956525E+03   -0.99965E-03   -0.13212E-02  3492   0.240E-01
   1176 T=   846. E= -.22715432E+03 F= -.23840396E+03 E0= -.23840396E+03  EK= 0.68908E+01 SP= 0.43E+01 SK= 0.28E-01 mag=     -0.000
       N       E                     dE             d eps       ncg     rms          rms(c)
DAV:   1    -0.238371959906E+03    0.30997E-01   -0.42377E-02  5872   0.207E+00    0.164E+00
RMM:   2    -0.238373471385E+03   -0.15115E-02   -0.40571E-02  4914   0.466E-01    0.802E-01
RMM:   3    -0.238373621707E+03   -0.15032E-03   -0.12718E-02  3557   0.227E-01
   1177 T=   831. E= -.22713949E+03 F= -.23837362E+03 E0= -.23837362E+03  EK= 0.67710E+01 SP= 0.44E+01 SK= 0.33E-01 mag=     -0.000
       N       E                     dE             d eps       ncg     rms          rms(c)
DAV:   1    -0.238383978683E+03   -0.10507E-01   -0.80284E-02  6344   0.203E+00    0.406E-01
RMM:   2    -0.238387631251E+03   -0.36526E-02   -0.45992E-02  5061   0.473E-01    0.311E-01
RMM:   3    -0.238388163465E+03   -0.53221E-03   -0.95589E-03  3221   0.213E-01
   1178 T=   822. E= -.22712285E+03 F= -.23838816E+03 E0= -.23838816E+03  EK= 0.66929E+01 SP= 0.45E+01 SK= 0.36E-01 mag=      0.000
       N       E                     dE             d eps       ncg     rms          rms(c)
DAV:   1    -0.238440746847E+03   -0.53116E-01   -0.56200E-02  6088   0.201E+00    0.680E-01
RMM:   2    -0.238445673991E+03   -0.49271E-02   -0.50522E-02  5134   0.470E-01    0.600E-01
RMM:   3    -0.238446678621E+03   -0.10046E-02   -0.10232E-02  3231   0.214E-01
   1179 T=   817. E= -.22710767E+03 F= -.23844668E+03 E0= -.23844668E+03  EK= 0.66537E+01 SP= 0.46E+01 SK= 0.39E-01 mag=     -0.000
       N       E                     dE             d eps       ncg     rms          rms(c)
DAV:   1    -0.238542835584E+03   -0.97162E-01   -0.44304E-02  5832   0.202E+00    0.115E+00
RMM:   2    -0.238545775041E+03   -0.29395E-02   -0.43366E-02  5023   0.441E-01    0.522E-01
RMM:   3    -0.238546602324E+03   -0.82728E-03   -0.10208E-02  3236   0.211E-01
   1180 T=   817. E= -.22709283E+03 F= -.23854660E+03 E0= -.23854660E+03  EK= 0.66524E+01 SP= 0.48E+01 SK= 0.41E-01 mag=     -0.000
       N       E                     dE             d eps       ncg     rms          rms(c)
DAV:   1    -0.238678368107E+03   -0.13259E+00   -0.41629E-02  5728   0.202E+00    0.342E-01
RMM:   2    -0.238682689909E+03   -0.43218E-02   -0.41241E-02  5029   0.450E-01    0.230E-01
RMM:   3    -0.238683537511E+03   -0.84760E-03   -0.93255E-03  3219   0.205E-01
   1181 T=   821. E= -.22707765E+03 F= -.23868354E+03 E0= -.23868354E+03  EK= 0.66848E+01 SP= 0.49E+01 SK= 0.44E-01 mag=      0.000
       N       E                     dE             d eps       ncg     rms          rms(c)
DAV:   1    -0.238843327789E+03   -0.16064E+00   -0.45264E-02  5704   0.204E+00    0.428E-01
RMM:   2    -0.238847753830E+03   -0.44260E-02   -0.41754E-02  5082   0.441E-01    0.410E-01
RMM:   3    -0.238848704377E+03   -0.95055E-03   -0.94233E-03  3158   0.202E-01
   1182 T=   828. E= -.22706280E+03 F= -.23884870E+03 E0= -.23884870E+03  EK= 0.67399E+01 SP= 0.50E+01 SK= 0.48E-01 mag=      0.000
       N       E                     dE             d eps       ncg     rms          rms(c)
DAV:   1    -0.239028234478E+03   -0.18048E+00   -0.39664E-02  5696   0.204E+00    0.451E-01
RMM:   2    -0.239032008657E+03   -0.37742E-02   -0.37312E-02  5089   0.428E-01    0.142E-01
RMM:   3    -0.239032901314E+03   -0.89266E-03   -0.95818E-03  3192   0.199E-01
   1183 T=   836. E= -.22704946E+03 F= -.23903290E+03 E0= -.23903290E+03  EK= 0.68056E+01 SP= 0.51E+01 SK= 0.53E-01 mag=     -0.000
       N       E                     dE             d eps       ncg     rms          rms(c)
DAV:   1    -0.239219643778E+03   -0.18764E+00   -0.51942E-02  5824   0.205E+00    0.450E-01
RMM:   2    -0.239224349985E+03   -0.47062E-02   -0.40268E-02  5114   0.428E-01    0.156E-01
RMM:   3    -0.239225212083E+03   -0.86210E-03   -0.85796E-03  3138   0.193E-01
   1184 T=   844. E= -.22703704E+03 F= -.23922521E+03 E0= -.23922521E+03  EK= 0.68697E+01 SP= 0.53E+01 SK= 0.60E-01 mag=     -0.000
       N       E                     dE             d eps       ncg     rms          rms(c)
DAV:   1    -0.239409530516E+03   -0.18518E+00   -0.42133E-02  5584   0.207E+00    0.169E-01
RMM:   2    -0.239414063672E+03   -0.45332E-02   -0.39736E-02  5071   0.426E-01    0.163E-01
RMM:   3    -0.239415001518E+03   -0.93785E-03   -0.90387E-03  3157   0.194E-01
   1185 T=   850. E= -.22702342E+03 F= -.23941500E+03 E0= -.23941500E+03  EK= 0.69220E+01 SP= 0.54E+01 SK= 0.68E-01 mag=     -0.000
       N       E                     dE             d eps       ncg     rms          rms(c)
DAV:   1    -0.239585934736E+03   -0.17187E+00   -0.39592E-02  5552   0.206E+00    0.222E-01
RMM:   2    -0.239590448935E+03   -0.45142E-02   -0.38750E-02  5043   0.419E-01    0.303E-01
RMM:   3    -0.239591397926E+03   -0.94899E-03   -0.88162E-03  3142   0.192E-01
   1186 T=   854. E= -.22700745E+03 F= -.23959140E+03 E0= -.23959140E+03  EK= 0.69517E+01 SP= 0.56E+01 SK= 0.78E-01 mag=      0.000
       N       E                     dE             d eps       ncg     rms          rms(c)
DAV:   1    -0.239740526311E+03   -0.15008E+00   -0.33636E-02  5560   0.210E+00    0.226E-01
RMM:   2    -0.239744844934E+03   -0.43186E-02   -0.37176E-02  5046   0.421E-01    0.287E-01
RMM:   3    -0.239745750402E+03   -0.90547E-03   -0.87348E-03  3090   0.189E-01
   1187 T=   853. E= -.22699242E+03 F= -.23974575E+03 E0= -.23974575E+03  EK= 0.69466E+01 SP= 0.57E+01 SK= 0.89E-01 mag=      0.000
       N       E                     dE             d eps       ncg     rms          rms(c)
DAV:   1    -0.239865960560E+03   -0.12112E+00   -0.34694E-02  5432   0.207E+00    0.410E-01
RMM:   2    -0.239870212563E+03   -0.42520E-02   -0.40393E-02  5075   0.422E-01    0.407E-01
RMM:   3    -0.239871066040E+03   -0.85348E-03   -0.87239E-03  3156   0.190E-01
   1188 T=   847. E= -.22697861E+03 F= -.23987107E+03 E0= -.23987107E+03  EK= 0.69006E+01 SP= 0.59E+01 SK= 0.10E+00 mag=     -0.000
       N       E                     dE             d eps       ncg     rms          rms(c)
DAV:   1    -0.239958263895E+03   -0.88051E-01   -0.45417E-02  5744   0.209E+00    0.606E-01
RMM:   2    -0.239962457355E+03   -0.41935E-02   -0.37516E-02  5051   0.416E-01    0.206E-01
RMM:   3    -0.239963249033E+03   -0.79168E-03   -0.84532E-03  3124   0.188E-01
   1189 T=   837. E= -.22696490E+03 F= -.23996325E+03 E0= -.23996325E+03  EK= 0.68132E+01 SP= 0.61E+01 SK= 0.11E+00 mag=     -0.000
       N       E                     dE             d eps       ncg     rms          rms(c)
DAV:   1    -0.240016162243E+03   -0.53705E-01   -0.41069E-02  5664   0.205E+00    0.570E-01
RMM:   2    -0.240020787727E+03   -0.46255E-02   -0.41259E-02  5012   0.413E-01    0.166E-01
RMM:   3    -0.240021628831E+03   -0.84110E-03   -0.82884E-03  3144   0.188E-01
   1190 T=   821. E= -.22695077E+03 F= -.24002163E+03 E0= -.24002163E+03  EK= 0.66878E+01 SP= 0.63E+01 SK= 0.12E+00 mag=      0.000
       N       E                     dE             d eps       ncg     rms          rms(c)
DAV:   1    -0.240043269956E+03   -0.22482E-01   -0.54147E-02  5968   0.201E+00    0.196E-01
RMM:   2    -0.240047678961E+03   -0.44090E-02   -0.39418E-02  4937   0.417E-01    0.194E-01
RMM:   3    -0.240048618600E+03   -0.93964E-03   -0.92137E-03  3283   0.192E-01
   1191 T=   802. E= -.22693650E+03 F= -.24004862E+03 E0= -.24004862E+03  EK= 0.65309E+01 SP= 0.65E+01 SK= 0.12E+00 mag=     -0.000
       N       E                     dE             d eps       ncg     rms          rms(c)
DAV:   1    -0.240042887269E+03    0.47917E-02   -0.41304E-02  5824   0.196E+00    0.484E-01
RMM:   2    -0.240047214845E+03   -0.43276E-02   -0.38087E-02  4983   0.408E-01    0.484E-01
RMM:   3    -0.240048015307E+03   -0.80046E-03   -0.80823E-03  3114   0.182E-01
   1192 T=   780. E= -.22692249E+03 F= -.24004802E+03 E0= -.24004802E+03  EK= 0.63508E+01 SP= 0.67E+01 SK= 0.12E+00 mag=     -0.000
       N       E                     dE             d eps       ncg     rms          rms(c)
DAV:   1    -0.240021285895E+03    0.25929E-01   -0.50462E-02  5944   0.194E+00    0.535E-01
RMM:   2    -0.240025617519E+03   -0.43316E-02   -0.38962E-02  4973   0.402E-01    0.151E-01
RMM:   3    -0.240026479105E+03   -0.86159E-03   -0.84775E-03  3227   0.183E-01
   1193 T=   756. E= -.22690959E+03 F= -.24002648E+03 E0= -.24002648E+03  EK= 0.61581E+01 SP= 0.68E+01 SK= 0.11E+00 mag=     -0.000
       N       E                     dE             d eps       ncg     rms          rms(c)
DAV:   1    -0.239986234582E+03    0.39383E-01   -0.43832E-02  5848   0.192E+00    0.525E-01
RMM:   2    -0.239990587803E+03   -0.43532E-02   -0.39763E-02  4953   0.405E-01    0.183E-01
RMM:   3    -0.239991421896E+03   -0.83409E-03   -0.82817E-03  3201   0.185E-01
   1194 T=   733. E= -.22689695E+03 F= -.23999142E+03 E0= -.23999142E+03  EK= 0.59655E+01 SP= 0.70E+01 SK= 0.96E-01 mag=     -0.000
       N       E                     dE             d eps       ncg     rms          rms(c)
DAV:   1    -0.239944373908E+03    0.46214E-01   -0.41949E-02  5808   0.187E+00    0.192E-01
RMM:   2    -0.239948648877E+03   -0.42750E-02   -0.38864E-02  4949   0.398E-01    0.168E-01
RMM:   3    -0.239949421992E+03   -0.77311E-03   -0.76883E-03  3092   0.180E-01
   1195 T=   710. E= -.22688375E+03 F= -.23994942E+03 E0= -.23994942E+03  EK= 0.57839E+01 SP= 0.72E+01 SK= 0.80E-01 mag=     -0.000
       N       E                     dE             d eps       ncg     rms          rms(c)
DAV:   1    -0.239902375133E+03    0.46274E-01   -0.44611E-02  5984   0.183E+00    0.287E-01
RMM:   2    -0.239906396761E+03   -0.40216E-02   -0.36941E-02  4944   0.397E-01    0.352E-01
RMM:   3    -0.239907187494E+03   -0.79073E-03   -0.78746E-03  3188   0.179E-01
   1196 T=   690. E= -.22687228E+03 F= -.23990719E+03 E0= -.23990719E+03  EK= 0.56206E+01 SP= 0.74E+01 SK= 0.61E-01 mag=      0.000
       N       E                     dE             d eps       ncg     rms          rms(c)
DAV:   1    -0.239864917924E+03    0.41479E-01   -0.41225E-02  5704   0.182E+00    0.487E-01
RMM:   2    -0.239868660423E+03   -0.37425E-02   -0.35220E-02  4960   0.395E-01    0.479E-01
RMM:   3    -0.239869396001E+03   -0.73558E-03   -0.75075E-03  3120   0.176E-01
   1197 T=   673. E= -.22686232E+03 F= -.23986940E+03 E0= -.23986940E+03  EK= 0.54825E+01 SP= 0.75E+01 SK= 0.42E-01 mag=      0.000
       N       E                     dE             d eps       ncg     rms          rms(c)
DAV:   1    -0.239835411949E+03    0.33248E-01   -0.42352E-02  5824   0.181E+00    0.912E-01
RMM:   2    -0.239838840533E+03   -0.34286E-02   -0.34045E-02  4942   0.383E-01    0.361E-01
RMM:   3    -0.239839505089E+03   -0.66456E-03   -0.72089E-03  3111   0.174E-01
   1198 T=   660. E= -.22685313E+03 F= -.23983951E+03 E0= -.23983951E+03  EK= 0.53752E+01 SP= 0.76E+01 SK= 0.25E-01 mag=     -0.000
       N       E                     dE             d eps       ncg     rms          rms(c)
DAV:   1    -0.239815650829E+03    0.23190E-01   -0.38428E-02  5856   0.178E+00    0.466E-01
RMM:   2    -0.239819604413E+03   -0.39536E-02   -0.37670E-02  4930   0.388E-01    0.164E-01
RMM:   3    -0.239820308779E+03   -0.70437E-03   -0.74323E-03  3179   0.176E-01
   1199 T=   651. E= -.22684525E+03 F= -.23982031E+03 E0= -.23982031E+03  EK= 0.53018E+01 SP= 0.77E+01 SK= 0.11E-01 mag=     -0.000
       N       E                     dE             d eps       ncg     rms          rms(c)
DAV:   1    -0.239808219012E+03    0.11385E-01   -0.46131E-02  5760   0.178E+00    0.196E-01
RMM:   2    -0.239812121962E+03   -0.39030E-02   -0.37164E-02  4902   0.388E-01    0.255E-01
RMM:   3    -0.239812851704E+03   -0.72974E-03   -0.75407E-03  3203   0.175E-01
   1200 T=   647. E= -.22683735E+03 F= -.23981285E+03 E0= -.23981285E+03  EK= 0.52652E+01 SP= 0.77E+01 SK= 0.28E-02 mag=      0.000
       N       E                     dE             d eps       ncg     rms          rms(c)
DAV:   1    -0.239814433758E+03   -0.23118E-02   -0.42692E-02  5992   0.176E+00    0.610E-01
RMM:   2    -0.239818094271E+03   -0.36605E-02   -0.35161E-02  4888   0.383E-01    0.549E-01
RMM:   3    -0.239818760096E+03   -0.66583E-03   -0.72534E-03  3158   0.173E-01
   1201 T=   647. E= -.22683030E+03 F= -.23981876E+03 E0= -.23981876E+03  EK= 0.52661E+01 SP= 0.77E+01 SK= 0.11E-05 mag=     -0.000
       N       E                     dE             d eps       ncg     rms          rms(c)
DAV:   1    -0.239833838783E+03   -0.15745E-01   -0.37840E-02  5960   0.176E+00    0.166E+00
RMM:   2    -0.239837127127E+03   -0.32883E-02   -0.34951E-02  4937   0.380E-01    0.786E-01
RMM:   3    -0.239837693015E+03   -0.56589E-03   -0.74434E-03  3124   0.175E-01
   1202 T=   651. E= -.22682399E+03 F= -.23983769E+03 E0= -.23983769E+03  EK= 0.53044E+01 SP= 0.77E+01 SK= 0.30E-02 mag=      0.000
       N       E                     dE             d eps       ncg     rms          rms(c)
DAV:   1    -0.239865368889E+03   -0.28242E-01   -0.46661E-02  5904   0.177E+00    0.423E-01
RMM:   2    -0.239869117731E+03   -0.37488E-02   -0.37099E-02  4865   0.394E-01    0.416E-01
RMM:   3    -0.239869775584E+03   -0.65785E-03   -0.74759E-03  3225   0.180E-01
   1203 T=   661. E= -.22681835E+03 F= -.23986978E+03 E0= -.23986978E+03  EK= 0.53799E+01 SP= 0.77E+01 SK= 0.11E-01 mag=      0.000
       N       E                     dE             d eps       ncg     rms          rms(c)
DAV:   1    -0.239909560876E+03   -0.40443E-01   -0.33522E-02  5568   0.179E+00    0.123E+00
RMM:   2    -0.239912280127E+03   -0.27193E-02   -0.32933E-02  4896   0.385E-01    0.895E-01
RMM:   3    -0.239912699499E+03   -0.41937E-03   -0.78823E-03  3132   0.176E-01
   1204 T=   674. E= -.22681304E+03 F= -.23991270E+03 E0= -.23991270E+03  EK= 0.54899E+01 SP= 0.76E+01 SK= 0.23E-01 mag=     -0.000
       N       E                     dE             d eps       ncg     rms          rms(c)
DAV:   1    -0.239962364562E+03   -0.50084E-01   -0.41481E-02  5824   0.182E+00    0.199E+00
RMM:   2    -0.239963652507E+03   -0.12879E-02   -0.37939E-02  4896   0.384E-01    0.995E-01
RMM:   3    -0.239963781361E+03   -0.12885E-03   -0.99897E-03  3353   0.192E-01
   1205 T=   691. E= -.22680815E+03 F= -.23996378E+03 E0= -.23996378E+03  EK= 0.56307E+01 SP= 0.75E+01 SK= 0.38E-01 mag=      0.000
       N       E                     dE             d eps       ncg     rms          rms(c)
DAV:   1    -0.240016421242E+03   -0.52769E-01   -0.51847E-02  5984   0.187E+00    0.409E-01
RMM:   2    -0.240019353837E+03   -0.29326E-02   -0.42372E-02  4901   0.415E-01    0.397E-01
RMM:   3    -0.240019745530E+03   -0.39169E-03   -0.76600E-03  3189   0.187E-01
   1206 T=   712. E= -.22680421E+03 F= -.24001975E+03 E0= -.24001975E+03  EK= 0.57969E+01 SP= 0.74E+01 SK= 0.52E-01 mag=      0.000
       N       E                     dE             d eps       ncg     rms          rms(c)
DAV:   1    -0.240070049666E+03   -0.50696E-01   -0.47171E-02  5976   0.188E+00    0.691E-01
RMM:   2    -0.240074030308E+03   -0.39806E-02   -0.41390E-02  4878   0.406E-01    0.592E-01
RMM:   3    -0.240074663669E+03   -0.63336E-03   -0.73091E-03  3119   0.177E-01
   1207 T=   735. E= -.22679885E+03 F= -.24007466E+03 E0= -.24007466E+03  EK= 0.59827E+01 SP= 0.72E+01 SK= 0.66E-01 mag=      0.000
       N       E                     dE             d eps       ncg     rms          rms(c)
DAV:   1    -0.240117543564E+03   -0.43513E-01   -0.46888E-02  5928   0.191E+00    0.977E-01
RMM:   2    -0.240121667355E+03   -0.41238E-02   -0.50153E-02  4957   0.425E-01    0.402E-01
RMM:   3    -0.240122466883E+03   -0.79953E-03   -0.92502E-03  3352   0.199E-01
   1208 T=   759. E= -.22679311E+03 F= -.24012247E+03 E0= -.24012247E+03  EK= 0.61780E+01 SP= 0.71E+01 SK= 0.76E-01 mag=      0.000
       N       E                     dE             d eps       ncg     rms          rms(c)
DAV:   1    -0.240151573578E+03   -0.29906E-01   -0.59267E-02  5928   0.197E+00    0.482E-01
RMM:   2    -0.240156119333E+03   -0.45458E-02   -0.46105E-02  4918   0.434E-01    0.233E-01
RMM:   3    -0.240156938652E+03   -0.81932E-03   -0.88936E-03  3344   0.197E-01
   1209 T=   783. E= -.22678725E+03 F= -.24015694E+03 E0= -.24015694E+03  EK= 0.63727E+01 SP= 0.69E+01 SK= 0.82E-01 mag=      0.000
       N       E                     dE             d eps       ncg     rms          rms(c)
DAV:   1    -0.240168576564E+03   -0.12457E-01   -0.56745E-02  6024   0.198E+00    0.205E-01
RMM:   2    -0.240173248246E+03   -0.46717E-02   -0.45205E-02  4926   0.429E-01    0.318E-01
RMM:   3    -0.240174029772E+03   -0.78153E-03   -0.81164E-03  3158   0.189E-01
   1210 T=   806. E= -.22677949E+03 F= -.24017403E+03 E0= -.24017403E+03  EK= 0.65600E+01 SP= 0.68E+01 SK= 0.83E-01 mag=      0.000
       N       E                     dE             d eps       ncg     rms          rms(c)
DAV:   1    -0.240164258538E+03    0.89897E-02   -0.47538E-02  6024   0.201E+00    0.612E-01
RMM:   2    -0.240168791816E+03   -0.45333E-02   -0.44493E-02  4984   0.429E-01    0.579E-01
RMM:   3    -0.240169573887E+03   -0.78207E-03   -0.87413E-03  3140   0.190E-01
   1211 T=   826. E= -.22677141E+03 F= -.24016957E+03 E0= -.24016957E+03  EK= 0.67294E+01 SP= 0.66E+01 SK= 0.80E-01 mag=     -0.000
       N       E                     dE             d eps       ncg     rms          rms(c)
DAV:   1    -0.240135847801E+03    0.32944E-01   -0.74581E-02  6032   0.206E+00    0.169E+00
RMM:   2    -0.240140373243E+03   -0.45254E-02   -0.48401E-02  5037   0.445E-01    0.743E-01
RMM:   3    -0.240141045493E+03   -0.67225E-03   -0.98655E-03  3357   0.203E-01
   1212 T=   844. E= -.22676365E+03 F= -.24014105E+03 E0= -.24014105E+03  EK= 0.68728E+01 SP= 0.64E+01 SK= 0.73E-01 mag=      0.000
       N       E                     dE             d eps       ncg     rms          rms(c)
DAV:   1    -0.240082755017E+03    0.57618E-01   -0.52511E-02  6072   0.208E+00    0.355E-01
RMM:   2    -0.240087927842E+03   -0.51728E-02   -0.48847E-02  5065   0.452E-01    0.358E-01
RMM:   3    -0.240088806864E+03   -0.87902E-03   -0.93511E-03  3219   0.203E-01
   1213 T=   858. E= -.22675419E+03 F= -.24008881E+03 E0= -.24008881E+03  EK= 0.69879E+01 SP= 0.63E+01 SK= 0.63E-01 mag=      0.000
       N       E                     dE             d eps       ncg     rms          rms(c)
DAV:   1    -0.240011790895E+03    0.76137E-01   -0.57362E-02  5928   0.209E+00    0.121E+00
RMM:   2    -0.240015698140E+03   -0.39072E-02   -0.48840E-02  4950   0.447E-01    0.955E-01
RMM:   3    -0.240016186571E+03   -0.48843E-03   -0.11698E-02  3412   0.215E-01
   1214 T=   869. E= -.22674307E+03 F= -.24001619E+03 E0= -.24001619E+03  EK= 0.70740E+01 SP= 0.61E+01 SK= 0.53E-01 mag=     -0.000
       N       E                     dE             d eps       ncg     rms          rms(c)
DAV:   1    -0.239926718441E+03    0.88980E-01   -0.67607E-02  6056   0.216E+00    0.223E+00
RMM:   2    -0.239927806977E+03   -0.10885E-02   -0.56267E-02  4982   0.468E-01    0.106E+00
RMM:   3    -0.239927720490E+03    0.86488E-04   -0.16590E-02  3876   0.241E-01
   1215 T=   876. E= -.22673015E+03 F= -.23992772E+03 E0= -.23992772E+03  EK= 0.71325E+01 SP= 0.60E+01 SK= 0.41E-01 mag=     -0.000
       N       E                     dE             d eps       ncg     rms          rms(c)
DAV:   1    -0.239825240969E+03    0.10257E+00   -0.81018E-02  6120   0.217E+00    0.439E-01
RMM:   2    -0.239828090148E+03   -0.28492E-02   -0.59512E-02  4897   0.507E-01    0.472E-01
RMM:   3    -0.239828740787E+03   -0.65064E-03   -0.12227E-02  3606   0.235E-01
   1216 T=   880. E= -.22671616E+03 F= -.23982874E+03 E0= -.23982874E+03  EK= 0.71657E+01 SP= 0.59E+01 SK= 0.31E-01 mag=      0.000
       N       E                     dE             d eps       ncg     rms          rms(c)
DAV:   1    -0.239719620937E+03    0.10847E+00   -0.66960E-02  6112   0.216E+00    0.966E-01
RMM:   2    -0.239725180455E+03   -0.55595E-02   -0.58879E-02  4974   0.491E-01    0.824E-01
RMM:   3    -0.239726116744E+03   -0.93629E-03   -0.11432E-02  3400   0.223E-01
   1217 T=   882. E= -.22670155E+03 F= -.23972612E+03 E0= -.23972612E+03  EK= 0.71786E+01 SP= 0.58E+01 SK= 0.22E-01 mag=      0.000
       N       E                     dE             d eps       ncg     rms          rms(c)
DAV:   1    -0.239624709082E+03    0.10047E+00   -0.71584E-02  6008   0.219E+00    0.207E+00
RMM:   2    -0.239627710531E+03   -0.30014E-02   -0.59676E-02  5020   0.491E-01    0.990E-01
RMM:   3    -0.239628241998E+03   -0.53147E-03   -0.14399E-02  3620   0.239E-01
   1218 T=   882. E= -.22668663E+03 F= -.23962824E+03 E0= -.23962824E+03  EK= 0.71787E+01 SP= 0.57E+01 SK= 0.14E-01 mag=     -0.000
       N       E                     dE             d eps       ncg     rms          rms(c)
DAV:   1    -0.239536794832E+03    0.90916E-01   -0.76254E-02  6104   0.221E+00    0.438E-01
RMM:   2    -0.239541891961E+03   -0.50971E-02   -0.56991E-02  5022   0.501E-01    0.446E-01
RMM:   3    -0.239542838491E+03   -0.94653E-03   -0.11686E-02  3514   0.233E-01
   1219 T=   881. E= -.22667161E+03 F= -.23954284E+03 E0= -.23954284E+03  EK= 0.71732E+01 SP= 0.57E+01 SK= 0.80E-02 mag=     -0.000
       N       E                     dE             d eps       ncg     rms          rms(c)
DAV:   1    -0.239471656944E+03    0.70235E-01   -0.67907E-02  6104   0.219E+00    0.129E+00
RMM:   2    -0.239475623764E+03   -0.39668E-02   -0.54307E-02  5006   0.494E-01    0.982E-01
RMM:   3    -0.239476227709E+03   -0.60395E-03   -0.14521E-02  3558   0.248E-01
   1220 T=   881. E= -.22665403E+03 F= -.23947623E+03 E0= -.23947623E+03  EK= 0.71712E+01 SP= 0.56E+01 SK= 0.37E-02 mag=     -0.000
       N       E                     dE             d eps       ncg     rms          rms(c)
DAV:   1    -0.239434647637E+03    0.40976E-01   -0.69067E-02  6064   0.220E+00    0.208E+00
RMM:   2    -0.239434153135E+03    0.49450E-03   -0.53266E-02  4927   0.500E-01    0.104E+00
RMM:   3    -0.239433842058E+03    0.31108E-03   -0.19648E-02  4219   0.268E-01
   1221 T=   881. E= -.22663659E+03 F= -.23943384E+03 E0= -.23943384E+03  EK= 0.71754E+01 SP= 0.56E+01 SK= 0.10E-02 mag=     -0.000
       N       E                     dE             d eps       ncg     rms          rms(c)
DAV:   1    -0.239412820220E+03    0.21333E-01   -0.64581E-02  6128   0.228E+00    0.466E-01
RMM:   2    -0.239415641133E+03   -0.28209E-02   -0.56849E-02  4878   0.522E-01    0.413E-01
RMM:   3    -0.239416302801E+03   -0.66167E-03   -0.13587E-02  3746   0.252E-01
   1222 T=   882. E= -.22661982E+03 F= -.23941630E+03 E0= -.23941630E+03  EK= 0.71859E+01 SP= 0.56E+01 SK= 0.12E-04 mag=     -0.000
       N       E                     dE             d eps       ncg     rms          rms(c)
DAV:   1    -0.239414800055E+03    0.84108E-03   -0.74997E-02  6304   0.221E+00    0.692E-01
RMM:   2    -0.239420409284E+03   -0.56092E-02   -0.56083E-02  4963   0.512E-01    0.590E-01
RMM:   3    -0.239421535141E+03   -0.11259E-02   -0.12479E-02  3562   0.238E-01
   1223 T=   885. E= -.22659982E+03 F= -.23942154E+03 E0= -.23942154E+03  EK= 0.72041E+01 SP= 0.56E+01 SK= 0.69E-03 mag=     -0.000
       N       E                     dE             d eps       ncg     rms          rms(c)
DAV:   1    -0.239440035067E+03   -0.19626E-01   -0.62633E-02  5872   0.223E+00    0.914E-01
RMM:   2    -0.239444889003E+03   -0.48539E-02   -0.57813E-02  5034   0.503E-01    0.388E-01
RMM:   3    -0.239446091393E+03   -0.12024E-02   -0.13638E-02  3577   0.243E-01
   1224 T=   887. E= -.22658172E+03 F= -.23944609E+03 E0= -.23944609E+03  EK= 0.72209E+01 SP= 0.56E+01 SK= 0.32E-02 mag=     -0.000
       N       E                     dE             d eps       ncg     rms          rms(c)
DAV:   1    -0.239475983678E+03   -0.31095E-01   -0.61535E-02  6016   0.225E+00    0.544E-01
RMM:   2    -0.239481404933E+03   -0.54213E-02   -0.52287E-02  4958   0.494E-01    0.231E-01
RMM:   3    -0.239482687202E+03   -0.12823E-02   -0.12967E-02  3638   0.236E-01
   1225 T=   888. E= -.22656642E+03 F= -.23948269E+03 E0= -.23948269E+03  EK= 0.72276E+01 SP= 0.57E+01 SK= 0.77E-02 mag=      0.000
       N       E                     dE             d eps       ncg     rms          rms(c)
DAV:   1    -0.239516810832E+03   -0.35406E-01   -0.64329E-02  5976   0.226E+00    0.229E-01
RMM:   2    -0.239522249710E+03   -0.54389E-02   -0.49564E-02  4986   0.484E-01    0.259E-01
RMM:   3    -0.239523376570E+03   -0.11269E-02   -0.11159E-02  3373   0.224E-01
   1226 T=   887. E= -.22654754E+03 F= -.23952338E+03 E0= -.23952338E+03  EK= 0.72224E+01 SP= 0.57E+01 SK= 0.14E-01 mag=      0.000
       N       E                     dE             d eps       ncg     rms          rms(c)
DAV:   1    -0.239553259027E+03   -0.31009E-01   -0.61195E-02  5920   0.226E+00    0.463E-01
RMM:   2    -0.239558504553E+03   -0.52455E-02   -0.49304E-02  5074   0.479E-01    0.441E-01
RMM:   3    -0.239559676733E+03   -0.11722E-02   -0.11922E-02  3267   0.221E-01
   1227 T=   884. E= -.22652639E+03 F= -.23955968E+03 E0= -.23955968E+03  EK= 0.71960E+01 SP= 0.58E+01 SK= 0.22E-01 mag=      0.000
       N       E                     dE             d eps       ncg     rms          rms(c)
DAV:   1    -0.239578210745E+03   -0.19706E-01   -0.48513E-02  5520   0.225E+00    0.944E-01
RMM:   2    -0.239583100950E+03   -0.48902E-02   -0.45622E-02  5128   0.454E-01    0.400E-01
RMM:   3    -0.239584126222E+03   -0.10253E-02   -0.11507E-02  3212   0.213E-01
   1228 T=   876. E= -.22650902E+03 F= -.23958413E+03 E0= -.23958413E+03  EK= 0.71360E+01 SP= 0.59E+01 SK= 0.31E-01 mag=      0.000
       N       E                     dE             d eps       ncg     rms          rms(c)
DAV:   1    -0.239584897104E+03   -0.17962E-02   -0.50515E-02  5824   0.226E+00    0.365E-01
RMM:   2    -0.239590004201E+03   -0.51071E-02   -0.46364E-02  5136   0.472E-01    0.191E-01
RMM:   3    -0.239591079559E+03   -0.10754E-02   -0.10556E-02  3244   0.212E-01
   1229 T=   865. E= -.22649224E+03 F= -.23959108E+03 E0= -.23959108E+03  EK= 0.70423E+01 SP= 0.60E+01 SK= 0.41E-01 mag=     -0.000
       N       E                     dE             d eps       ncg     rms          rms(c)
DAV:   1    -0.239570810044E+03    0.19194E-01   -0.48682E-02  5568   0.222E+00    0.271E-01
RMM:   2    -0.239575932828E+03   -0.51228E-02   -0.46825E-02  5062   0.458E-01    0.326E-01
RMM:   3    -0.239577044536E+03   -0.11117E-02   -0.10577E-02  3155   0.210E-01
   1230 T=   850. E= -.22647127E+03 F= -.23957704E+03 E0= -.23957704E+03  EK= 0.69197E+01 SP= 0.61E+01 SK= 0.49E-01 mag=      0.000
       N       E                     dE             d eps       ncg     rms          rms(c)
DAV:   1    -0.239536383691E+03    0.39549E-01   -0.56483E-02  6232   0.222E+00    0.717E-01
RMM:   2    -0.239541175917E+03   -0.47922E-02   -0.44876E-02  5130   0.464E-01    0.616E-01
RMM:   3    -0.239542182049E+03   -0.10061E-02   -0.11293E-02  3240   0.215E-01
   1231 T=   831. E= -.22645131E+03 F= -.23954218E+03 E0= -.23954218E+03  EK= 0.67673E+01 SP= 0.63E+01 SK= 0.56E-01 mag=     -0.000
       N       E                     dE             d eps       ncg     rms          rms(c)
DAV:   1    -0.239485510628E+03    0.55665E-01   -0.52008E-02  5784   0.216E+00    0.195E+00
RMM:   2    -0.239489033540E+03   -0.35229E-02   -0.43235E-02  5109   0.452E-01    0.968E-01
RMM:   3    -0.239489499895E+03   -0.46636E-03   -0.11207E-02  3208   0.210E-01
   1232 T=   809. E= -.22643489E+03 F= -.23948950E+03 E0= -.23948950E+03  EK= 0.65904E+01 SP= 0.64E+01 SK= 0.59E-01 mag=      0.000
       N       E                     dE             d eps       ncg     rms          rms(c)
DAV:   1    -0.239418291942E+03    0.70742E-01   -0.63789E-02  6088   0.212E+00    0.503E-01
RMM:   2    -0.239423060594E+03   -0.47687E-02   -0.45789E-02  5156   0.461E-01    0.488E-01
RMM:   3    -0.239423964404E+03   -0.90381E-03   -0.99967E-03  3221   0.209E-01
   1233 T=   786. E= -.22641812E+03 F= -.23942396E+03 E0= -.23942396E+03  EK= 0.64030E+01 SP= 0.65E+01 SK= 0.59E-01 mag=      0.000
       N       E                     dE             d eps       ncg     rms          rms(c)
DAV:   1    -0.239347395620E+03    0.75665E-01   -0.50611E-02  5808   0.205E+00    0.666E-01
RMM:   2    -0.239351919249E+03   -0.45236E-02   -0.44228E-02  5156   0.443E-01    0.568E-01
RMM:   3    -0.239352856004E+03   -0.93676E-03   -0.99698E-03  3195   0.204E-01
   1234 T=   763. E= -.22640089E+03 F= -.23935286E+03 E0= -.23935286E+03  EK= 0.62171E+01 SP= 0.67E+01 SK= 0.55E-01 mag=     -0.000
       N       E                     dE             d eps       ncg     rms          rms(c)
DAV:   1    -0.239279315101E+03    0.72604E-01   -0.48216E-02  5872   0.202E+00    0.122E+00
RMM:   2    -0.239283293223E+03   -0.39781E-02   -0.42964E-02  5107   0.446E-01    0.550E-01
RMM:   3    -0.239284098858E+03   -0.80564E-03   -0.99750E-03  3273   0.204E-01
   1235 T=   742. E= -.22638555E+03 F= -.23928410E+03 E0= -.23928410E+03  EK= 0.60423E+01 SP= 0.68E+01 SK= 0.47E-01 mag=     -0.000
       N       E                     dE             d eps       ncg     rms          rms(c)
DAV:   1    -0.239220518365E+03    0.62775E-01   -0.52200E-02  5896   0.198E+00    0.298E-01
RMM:   2    -0.239225059030E+03   -0.45407E-02   -0.41543E-02  5131   0.432E-01    0.214E-01
RMM:   3    -0.239225997503E+03   -0.93847E-03   -0.92323E-03  3228   0.197E-01
   1236 T=   723. E= -.22637250E+03 F= -.23922600E+03 E0= -.23922600E+03  EK= 0.58898E+01 SP= 0.69E+01 SK= 0.37E-01 mag=      0.000
       N       E                     dE             d eps       ncg     rms          rms(c)
DAV:   1    -0.239179902833E+03    0.45156E-01   -0.49759E-02  5848   0.193E+00    0.484E-01
RMM:   2    -0.239184132118E+03   -0.42293E-02   -0.41325E-02  5079   0.419E-01    0.477E-01
RMM:   3    -0.239184898934E+03   -0.76682E-03   -0.82960E-03  3126   0.189E-01
   1237 T=   709. E= -.22636014E+03 F= -.23918490E+03 E0= -.23918490E+03  EK= 0.57698E+01 SP= 0.70E+01 SK= 0.27E-01 mag=     -0.000
       N       E                     dE             d eps       ncg     rms          rms(c)
DAV:   1    -0.239159323413E+03    0.24809E-01   -0.66176E-02  6088   0.190E+00    0.822E-01
RMM:   2    -0.239163750372E+03   -0.44270E-02   -0.41771E-02  5104   0.427E-01    0.275E-01
RMM:   3    -0.239164608818E+03   -0.85845E-03   -0.90774E-03  3236   0.194E-01
   1238 T=   698. E= -.22634942E+03 F= -.23916461E+03 E0= -.23916461E+03  EK= 0.56868E+01 SP= 0.71E+01 SK= 0.17E-01 mag=     -0.000
       N       E                     dE             d eps       ncg     rms          rms(c)
DAV:   1    -0.239161120301E+03    0.26301E-02   -0.50685E-02  5920   0.190E+00    0.437E-01
RMM:   2    -0.239165370132E+03   -0.42498E-02   -0.40085E-02  5069   0.418E-01    0.182E-01
RMM:   3    -0.239166173205E+03   -0.80307E-03   -0.83550E-03  3171   0.188E-01
   1239 T=   693. E= -.22634025E+03 F= -.23916617E+03 E0= -.23916617E+03  EK= 0.56427E+01 SP= 0.72E+01 SK= 0.85E-02 mag=     -0.000
       N       E                     dE             d eps       ncg     rms          rms(c)
DAV:   1    -0.239183461159E+03   -0.18091E-01   -0.46579E-02  6000   0.188E+00    0.167E-01
RMM:   2    -0.239187332394E+03   -0.38712E-02   -0.35630E-02  5025   0.401E-01    0.270E-01
RMM:   3    -0.239188123533E+03   -0.79114E-03   -0.79037E-03  3094   0.181E-01
   1240 T=   692. E= -.22633064E+03 F= -.23918812E+03 E0= -.23918812E+03  EK= 0.56383E+01 SP= 0.72E+01 SK= 0.29E-02 mag=      0.000
       N       E                     dE             d eps       ncg     rms          rms(c)
DAV:   1    -0.239223096094E+03   -0.35764E-01   -0.51552E-02  5912   0.188E+00    0.599E-01
RMM:   2    -0.239226834861E+03   -0.37388E-02   -0.36148E-02  5053   0.406E-01    0.564E-01
RMM:   3    -0.239227565711E+03   -0.73085E-03   -0.81550E-03  3149   0.182E-01
   1241 T=   696. E= -.22632159E+03 F= -.23922757E+03 E0= -.23922757E+03  EK= 0.56696E+01 SP= 0.72E+01 SK= 0.28E-03 mag=     -0.000
       N       E                     dE             d eps       ncg     rms          rms(c)
DAV:   1    -0.239276770715E+03   -0.49936E-01   -0.37741E-02  5680   0.191E+00    0.221E+00
RMM:   2    -0.239279904838E+03   -0.31341E-02   -0.38184E-02  5100   0.401E-01    0.112E+00
RMM:   3    -0.239280125892E+03   -0.22105E-03   -0.84481E-03  3107   0.188E-01
   1242 T=   704. E= -.22631309E+03 F= -.23928013E+03 E0= -.23928013E+03  EK= 0.57316E+01 SP= 0.72E+01 SK= 0.35E-03 mag=     -0.000
       N       E                     dE             d eps       ncg     rms          rms(c)
DAV:   1    -0.239336346959E+03   -0.56442E-01   -0.52888E-02  5920   0.195E+00    0.798E-01
RMM:   2    -0.239340620577E+03   -0.42736E-02   -0.42595E-02  5044   0.437E-01    0.673E-01
RMM:   3    -0.239341393495E+03   -0.77292E-03   -0.93343E-03  3310   0.200E-01
   1243 T=   715. E= -.22630377E+03 F= -.23934139E+03 E0= -.23934139E+03  EK= 0.58202E+01 SP= 0.72E+01 SK= 0.26E-02 mag=     -0.000
       N       E                     dE             d eps       ncg     rms          rms(c)
DAV:   1    -0.239403395680E+03   -0.62775E-01   -0.56615E-02  6088   0.197E+00    0.134E+00
RMM:   2    -0.239406279288E+03   -0.28836E-02   -0.39148E-02  5012   0.424E-01    0.565E-01
RMM:   3    -0.239406525600E+03   -0.24631E-03   -0.99138E-03  3279   0.200E-01
   1244 T=   728. E= -.22629354E+03 F= -.23940653E+03 E0= -.23940653E+03  EK= 0.59294E+01 SP= 0.72E+01 SK= 0.62E-02 mag=     -0.000
       N       E                     dE             d eps       ncg     rms          rms(c)
DAV:   1    -0.239468066401E+03   -0.61787E-01   -0.58344E-02  6016   0.199E+00    0.437E-01
RMM:   2    -0.239472170772E+03   -0.41044E-02   -0.46277E-02  4983   0.447E-01    0.482E-01
RMM:   3    -0.239472747916E+03   -0.57714E-03   -0.88379E-03  3339   0.199E-01
   1245 T=   743. E= -.22628389E+03 F= -.23947275E+03 E0= -.23947275E+03  EK= 0.60531E+01 SP= 0.71E+01 SK= 0.10E-01 mag=     -0.000
       N       E                     dE             d eps       ncg     rms          rms(c)
DAV:   1    -0.239534027087E+03   -0.61856E-01   -0.39441E-02  5752   0.202E+00    0.133E+00
RMM:   2    -0.239535380612E+03   -0.13535E-02   -0.49512E-02  5017   0.450E-01    0.964E-01
RMM:   3    -0.239535980957E+03   -0.60034E-03   -0.14710E-02  3511   0.221E-01
   1246 T=   760. E= -.22627240E+03 F= -.23953598E+03 E0= -.23953598E+03  EK= 0.61873E+01 SP= 0.71E+01 SK= 0.14E-01 mag=      0.000
       N       E                     dE             d eps       ncg     rms          rms(c)
DAV:   1    -0.239602414736E+03   -0.67034E-01   -0.63056E-02  6104   0.201E+00    0.218E+00
RMM:   2    -0.239596589297E+03    0.58254E-02   -0.50989E-02  4704   0.446E-01    0.109E+00
RMM:   3    -0.239596217044E+03    0.37225E-03   -0.25637E-02  4407   0.269E-01
   1247 T=   777. E= -.22626146E+03 F= -.23959622E+03 E0= -.23959622E+03  EK= 0.63271E+01 SP= 0.70E+01 SK= 0.17E-01 mag=      0.000
       N       E                     dE             d eps       ncg     rms          rms(c)
DAV:   1    -0.239653493670E+03   -0.56904E-01   -0.75619E-02  6328   0.209E+00    0.567E-01
RMM:   2    -0.239650311629E+03    0.31820E-02   -0.55409E-02  4509   0.522E-01    0.366E-01
RMM:   3    -0.239650691314E+03   -0.37969E-03   -0.23014E-02  4804   0.287E-01
   1248 T=   794. E= -.22625042E+03 F= -.23965069E+03 E0= -.23965069E+03  EK= 0.64673E+01 SP= 0.69E+01 SK= 0.18E-01 mag=      0.000
       N       E                     dE             d eps       ncg     rms          rms(c)
DAV:   1    -0.239694668277E+03   -0.44357E-01   -0.92911E-02  6384   0.205E+00    0.618E-01
RMM:   2    -0.239698993584E+03   -0.43253E-02   -0.52337E-02  4468   0.497E-01    0.547E-01
RMM:   3    -0.239700320925E+03   -0.13273E-02   -0.16231E-02  4538   0.262E-01
   1249 T=   811. E= -.22623974E+03 F= -.23970032E+03 E0= -.23970032E+03  EK= 0.66050E+01 SP= 0.68E+01 SK= 0.18E-01 mag=     -0.000
       N       E                     dE             d eps       ncg     rms          rms(c)
DAV:   1    -0.239738740711E+03   -0.39747E-01   -0.56565E-02  6120   0.203E+00    0.338E-01
RMM:   2    -0.239743790808E+03   -0.50501E-02   -0.47823E-02  4632   0.463E-01    0.169E-01
RMM:   3    -0.239745052473E+03   -0.12617E-02   -0.13173E-02  4128   0.238E-01
   1250 T=   827. E= -.22623011E+03 F= -.23974505E+03 E0= -.23974505E+03  EK= 0.67361E+01 SP= 0.68E+01 SK= 0.16E-01 mag=     -0.000
       N       E                     dE             d eps       ncg     rms          rms(c)
DAV:   1    -0.239780222858E+03   -0.36432E-01   -0.63069E-02  5992   0.209E+00    0.550E-01
RMM:   2    -0.239784567595E+03   -0.43447E-02   -0.41813E-02  4618   0.439E-01    0.219E-01
RMM:   3    -0.239785654070E+03   -0.10865E-02   -0.12300E-02  3807   0.226E-01
   1251 T=   842. E= -.22621892E+03 F= -.23978565E+03 E0= -.23978565E+03  EK= 0.68604E+01 SP= 0.67E+01 SK= 0.13E-01 mag=      0.000
       N       E                     dE             d eps       ncg     rms          rms(c)
DAV:   1    -0.239816801465E+03   -0.32234E-01   -0.45786E-02  5896   0.209E+00    0.408E-01
RMM:   2    -0.239821780410E+03   -0.49789E-02   -0.41722E-02  4923   0.450E-01    0.131E-01
RMM:   3    -0.239822895331E+03   -0.11149E-02   -0.11260E-02  3487   0.213E-01
   1252 T=   856. E= -.22620688E+03 F= -.23982290E+03 E0= -.23982290E+03  EK= 0.69743E+01 SP= 0.66E+01 SK= 0.95E-02 mag=      0.000
       N       E                     dE             d eps       ncg     rms          rms(c)
DAV:   1    -0.239848892223E+03   -0.27112E-01   -0.61358E-02  6024   0.210E+00    0.246E-01
RMM:   2    -0.239853999920E+03   -0.51077E-02   -0.41850E-02  4937   0.447E-01    0.205E-01
RMM:   3    -0.239855086515E+03   -0.10866E-02   -0.10623E-02  3493   0.209E-01
   1253 T=   868. E= -.22619465E+03 F= -.23985509E+03 E0= -.23985509E+03  EK= 0.70722E+01 SP= 0.66E+01 SK= 0.57E-02 mag=     -0.000
       N       E                     dE             d eps       ncg     rms          rms(c)
DAV:   1    -0.239874467447E+03   -0.20468E-01   -0.54863E-02  5944   0.213E+00    0.291E-01
RMM:   2    -0.239879667824E+03   -0.52004E-02   -0.42319E-02  5020   0.440E-01    0.314E-01
RMM:   3    -0.239880696607E+03   -0.10288E-02   -0.99001E-03  3338   0.203E-01
   1254 T=   878. E= -.22618129E+03 F= -.23988070E+03 E0= -.23988070E+03  EK= 0.71503E+01 SP= 0.65E+01 SK= 0.24E-02 mag=     -0.000
       N       E                     dE             d eps       ncg     rms          rms(c)
DAV:   1    -0.239890130109E+03   -0.10462E-01   -0.59147E-02  5960   0.213E+00    0.226E-01
RMM:   2    -0.239895479420E+03   -0.53493E-02   -0.42524E-02  5000   0.442E-01    0.315E-01
RMM:   3    -0.239896506124E+03   -0.10267E-02   -0.97908E-03  3302   0.202E-01
   1255 T=   885. E= -.22616664E+03 F= -.23989651E+03 E0= -.23989651E+03  EK= 0.72030E+01 SP= 0.65E+01 SK= 0.43E-03 mag=     -0.000
       N       E                     dE             d eps       ncg     rms          rms(c)
DAV:   1    -0.239891605889E+03    0.38735E-02   -0.57991E-02  5968   0.214E+00    0.336E-01
RMM:   2    -0.239897178722E+03   -0.55728E-02   -0.45536E-02  5070   0.453E-01    0.386E-01
RMM:   3    -0.239898262230E+03   -0.10835E-02   -0.10525E-02  3361   0.207E-01
   1256 T=   887. E= -.22615262E+03 F= -.23989826E+03 E0= -.23989826E+03  EK= 0.72223E+01 SP= 0.65E+01 SK= 0.94E-04 mag=      0.000
       N       E                     dE             d eps       ncg     rms          rms(c)
DAV:   1    -0.239874500360E+03    0.22678E-01   -0.61919E-02  6088   0.217E+00    0.723E-01
RMM:   2    -0.239880553365E+03   -0.60530E-02   -0.49271E-02  5057   0.466E-01    0.625E-01
RMM:   3    -0.239881629425E+03   -0.10761E-02   -0.10902E-02  3393   0.213E-01
   1257 T=   885. E= -.22613909E+03 F= -.23988163E+03 E0= -.23988163E+03  EK= 0.72035E+01 SP= 0.65E+01 SK= 0.16E-02 mag=     -0.000
       N       E                     dE             d eps       ncg     rms          rms(c)
DAV:   1    -0.239839262517E+03    0.41291E-01   -0.76527E-02  6040   0.220E+00    0.271E+00
RMM:   2    -0.239843657059E+03   -0.43945E-02   -0.45806E-02  5015   0.459E-01    0.137E+00
RMM:   3    -0.239844307993E+03   -0.65093E-03   -0.12676E-02  3520   0.229E-01
   1258 T=   878. E= -.22612486E+03 F= -.23984431E+03 E0= -.23984431E+03  EK= 0.71460E+01 SP= 0.66E+01 SK= 0.47E-02 mag=      0.000
       N       E                     dE             d eps       ncg     rms          rms(c)
DAV:   1    -0.239778795652E+03    0.64861E-01   -0.67422E-02  6144   0.216E+00    0.962E-01
RMM:   2    -0.239783985605E+03   -0.51900E-02   -0.50229E-02  5027   0.482E-01    0.810E-01
RMM:   3    -0.239784643191E+03   -0.65759E-03   -0.11001E-02  3380   0.223E-01
   1259 T=   866. E= -.22610996E+03 F= -.23978464E+03 E0= -.23978464E+03  EK= 0.70504E+01 SP= 0.66E+01 SK= 0.89E-02 mag=     -0.000
       N       E                     dE             d eps       ncg     rms          rms(c)
DAV:   1    -0.239701859337E+03    0.82126E-01   -0.84587E-02  6256   0.221E+00    0.144E+00
RMM:   2    -0.239704424980E+03   -0.25656E-02   -0.54295E-02  5054   0.486E-01    0.548E-01
RMM:   3    -0.239704078810E+03    0.34617E-03   -0.14840E-02  3828   0.234E-01
   1260 T=   850. E= -.22609585E+03 F= -.23970408E+03 E0= -.23970408E+03  EK= 0.69196E+01 SP= 0.67E+01 SK= 0.13E-01 mag=     -0.000
       N       E                     dE             d eps       ncg     rms          rms(c)
DAV:   1    -0.239600933786E+03    0.10349E+00   -0.11938E-01  6264   0.217E+00    0.448E-01
RMM:   2    -0.239605339805E+03   -0.44060E-02   -0.62345E-02  5078   0.513E-01    0.530E-01
RMM:   3    -0.239605751306E+03   -0.41150E-03   -0.11074E-02  3465   0.226E-01
   1261 T=   830. E= -.22608291E+03 F= -.23960575E+03 E0= -.23960575E+03  EK= 0.67608E+01 SP= 0.67E+01 SK= 0.17E-01 mag=      0.000
       N       E                     dE             d eps       ncg     rms          rms(c)
DAV:   1    -0.239489428167E+03    0.11591E+00   -0.65004E-02  6072   0.212E+00    0.118E+00
RMM:   2    -0.239492388310E+03   -0.29601E-02   -0.68226E-02  5055   0.496E-01    0.963E-01
RMM:   3    -0.239493257342E+03   -0.86903E-03   -0.13600E-02  3434   0.234E-01
   1262 T=   809. E= -.22606724E+03 F= -.23949326E+03 E0= -.23949326E+03  EK= 0.65861E+01 SP= 0.68E+01 SK= 0.18E-01 mag=     -0.000
       N       E                     dE             d eps       ncg     rms          rms(c)
DAV:   1    -0.239383884425E+03    0.10850E+00   -0.62812E-02  6048   0.210E+00    0.225E+00
RMM:   2    -0.239377765390E+03    0.61190E-02   -0.55951E-02  4955   0.470E-01    0.109E+00
RMM:   3    -0.239376984723E+03    0.78067E-03   -0.22559E-02  4093   0.265E-01
   1263 T=   787. E= -.22605356E+03 F= -.23937698E+03 E0= -.23937698E+03  EK= 0.64059E+01 SP= 0.69E+01 SK= 0.18E-01 mag=     -0.000
       N       E                     dE             d eps       ncg     rms          rms(c)
DAV:   1    -0.239266301684E+03    0.11146E+00   -0.99044E-02  6304   0.210E+00    0.609E-01
RMM:   2    -0.239264579434E+03    0.17222E-02   -0.54648E-02  4623   0.525E-01    0.408E-01
RMM:   3    -0.239264767953E+03   -0.18852E-03   -0.19953E-02  4476   0.278E-01
   1264 T=   765. E= -.22604059E+03 F= -.23926477E+03 E0= -.23926477E+03  EK= 0.62337E+01 SP= 0.70E+01 SK= 0.16E-01 mag=      0.000
       N       E                     dE             d eps       ncg     rms          rms(c)
DAV:   1    -0.239155849517E+03    0.10873E+00   -0.11004E-01  6520   0.208E+00    0.718E-01
RMM:   2    -0.239162580458E+03   -0.67309E-02   -0.60972E-02  4956   0.503E-01    0.720E-01
RMM:   3    -0.239163532738E+03   -0.95228E-03   -0.10329E-02  3415   0.219E-01
   1265 T=   747. E= -.22602511E+03 F= -.23916353E+03 E0= -.23916353E+03  EK= 0.60835E+01 SP= 0.70E+01 SK= 0.12E-01 mag=     -0.000
       N       E                     dE             d eps       ncg     rms          rms(c)
DAV:   1    -0.239074429654E+03    0.88151E-01   -0.85422E-02  6160   0.198E+00    0.999E-01
RMM:   2    -0.239080199843E+03   -0.57702E-02   -0.59446E-02  4871   0.480E-01    0.349E-01
RMM:   3    -0.239081339089E+03   -0.11392E-02   -0.11706E-02  3614   0.231E-01
   1266 T=   732. E= -.22601306E+03 F= -.23908134E+03 E0= -.23908134E+03  EK= 0.59601E+01 SP= 0.71E+01 SK= 0.80E-02 mag=     -0.000
       N       E                     dE             d eps       ncg     rms          rms(c)
DAV:   1    -0.239016233909E+03    0.63966E-01   -0.52547E-02  5864   0.204E+00    0.667E-01
RMM:   2    -0.239021540116E+03   -0.53062E-02   -0.50753E-02  4801   0.465E-01    0.289E-01
RMM:   3    -0.239022599584E+03   -0.10595E-02   -0.10315E-02  3350   0.216E-01
   1267 T=   721. E= -.22600029E+03 F= -.23902260E+03 E0= -.23902260E+03  EK= 0.58742E+01 SP= 0.71E+01 SK= 0.40E-02 mag=     -0.000
       N       E                     dE             d eps       ncg     rms          rms(c)
DAV:   1    -0.238983576236E+03    0.37964E-01   -0.66598E-02  5952   0.198E+00    0.222E-01
RMM:   2    -0.238988830713E+03   -0.52545E-02   -0.47637E-02  4929   0.461E-01    0.214E-01
RMM:   3    -0.238989988829E+03   -0.11581E-02   -0.11420E-02  3572   0.216E-01
   1268 T=   716. E= -.22598539E+03 F= -.23898999E+03 E0= -.23898999E+03  EK= 0.58312E+01 SP= 0.72E+01 SK= 0.12E-02 mag=     -0.000
       N       E                     dE             d eps       ncg     rms          rms(c)
DAV:   1    -0.238976642896E+03    0.12188E-01   -0.56566E-02  5760   0.198E+00    0.492E-01
RMM:   2    -0.238981999473E+03   -0.53566E-02   -0.46034E-02  5004   0.442E-01    0.473E-01
RMM:   3    -0.238983008228E+03   -0.10088E-02   -0.10086E-02  3263   0.200E-01
   1269 T=   715. E= -.22597325E+03 F= -.23898301E+03 E0= -.23898301E+03  EK= 0.58264E+01 SP= 0.72E+01 SK= 0.23E-04 mag=      0.000
       N       E                     dE             d eps       ncg     rms          rms(c)
DAV:   1    -0.238994795193E+03   -0.12796E-01   -0.65106E-02  5864   0.201E+00    0.120E+00
RMM:   2    -0.238999487204E+03   -0.46920E-02   -0.40461E-02  4985   0.425E-01    0.504E-01
RMM:   3    -0.239000297574E+03   -0.81037E-03   -0.92928E-03  3269   0.198E-01
   1270 T=   719. E= -.22596366E+03 F= -.23900030E+03 E0= -.23900030E+03  EK= 0.58585E+01 SP= 0.72E+01 SK= 0.60E-03 mag=      0.000
       N       E                     dE             d eps       ncg     rms          rms(c)
DAV:   1    -0.239031567860E+03   -0.32081E-01   -0.52567E-02  5960   0.203E+00    0.276E-01
RMM:   2    -0.239036612286E+03   -0.50444E-02   -0.42449E-02  5031   0.437E-01    0.240E-01
RMM:   3    -0.239037511442E+03   -0.89916E-03   -0.86842E-03  3158   0.194E-01
   1271 T=   728. E= -.22595278E+03 F= -.23903751E+03 E0= -.23903751E+03  EK= 0.59265E+01 SP= 0.72E+01 SK= 0.27E-02 mag=      0.000
       N       E                     dE             d eps       ncg     rms          rms(c)
DAV:   1    -0.239083440230E+03   -0.46828E-01   -0.65060E-02  6040   0.206E+00    0.605E-01
RMM:   2    -0.239087942762E+03   -0.45025E-02   -0.40595E-02  5031   0.443E-01    0.556E-01
RMM:   3    -0.239088817337E+03   -0.87457E-03   -0.94826E-03  3315   0.199E-01
   1272 T=   740. E= -.22594198E+03 F= -.23908882E+03 E0= -.23908882E+03  EK= 0.60222E+01 SP= 0.71E+01 SK= 0.56E-02 mag=      0.000
       N       E                     dE             d eps       ncg     rms          rms(c)
DAV:   1    -0.239144674233E+03   -0.56731E-01   -0.47636E-02  5952   0.208E+00    0.176E+00
RMM:   2    -0.239148122578E+03   -0.34483E-02   -0.41795E-02  5087   0.427E-01    0.825E-01
RMM:   3    -0.239148441908E+03   -0.31933E-03   -0.10496E-02  3196   0.207E-01
   1273 T=   753. E= -.22593371E+03 F= -.23914844E+03 E0= -.23914844E+03  EK= 0.61355E+01 SP= 0.71E+01 SK= 0.88E-02 mag=     -0.000
       N       E                     dE             d eps       ncg     rms          rms(c)
DAV:   1    -0.239202980775E+03   -0.54858E-01   -0.82729E-02  6072   0.215E+00    0.447E-01
RMM:   2    -0.239207974579E+03   -0.49938E-02   -0.50232E-02  5019   0.474E-01    0.474E-01
RMM:   3    -0.239208781422E+03   -0.80684E-03   -0.98921E-03  3464   0.213E-01
   1274 T=   769. E= -.22592467E+03 F= -.23920878E+03 E0= -.23920878E+03  EK= 0.62602E+01 SP= 0.70E+01 SK= 0.12E-01 mag=     -0.000
       N       E                     dE             d eps       ncg     rms          rms(c)
DAV:   1    -0.239259743870E+03   -0.51769E-01   -0.54014E-02  5984   0.216E+00    0.155E+00
RMM:   2    -0.239262733085E+03   -0.29892E-02   -0.49905E-02  5045   0.468E-01    0.113E+00
RMM:   3    -0.239263067129E+03   -0.33404E-03   -0.14398E-02  3593   0.234E-01
   1275 T=   785. E= -.22591151E+03 F= -.23926307E+03 E0= -.23926307E+03  EK= 0.63901E+01 SP= 0.69E+01 SK= 0.13E-01 mag=      0.000
       N       E                     dE             d eps       ncg     rms          rms(c)
DAV:   1    -0.239311116355E+03   -0.48383E-01   -0.65768E-02  6144   0.213E+00    0.251E+00
RMM:   2    -0.239307235868E+03    0.38805E-02   -0.49927E-02  4732   0.478E-01    0.128E+00
RMM:   3    -0.239306596460E+03    0.63941E-03   -0.27083E-02  4519   0.294E-01
   1276 T=   800. E= -.22590039E+03 F= -.23930660E+03 E0= -.23930660E+03  EK= 0.65114E+01 SP= 0.69E+01 SK= 0.14E-01 mag=     -0.000
       N       E                     dE             d eps       ncg     rms          rms(c)
DAV:   1    -0.239333978427E+03   -0.26743E-01   -0.77202E-02  6280   0.222E+00    0.579E-01
RMM:   2    -0.239332070657E+03    0.19078E-02   -0.61510E-02  4550   0.573E-01    0.461E-01
RMM:   3    -0.239332545002E+03   -0.47434E-03   -0.24669E-02  4804   0.310E-01
   1277 T=   812. E= -.22589068E+03 F= -.23933255E+03 E0= -.23933255E+03  EK= 0.66151E+01 SP= 0.68E+01 SK= 0.14E-01 mag=     -0.000
       N       E                     dE             d eps       ncg     rms          rms(c)
DAV:   1    -0.239331908614E+03    0.16204E-03   -0.10473E-01  6336   0.218E+00    0.712E-01
RMM:   2    -0.239336721710E+03   -0.48131E-02   -0.55264E-02  4475   0.545E-01    0.630E-01
RMM:   3    -0.239338165652E+03   -0.14439E-02   -0.17831E-02  4712   0.288E-01
   1278 T=   823. E= -.22587921E+03 F= -.23933817E+03 E0= -.23933817E+03  EK= 0.66986E+01 SP= 0.67E+01 SK= 0.12E-01 mag=      0.000
       N       E                     dE             d eps       ncg     rms          rms(c)
DAV:   1    -0.239314741415E+03    0.21980E-01   -0.59614E-02  6176   0.218E+00    0.861E-01
RMM:   2    -0.239319876595E+03   -0.51352E-02   -0.52110E-02  4645   0.508E-01    0.312E-01
RMM:   3    -0.239321310842E+03   -0.14342E-02   -0.15800E-02  4370   0.263E-01
   1279 T=   829. E= -.22586901E+03 F= -.23932131E+03 E0= -.23932131E+03  EK= 0.67543E+01 SP= 0.67E+01 SK= 0.10E-01 mag=      0.000
       N       E                     dE             d eps       ncg     rms          rms(c)
DAV:   1    -0.239275074436E+03    0.44802E-01   -0.81638E-02  6064   0.223E+00    0.674E-01
RMM:   2    -0.239279963484E+03   -0.48890E-02   -0.49166E-02  4523   0.511E-01    0.242E-01
RMM:   3    -0.239281326421E+03   -0.13629E-02   -0.14952E-02  4287   0.262E-01
   1280 T=   833. E= -.22585745E+03 F= -.23928133E+03 E0= -.23928133E+03  EK= 0.67826E+01 SP= 0.66E+01 SK= 0.82E-02 mag=      0.000
       N       E                     dE             d eps       ncg     rms          rms(c)
DAV:   1    -0.239214199900E+03    0.65764E-01   -0.52136E-02  6064   0.221E+00    0.197E-01
RMM:   2    -0.239219088463E+03   -0.48886E-02   -0.46189E-02  4721   0.502E-01    0.211E-01
RMM:   3    -0.239220499910E+03   -0.14114E-02   -0.14269E-02  4088   0.248E-01
   1281 T=   833. E= -.22584427E+03 F= -.23922050E+03 E0= -.23922050E+03  EK= 0.67848E+01 SP= 0.66E+01 SK= 0.62E-02 mag=      0.000
       N       E                     dE             d eps       ncg     rms          rms(c)
DAV:   1    -0.239133795276E+03    0.85293E-01   -0.63389E-02  5952   0.220E+00    0.555E-01
RMM:   2    -0.239138665838E+03   -0.48706E-02   -0.44527E-02  4901   0.481E-01    0.510E-01
RMM:   3    -0.239139911511E+03   -0.12457E-02   -0.13098E-02  3858   0.235E-01
   1282 T=   830. E= -.22583221E+03 F= -.23913991E+03 E0= -.23913991E+03  EK= 0.67592E+01 SP= 0.65E+01 SK= 0.46E-02 mag=     -0.000
       N       E                     dE             d eps       ncg     rms          rms(c)
DAV:   1    -0.239038393455E+03    0.10027E+00   -0.48216E-02  6000   0.220E+00    0.138E+00
RMM:   2    -0.239042907088E+03   -0.45136E-02   -0.42711E-02  5061   0.451E-01    0.624E-01
RMM:   3    -0.239043783570E+03   -0.87648E-03   -0.11268E-02  3458   0.243E-01
   1283 T=   824. E= -.22581931E+03 F= -.23904378E+03 E0= -.23904378E+03  EK= 0.67125E+01 SP= 0.65E+01 SK= 0.33E-02 mag=     -0.000
       N       E                     dE             d eps       ncg     rms          rms(c)
DAV:   1    -0.238932100298E+03    0.11081E+00   -0.70305E-02  6144   0.219E+00    0.351E-01
RMM:   2    -0.238937324065E+03   -0.52238E-02   -0.46540E-02  4869   0.499E-01    0.277E-01
RMM:   3    -0.238938729217E+03   -0.14052E-02   -0.12835E-02  3884   0.245E-01
   1284 T=   817. E= -.22580464E+03 F= -.23893873E+03 E0= -.23893873E+03  EK= 0.66532E+01 SP= 0.65E+01 SK= 0.26E-02 mag=      0.000
       N       E                     dE             d eps       ncg     rms          rms(c)
DAV:   1    -0.238823674467E+03    0.11365E+00   -0.50216E-02  6120   0.215E+00    0.777E-01
RMM:   2    -0.238828045619E+03   -0.43712E-02   -0.42334E-02  4964   0.476E-01    0.658E-01
RMM:   3    -0.238829075456E+03   -0.10298E-02   -0.12079E-02  3634   0.242E-01
   1285 T=   809. E= -.22579102E+03 F= -.23882908E+03 E0= -.23882908E+03  EK= 0.65846E+01 SP= 0.65E+01 SK= 0.21E-02 mag=     -0.000
       N       E                     dE             d eps       ncg     rms          rms(c)
DAV:   1    -0.238717867509E+03    0.11018E+00   -0.62814E-02  5976   0.216E+00    0.194E+00
RMM:   2    -0.238720679697E+03   -0.28122E-02   -0.43704E-02  4832   0.489E-01    0.929E-01
RMM:   3    -0.238721197948E+03   -0.51825E-03   -0.14818E-02  4069   0.256E-01
   1286 T=   800. E= -.22577747E+03 F= -.23872120E+03 E0= -.23872120E+03  EK= 0.65156E+01 SP= 0.64E+01 SK= 0.20E-02 mag=     -0.000
       N       E                     dE             d eps       ncg     rms          rms(c)
DAV:   1    -0.238614887021E+03    0.10579E+00   -0.62362E-02  6136   0.218E+00    0.490E-01
RMM:   2    -0.238618962167E+03   -0.40751E-02   -0.47716E-02  4684   0.539E-01    0.484E-01
RMM:   3    -0.238620037417E+03   -0.10753E-02   -0.13254E-02  4063   0.260E-01
   1287 T=   793. E= -.22576248E+03 F= -.23862004E+03 E0= -.23862004E+03  EK= 0.64546E+01 SP= 0.64E+01 SK= 0.21E-02 mag=      0.000
       N       E                     dE             d eps       ncg     rms          rms(c)
DAV:   1    -0.238524610790E+03    0.94351E-01   -0.44232E-02  5920   0.213E+00    0.130E+00
RMM:   2    -0.238528453312E+03   -0.38425E-02   -0.43599E-02  4821   0.500E-01    0.964E-01
RMM:   3    -0.238528949878E+03   -0.49657E-03   -0.16575E-02  4002   0.289E-01
   1288 T=   786. E= -.22574751E+03 F= -.23852895E+03 E0= -.23852895E+03  EK= 0.64048E+01 SP= 0.64E+01 SK= 0.24E-02 mag=     -0.000
       N       E                     dE             d eps       ncg     rms          rms(c)
DAV:   1    -0.238451520869E+03    0.76932E-01   -0.54255E-02  6048   0.216E+00    0.223E+00
RMM:   2    -0.238451776467E+03   -0.25560E-03   -0.50774E-02  4620   0.532E-01    0.111E+00
RMM:   3    -0.238451954930E+03   -0.17846E-03   -0.25835E-02  4685   0.356E-01
   1289 T=   782. E= -.22573230E+03 F= -.23845195E+03 E0= -.23845195E+03  EK= 0.63718E+01 SP= 0.63E+01 SK= 0.30E-02 mag=     -0.000
       N       E                     dE             d eps       ncg     rms          rms(c)
DAV:   1    -0.238386955335E+03    0.64821E-01   -0.88172E-02  6080   0.224E+00    0.469E-01
RMM:   2    -0.238389304014E+03   -0.23487E-02   -0.65319E-02  4451   0.632E-01    0.401E-01
RMM:   3    -0.238390637776E+03   -0.13338E-02   -0.20366E-02  4780   0.322E-01
   1290 T=   781. E= -.22571801E+03 F= -.23839064E+03 E0= -.23839064E+03  EK= 0.63570E+01 SP= 0.63E+01 SK= 0.38E-02 mag=      0.000
       N       E                     dE             d eps       ncg     rms          rms(c)
DAV:   1    -0.238336055940E+03    0.53248E-01   -0.67573E-02  6064   0.218E+00    0.105E+00
RMM:   2    -0.238341529998E+03   -0.54741E-02   -0.52964E-02  4697   0.574E-01    0.859E-01
RMM:   3    -0.238342625771E+03   -0.10958E-02   -0.18568E-02  4504   0.340E-01
   1291 T=   781. E= -.22570331E+03 F= -.23834263E+03 E0= -.23834263E+03  EK= 0.63596E+01 SP= 0.63E+01 SK= 0.47E-02 mag=     -0.000
       N       E                     dE             d eps       ncg     rms          rms(c)
DAV:   1    -0.238307329009E+03    0.34201E-01   -0.54527E-02  6072   0.217E+00    0.216E+00
RMM:   2    -0.238310115655E+03   -0.27866E-02   -0.52096E-02  4684   0.550E-01    0.101E+00
RMM:   3    -0.238310391665E+03   -0.27601E-03   -0.21062E-02  4509   0.356E-01
   1292 T=   783. E= -.22569148E+03 F= -.23831039E+03 E0= -.23831039E+03  EK= 0.63789E+01 SP= 0.62E+01 SK= 0.56E-02 mag=      0.000
       N       E                     dE             d eps       ncg     rms          rms(c)
DAV:   1    -0.238285886525E+03    0.24229E-01   -0.73763E-02  5936   0.227E+00    0.440E-01
RMM:   2    -0.238291189439E+03   -0.53029E-02   -0.64465E-02  4468   0.642E-01    0.414E-01
RMM:   3    -0.238292871394E+03   -0.16820E-02   -0.18776E-02  4725   0.319E-01
   1293 T=   788. E= -.22568001E+03 F= -.23829287E+03 E0= -.23829287E+03  EK= 0.64161E+01 SP= 0.62E+01 SK= 0.64E-02 mag=      0.000
       N       E                     dE             d eps       ncg     rms          rms(c)
DAV:   1    -0.238281306897E+03    0.98825E-02   -0.59251E-02  6016   0.220E+00    0.135E+00
RMM:   2    -0.238285777705E+03   -0.44708E-02   -0.54922E-02  4872   0.564E-01    0.104E+00
RMM:   3    -0.238286190306E+03   -0.41260E-03   -0.21051E-02  4382   0.364E-01
   1294 T=   795. E= -.22566338E+03 F= -.23828619E+03 E0= -.23828619E+03  EK= 0.64720E+01 SP= 0.61E+01 SK= 0.69E-02 mag=     -0.000
       N       E                     dE             d eps       ncg     rms          rms(c)
DAV:   1    -0.238293542828E+03   -0.77651E-02   -0.72747E-02  6152   0.221E+00    0.247E+00
RMM:   2    -0.238292552023E+03    0.99081E-03   -0.57730E-02  4626   0.584E-01    0.118E+00
RMM:   3    -0.238291670442E+03    0.88158E-03   -0.28368E-02  4539   0.396E-01
   1295 T=   803. E= -.22565111E+03 F= -.23829167E+03 E0= -.23829167E+03  EK= 0.65372E+01 SP= 0.61E+01 SK= 0.69E-02 mag=      0.000
       N       E                     dE             d eps       ncg     rms          rms(c)
DAV:   1    -0.238302431000E+03   -0.98790E-02   -0.10245E-01  6152   0.236E+00    0.529E-01
RMM:   2    -0.238305103251E+03   -0.26723E-02   -0.74851E-02  4611   0.704E-01    0.498E-01
RMM:   3    -0.238306594923E+03   -0.14917E-02   -0.24761E-02  4933   0.361E-01
   1296 T=   811. E= -.22564234E+03 F= -.23830659E+03 E0= -.23830659E+03  EK= 0.66082E+01 SP= 0.60E+01 SK= 0.65E-02 mag=      0.000
       N       E                     dE             d eps       ncg     rms          rms(c)
DAV:   1    -0.238319065635E+03   -0.13962E-01   -0.84285E-02  6232   0.228E+00    0.163E+00
RMM:   2    -0.238323224288E+03   -0.41587E-02   -0.61811E-02  4950   0.602E-01    0.123E+00
RMM:   3    -0.238322980387E+03    0.24390E-03   -0.26577E-02  4473   0.412E-01
   1297 T=   822. E= -.22562247E+03 F= -.23832298E+03 E0= -.23832298E+03  EK= 0.66900E+01 SP= 0.60E+01 SK= 0.56E-02 mag=     -0.000
       N       E                     dE             d eps       ncg     rms          rms(c)
DAV:   1    -0.238352628926E+03   -0.29405E-01   -0.70691E-02  5808   0.228E+00    0.280E+00
RMM:   2    -0.238347851216E+03    0.47777E-02   -0.71243E-02  4642   0.618E-01    0.133E+00
RMM:   3    -0.238346246013E+03    0.16052E-02   -0.44530E-02  4489   0.470E-01    0.420E-01
RMM:   4    -0.238348400118E+03   -0.21541E-02   -0.10037E-02  3668   0.247E-01
   1298 T=   831. E= -.22561184E+03 F= -.23834840E+03 E0= -.23834840E+03  EK= 0.67677E+01 SP= 0.60E+01 SK= 0.43E-02 mag=     -0.000
       N       E                     dE             d eps       ncg     rms          rms(c)
DAV:   1    -0.238368341785E+03   -0.22096E-01   -0.74065E-02  6040   0.236E+00    0.593E-01
RMM:   2    -0.238370771727E+03   -0.24299E-02   -0.56391E-02  4511   0.534E-01    0.498E-01
RMM:   3    -0.238372453854E+03   -0.16821E-02   -0.18921E-02  4635   0.331E-01
   1299 T=   840. E= -.22560179E+03 F= -.23837245E+03 E0= -.23837245E+03  EK= 0.68373E+01 SP= 0.59E+01 SK= 0.28E-02 mag=      0.000
       N       E                     dE             d eps       ncg     rms          rms(c)
DAV:   1    -0.238386206794E+03   -0.15435E-01   -0.75381E-02  6080   0.219E+00    0.843E-01
RMM:   2    -0.238393127630E+03   -0.69208E-02   -0.56141E-02  4930   0.552E-01    0.762E-01
RMM:   3    -0.238395163630E+03   -0.20360E-02   -0.16807E-02  4230   0.313E-01
   1300 T=   848. E= -.22558562E+03 F= -.23839516E+03 E0= -.23839516E+03  EK= 0.69037E+01 SP= 0.59E+01 SK= 0.14E-02 mag=     -0.000
       N       E                     dE             d eps       ncg     rms          rms(c)
DAV:   1    -0.238404224222E+03   -0.11097E-01   -0.55426E-02  5928   0.224E+00    0.131E+00
RMM:   2    -0.238411782983E+03   -0.75588E-02   -0.49147E-02  4836   0.521E-01    0.572E-01
RMM:   3    -0.238413763569E+03   -0.19806E-02   -0.16101E-02  3887   0.343E-01
   1301 T=   854. E= -.22557084E+03 F= -.23841376E+03 E0= -.23841376E+03  EK= 0.69547E+01 SP= 0.59E+01 SK= 0.38E-03 mag=     -0.000
       N       E                     dE             d eps       ncg     rms          rms(c)
DAV:   1    -0.238418572433E+03   -0.67895E-02   -0.58650E-02  5992   0.226E+00    0.735E-01
RMM:   2    -0.238426176483E+03   -0.76040E-02   -0.56600E-02  4916   0.530E-01    0.336E-01
RMM:   3    -0.238428553083E+03   -0.23766E-02   -0.15913E-02  4231   0.307E-01
   1302 T=   858. E= -.22555969E+03 F= -.23842855E+03 E0= -.23842855E+03  EK= 0.69867E+01 SP= 0.59E+01 SK= 0.78E-07 mag=      0.000
       N       E                     dE             d eps       ncg     rms          rms(c)
DAV:   1    -0.238430183903E+03   -0.40074E-02   -0.70515E-02  6056   0.222E+00    0.453E-01
RMM:   2    -0.238435386319E+03   -0.52024E-02   -0.47549E-02  4690   0.538E-01    0.423E-01
RMM:   3    -0.238437012549E+03   -0.16262E-02   -0.14979E-02  4330   0.270E-01
   1303 T=   860. E= -.22554378E+03 F= -.23843701E+03 E0= -.23843701E+03  EK= 0.70046E+01 SP= 0.59E+01 SK= 0.45E-03 mag=      0.000
       N       E                     dE             d eps       ncg     rms          rms(c)
DAV:   1    -0.238435891523E+03   -0.50520E-03   -0.53288E-02  5568   0.216E+00    0.664E-01
RMM:   2    -0.238440532610E+03   -0.46411E-02   -0.47701E-02  4894   0.500E-01    0.587E-01
RMM:   3    -0.238441613416E+03   -0.10808E-02   -0.13801E-02  3874   0.269E-01
   1304 T=   860. E= -.22552729E+03 F= -.23844161E+03 E0= -.23844161E+03  EK= 0.70063E+01 SP= 0.59E+01 SK= 0.18E-02 mag=     -0.000
       N       E                     dE             d eps       ncg     rms          rms(c)
DAV:   1    -0.238435799363E+03    0.47332E-02   -0.56878E-02  5992   0.222E+00    0.178E+00
RMM:   2    -0.238442253888E+03   -0.64545E-02   -0.47401E-02  4897   0.488E-01    0.787E-01
RMM:   3    -0.238442623522E+03   -0.36963E-03   -0.16895E-02  3806   0.397E-01
   1305 T=   859. E= -.22551009E+03 F= -.23844262E+03 E0= -.23844262E+03  EK= 0.69920E+01 SP= 0.59E+01 SK= 0.41E-02 mag=      0.000
       N       E                     dE             d eps       ncg     rms          rms(c)
DAV:   1    -0.238436276447E+03    0.59774E-02   -0.94797E-02  6024   0.226E+00    0.400E-01
RMM:   2    -0.238444162985E+03   -0.78865E-02   -0.61795E-02  4887   0.584E-01    0.354E-01
RMM:   3    -0.238446660485E+03   -0.24975E-02   -0.18367E-02  4487   0.319E-01
   1306 T=   855. E= -.22549545E+03 F= -.23844666E+03 E0= -.23844666E+03  EK= 0.69658E+01 SP= 0.60E+01 SK= 0.70E-02 mag=      0.000
       N       E                     dE             d eps       ncg     rms          rms(c)
DAV:   1    -0.238444363958E+03   -0.20097E-03   -0.62831E-02  6040   0.222E+00    0.127E+00
RMM:   2    -0.238449513035E+03   -0.51491E-02   -0.49975E-02  4875   0.532E-01    0.954E-01
RMM:   3    -0.238448384103E+03    0.11289E-02   -0.21764E-02  4018   0.439E-01
   1307 T=   851. E= -.22547748E+03 F= -.23844838E+03 E0= -.23844838E+03  EK= 0.69289E+01 SP= 0.60E+01 SK= 0.11E-01 mag=      0.000
       N       E                     dE             d eps       ncg     rms          rms(c)
DAV:   1    -0.238455633605E+03   -0.61206E-02   -0.98620E-02  6040   0.226E+00    0.235E+00
RMM:   2    -0.238459215145E+03   -0.35815E-02   -0.67947E-02  4820   0.630E-01    0.103E+00
RMM:   3    -0.238459586721E+03   -0.37158E-03   -0.29483E-02  4695   0.447E-01
   1308 T=   846. E= -.22545979E+03 F= -.23845959E+03 E0= -.23845959E+03  EK= 0.68906E+01 SP= 0.61E+01 SK= 0.14E-01 mag=     -0.000
       N       E                     dE             d eps       ncg     rms          rms(c)
DAV:   1    -0.238469309063E+03   -0.10094E-01   -0.12336E-01  5792   0.233E+00    0.402E-01
RMM:   2    -0.238475275937E+03   -0.59669E-02   -0.77172E-02  4614   0.690E-01    0.460E-01
RMM:   3    -0.238477621292E+03   -0.23454E-02   -0.25555E-02  4992   0.364E-01
   1309 T=   841. E= -.22544262E+03 F= -.23847762E+03 E0= -.23847762E+03  EK= 0.68493E+01 SP= 0.62E+01 SK= 0.18E-01 mag=      0.000
       N       E                     dE             d eps       ncg     rms          rms(c)
DAV:   1    -0.238496095217E+03   -0.20819E-01   -0.87878E-02  6000   0.221E+00    0.170E+00
RMM:   2    -0.238501101005E+03   -0.50058E-02   -0.59199E-02  4863   0.582E-01    0.127E+00
RMM:   3    -0.238499303411E+03    0.17976E-02   -0.28245E-02  4177   0.471E-01
   1310 T=   836. E= -.22542400E+03 F= -.23849930E+03 E0= -.23849930E+03  EK= 0.68049E+01 SP= 0.62E+01 SK= 0.22E-01 mag=     -0.000
       N       E                     dE             d eps       ncg     rms          rms(c)
DAV:   1    -0.238536196047E+03   -0.35095E-01   -0.11102E-01  5648   0.231E+00    0.296E+00
RMM:   2    -0.238537100909E+03   -0.90486E-03   -0.80233E-02  4752   0.628E-01    0.137E+00
RMM:   3    -0.238535881390E+03    0.12195E-02   -0.48354E-02  4383   0.568E-01    0.314E-01
RMM:   4    -0.238540058867E+03   -0.41775E-02   -0.15501E-02  4487   0.284E-01    0.169E-01
RMM:   5    -0.238539818173E+03    0.24069E-03   -0.14499E-03  2556   0.103E-01
   1311 T=   830. E= -.22541677E+03 F= -.23853982E+03 E0= -.23853982E+03  EK= 0.67611E+01 SP= 0.63E+01 SK= 0.26E-01 mag=      0.000
       N       E                     dE             d eps       ncg     rms          rms(c)
DAV:   1    -0.238582409364E+03   -0.42350E-01   -0.72530E-02  5832   0.219E+00    0.463E-01
RMM:   2    -0.238587223166E+03   -0.48138E-02   -0.49280E-02  4576   0.521E-01    0.369E-01
RMM:   3    -0.238589273363E+03   -0.20502E-02   -0.17629E-02  4561   0.318E-01
   1312 T=   826. E= -.22540701E+03 F= -.23858927E+03 E0= -.23858927E+03  EK= 0.67229E+01 SP= 0.64E+01 SK= 0.29E-01 mag=      0.000
       N       E                     dE             d eps       ncg     rms          rms(c)
DAV:   1    -0.238644913884E+03   -0.57691E-01   -0.73243E-02  6168   0.208E+00    0.843E-01
RMM:   2    -0.238650932648E+03   -0.60188E-02   -0.56261E-02  5008   0.527E-01    0.779E-01
RMM:   3    -0.238652078942E+03   -0.11463E-02   -0.13611E-02  3792   0.268E-01
   1313 T=   823. E= -.22539198E+03 F= -.23865208E+03 E0= -.23865208E+03  EK= 0.66986E+01 SP= 0.65E+01 SK= 0.32E-01 mag=      0.000
       N       E                     dE             d eps       ncg     rms          rms(c)
DAV:   1    -0.238722652739E+03   -0.71720E-01   -0.67104E-02  6176   0.213E+00    0.170E+00
RMM:   2    -0.238727155005E+03   -0.45023E-02   -0.43585E-02  4726   0.479E-01    0.799E-01
RMM:   3    -0.238727743764E+03   -0.58876E-03   -0.15705E-02  4006   0.318E-01
   1314 T=   821. E= -.22537600E+03 F= -.23872774E+03 E0= -.23872774E+03  EK= 0.66837E+01 SP= 0.66E+01 SK= 0.35E-01 mag=     -0.000
       N       E                     dE             d eps       ncg     rms          rms(c)
DAV:   1    -0.238808881148E+03   -0.81726E-01   -0.61437E-02  6096   0.217E+00    0.463E-01
RMM:   2    -0.238815487081E+03   -0.66059E-02   -0.56060E-02  4871   0.555E-01    0.428E-01
RMM:   3    -0.238817268666E+03   -0.17816E-02   -0.14358E-02  4076   0.277E-01
   1315 T=   820. E= -.22536447E+03 F= -.23881727E+03 E0= -.23881727E+03  EK= 0.66741E+01 SP= 0.67E+01 SK= 0.38E-01 mag=     -0.000
       N       E                     dE             d eps       ncg     rms          rms(c)
DAV:   1    -0.238910972007E+03   -0.95485E-01   -0.54343E-02  6040   0.211E+00    0.124E+00
RMM:   2    -0.238914248459E+03   -0.32765E-02   -0.47272E-02  4835   0.490E-01    0.928E-01
RMM:   3    -0.238914998379E+03   -0.74992E-03   -0.16523E-02  4003   0.308E-01
   1316 T=   819. E= -.22534982E+03 F= -.23891500E+03 E0= -.23891500E+03  EK= 0.66719E+01 SP= 0.69E+01 SK= 0.40E-01 mag=     -0.000
       N       E                     dE             d eps       ncg     rms          rms(c)
DAV:   1    -0.239022859219E+03   -0.10861E+00   -0.59239E-02  6152   0.210E+00    0.216E+00
RMM:   2    -0.239020365060E+03    0.24942E-02   -0.49205E-02  4584   0.540E-01    0.104E+00
RMM:   3    -0.239019604291E+03    0.76077E-03   -0.26869E-02  4551   0.337E-01
   1317 T=   819. E= -.22533477E+03 F= -.23901960E+03 E0= -.23901960E+03  EK= 0.66731E+01 SP= 0.70E+01 SK= 0.43E-01 mag=      0.000
       N       E                     dE             d eps       ncg     rms          rms(c)
DAV:   1    -0.239123366723E+03   -0.10300E+00   -0.85020E-02  6336   0.219E+00    0.478E-01
RMM:   2    -0.239124890192E+03   -0.15235E-02   -0.69182E-02  4498   0.682E-01    0.432E-01
RMM:   3    -0.239125702847E+03   -0.81266E-03   -0.21701E-02  4741   0.326E-01
   1318 T=   819. E= -.22532346E+03 F= -.23912570E+03 E0= -.23912570E+03  EK= 0.66680E+01 SP= 0.71E+01 SK= 0.46E-01 mag=      0.000
       N       E                     dE             d eps       ncg     rms          rms(c)
DAV:   1    -0.239220251966E+03   -0.95362E-01   -0.78933E-02  6288   0.211E+00    0.109E+00
RMM:   2    -0.239224900618E+03   -0.46487E-02   -0.53810E-02  4650   0.570E-01    0.865E-01
RMM:   3    -0.239225988694E+03   -0.10881E-02   -0.20313E-02  4512   0.321E-01
   1319 T=   817. E= -.22531001E+03 F= -.23922599E+03 E0= -.23922599E+03  EK= 0.66555E+01 SP= 0.72E+01 SK= 0.49E-01 mag=     -0.000
       N       E                     dE             d eps       ncg     rms          rms(c)
DAV:   1    -0.239317712297E+03   -0.92812E-01   -0.51283E-02  5920   0.214E+00    0.197E+00
RMM:   2    -0.239316724546E+03    0.98775E-03   -0.54812E-02  4436   0.538E-01    0.933E-01
RMM:   3    -0.239316865499E+03   -0.14095E-03   -0.29451E-02  4649   0.383E-01
   1320 T=   814. E= -.22529802E+03 F= -.23931687E+03 E0= -.23931687E+03  EK= 0.66290E+01 SP= 0.73E+01 SK= 0.51E-01 mag=     -0.000
       N       E                     dE             d eps       ncg     rms          rms(c)
DAV:   1    -0.239390846152E+03   -0.74122E-01   -0.69794E-02  5960   0.223E+00    0.583E-01
RMM:   2    -0.239393247244E+03   -0.24011E-02   -0.66805E-02  4325   0.656E-01    0.374E-01
RMM:   3    -0.239394345575E+03   -0.10983E-02   -0.19976E-02  4762   0.335E-01
   1321 T=   809. E= -.22528822E+03 F= -.23939435E+03 E0= -.23939435E+03  EK= 0.65848E+01 SP= 0.75E+01 SK= 0.53E-01 mag=      0.000
       N       E                     dE             d eps       ncg     rms          rms(c)
DAV:   1    -0.239444483568E+03   -0.51236E-01   -0.75686E-02  6128   0.214E+00    0.876E-01
RMM:   2    -0.239449957671E+03   -0.54741E-02   -0.56725E-02  4647   0.592E-01    0.783E-01
RMM:   3    -0.239451622373E+03   -0.16647E-02   -0.17598E-02  4506   0.298E-01
   1322 T=   801. E= -.22527504E+03 F= -.23945162E+03 E0= -.23945162E+03  EK= 0.65230E+01 SP= 0.76E+01 SK= 0.54E-01 mag=      0.000
       N       E                     dE             d eps       ncg     rms          rms(c)
DAV:   1    -0.239484670894E+03   -0.34713E-01   -0.47130E-02  5920   0.206E+00    0.127E+00
RMM:   2    -0.239486606153E+03   -0.19353E-02   -0.45006E-02  4602   0.502E-01    0.565E-01
RMM:   3    -0.239487790352E+03   -0.11842E-02   -0.19732E-02  4601   0.302E-01
   1323 T=   791. E= -.22526456E+03 F= -.23948779E+03 E0= -.23948779E+03  EK= 0.64387E+01 SP= 0.77E+01 SK= 0.53E-01 mag=     -0.000
       N       E                     dE             d eps       ncg     rms          rms(c)
DAV:   1    -0.239496992482E+03   -0.10386E-01   -0.51966E-02  5944   0.211E+00    0.647E-01
RMM:   2    -0.239501216150E+03   -0.42237E-02   -0.52191E-02  4244   0.563E-01    0.269E-01
RMM:   3    -0.239502367719E+03   -0.11516E-02   -0.13874E-02  4465   0.272E-01
   1324 T=   778. E= -.22525438E+03 F= -.23950237E+03 E0= -.23950237E+03  EK= 0.63363E+01 SP= 0.79E+01 SK= 0.51E-01 mag=      0.000
       N       E                     dE             d eps       ncg     rms          rms(c)
DAV:   1    -0.239491027351E+03    0.10189E-01   -0.57447E-02  6104   0.204E+00    0.324E-01
RMM:   2    -0.239495748584E+03   -0.47212E-02   -0.45410E-02  4392   0.552E-01    0.354E-01
RMM:   3    -0.239497072159E+03   -0.13236E-02   -0.13591E-02  4347   0.253E-01
   1325 T=   764. E= -.22524117E+03 F= -.23949707E+03 E0= -.23949707E+03  EK= 0.62233E+01 SP= 0.80E+01 SK= 0.46E-01 mag=      0.000
       N       E                     dE             d eps       ncg     rms          rms(c)
DAV:   1    -0.239472053662E+03    0.23695E-01   -0.49068E-02  5976   0.200E+00    0.898E-01
RMM:   2    -0.239475168266E+03   -0.31146E-02   -0.37949E-02  4706   0.472E-01    0.700E-01
RMM:   3    -0.239475783677E+03   -0.61541E-03   -0.16866E-02  4289   0.289E-01
   1326 T=   749. E= -.22522861E+03 F= -.23947578E+03 E0= -.23947578E+03  EK= 0.61028E+01 SP= 0.81E+01 SK= 0.40E-01 mag=     -0.000
       N       E                     dE             d eps       ncg     rms          rms(c)
DAV:   1    -0.239442180856E+03    0.32987E-01   -0.54901E-02  6056   0.204E+00    0.195E+00
RMM:   2    -0.239443901757E+03   -0.17209E-02   -0.45840E-02  4520   0.507E-01    0.903E-01
RMM:   3    -0.239443797175E+03    0.10458E-03   -0.18009E-02  4260   0.351E-01
   1327 T=   735. E= -.22521323E+03 F= -.23944380E+03 E0= -.23944380E+03  EK= 0.59859E+01 SP= 0.82E+01 SK= 0.32E-01 mag=     -0.000
       N       E                     dE             d eps       ncg     rms          rms(c)
DAV:   1    -0.239402583574E+03    0.41318E-01   -0.77402E-02  6048   0.209E+00    0.373E-01
RMM:   2    -0.239406128495E+03   -0.35449E-02   -0.59281E-02  4542   0.622E-01    0.345E-01
RMM:   3    -0.239407697163E+03   -0.15687E-02   -0.19302E-02  4685   0.316E-01
   1328 T=   722. E= -.22519887E+03 F= -.23940770E+03 E0= -.23940770E+03  EK= 0.58777E+01 SP= 0.83E+01 SK= 0.24E-01 mag=      0.000
       N       E                     dE             d eps       ncg     rms          rms(c)
DAV:   1    -0.239365385374E+03    0.40743E-01   -0.65678E-02  6032   0.202E+00    0.120E+00
RMM:   2    -0.239369679361E+03   -0.42940E-02   -0.47014E-02  4769   0.532E-01    0.939E-01
RMM:   3    -0.239368916917E+03    0.76244E-03   -0.19468E-02  4074   0.401E-01
   1329 T=   710. E= -.22518669E+03 F= -.23936892E+03 E0= -.23936892E+03  EK= 0.57801E+01 SP= 0.84E+01 SK= 0.15E-01 mag=     -0.000
       N       E                     dE             d eps       ncg     rms          rms(c)
DAV:   1    -0.239338174177E+03    0.31505E-01   -0.71864E-02  5736   0.208E+00    0.222E+00
RMM:   2    -0.239339953382E+03   -0.17792E-02   -0.59549E-02  4681   0.562E-01    0.957E-01
RMM:   3    -0.239339622043E+03    0.33134E-03   -0.28240E-02  4219   0.456E-01
   1330 T=   701. E= -.22517219E+03 F= -.23933962E+03 E0= -.23933962E+03  EK= 0.57114E+01 SP= 0.84E+01 SK= 0.81E-02 mag=     -0.000
       N       E                     dE             d eps       ncg     rms          rms(c)
DAV:   1    -0.239317490300E+03    0.22463E-01   -0.12817E-01  5440   0.217E+00    0.503E-01
RMM:   2    -0.239321153304E+03   -0.36630E-02   -0.70320E-02  4669   0.624E-01    0.399E-01
RMM:   3    -0.239323114932E+03   -0.19616E-02   -0.24223E-02  4795   0.355E-01
   1331 T=   696. E= -.22515921E+03 F= -.23932311E+03 E0= -.23932311E+03  EK= 0.56718E+01 SP= 0.85E+01 SK= 0.30E-02 mag=     -0.000
       N       E                     dE             d eps       ncg     rms          rms(c)
DAV:   1    -0.239311977813E+03    0.91755E-02   -0.96510E-02  5824   0.209E+00    0.134E+00
RMM:   2    -0.239316906194E+03   -0.49284E-02   -0.59002E-02  4993   0.553E-01    0.112E+00
RMM:   3    -0.239316246017E+03    0.66018E-03   -0.20915E-02  4038   0.411E-01
   1332 T=   695. E= -.22514828E+03 F= -.23931625E+03 E0= -.23931625E+03  EK= 0.56581E+01 SP= 0.85E+01 SK= 0.30E-03 mag=     -0.000
       N       E                     dE             d eps       ncg     rms          rms(c)
DAV:   1    -0.239328444956E+03   -0.11539E-01   -0.79133E-02  5512   0.215E+00    0.264E+00
RMM:   2    -0.239329720203E+03   -0.12752E-02   -0.65768E-02  4713   0.546E-01    0.115E+00
RMM:   3    -0.239328488323E+03    0.12319E-02   -0.35805E-02  4139   0.513E-01    0.370E-01
RMM:   4    -0.239331880694E+03   -0.33924E-02   -0.11640E-02  3995   0.251E-01    0.107E-01
RMM:   5    -0.239331771988E+03    0.10871E-03   -0.13492E-03  2541   0.105E-01
   1333 T=   697. E= -.22514503E+03 F= -.23933177E+03 E0= -.23933177E+03  EK= 0.56774E+01 SP= 0.85E+01 SK= 0.38E-03 mag=     -0.000
       N       E                     dE             d eps       ncg     rms          rms(c)
DAV:   1    -0.239358756224E+03   -0.26876E-01   -0.57388E-02  5896   0.205E+00    0.515E-01
RMM:   2    -0.239361929916E+03   -0.31737E-02   -0.38000E-02  4569   0.474E-01    0.416E-01
RMM:   3    -0.239363554460E+03   -0.16245E-02   -0.13775E-02  4380   0.289E-01
   1334 T=   704. E= -.22513916E+03 F= -.23936355E+03 E0= -.23936355E+03  EK= 0.57339E+01 SP= 0.85E+01 SK= 0.30E-02 mag=      0.000
       N       E                     dE             d eps       ncg     rms          rms(c)
DAV:   1    -0.239408923882E+03   -0.46994E-01   -0.52446E-02  5840   0.196E+00    0.827E-01
RMM:   2    -0.239413182934E+03   -0.42591E-02   -0.44985E-02  4986   0.477E-01    0.742E-01
RMM:   3    -0.239413965407E+03   -0.78247E-03   -0.10588E-02  3638   0.233E-01
   1335 T=   716. E= -.22513077E+03 F= -.23941397E+03 E0= -.23941397E+03  EK= 0.58288E+01 SP= 0.84E+01 SK= 0.75E-02 mag=      0.000
       N       E                     dE             d eps       ncg     rms          rms(c)
DAV:   1    -0.239478624675E+03   -0.65442E-01   -0.49315E-02  5912   0.199E+00    0.153E+00
RMM:   2    -0.239480941980E+03   -0.23173E-02   -0.33154E-02  4697   0.424E-01    0.766E-01
RMM:   3    -0.239481371007E+03   -0.42903E-03   -0.12019E-02  3874   0.243E-01
   1336 T=   732. E= -.22512135E+03 F= -.23948137E+03 E0= -.23948137E+03  EK= 0.59578E+01 SP= 0.84E+01 SK= 0.13E-01 mag=     -0.000
       N       E                     dE             d eps       ncg     rms          rms(c)
DAV:   1    -0.239559771338E+03   -0.78829E-01   -0.39336E-02  5872   0.203E+00    0.379E-01
RMM:   2    -0.239563914709E+03   -0.41434E-02   -0.41969E-02  4758   0.498E-01    0.332E-01
RMM:   3    -0.239565069708E+03   -0.11550E-02   -0.11054E-02  3857   0.239E-01
   1337 T=   751. E= -.22511279E+03 F= -.23956507E+03 E0= -.23956507E+03  EK= 0.61162E+01 SP= 0.83E+01 SK= 0.18E-01 mag=     -0.000
       N       E                     dE             d eps       ncg     rms          rms(c)
DAV:   1    -0.239658505278E+03   -0.94591E-01   -0.46330E-02  5848   0.203E+00    0.922E-01
RMM:   2    -0.239661771303E+03   -0.32660E-02   -0.38813E-02  4742   0.459E-01    0.724E-01
RMM:   3    -0.239662245077E+03   -0.47377E-03   -0.13064E-02  3861   0.283E-01
   1338 T=   774. E= -.22510303E+03 F= -.23966225E+03 E0= -.23966225E+03  EK= 0.63005E+01 SP= 0.82E+01 SK= 0.22E-01 mag=      0.000
       N       E                     dE             d eps       ncg     rms          rms(c)
DAV:   1    -0.239770801734E+03   -0.10903E+00   -0.49815E-02  5992   0.209E+00    0.168E+00
RMM:   2    -0.239771611439E+03   -0.80971E-03   -0.41927E-02  4701   0.493E-01    0.777E-01
RMM:   3    -0.239771225624E+03    0.38581E-03   -0.17463E-02  4222   0.327E-01
   1339 T=   799. E= -.22509216E+03 F= -.23977123E+03 E0= -.23977123E+03  EK= 0.65053E+01 SP= 0.82E+01 SK= 0.23E-01 mag=      0.000
       N       E                     dE             d eps       ncg     rms          rms(c)
DAV:   1    -0.239883797546E+03   -0.11219E+00   -0.77006E-02  6080   0.220E+00    0.397E-01
RMM:   2    -0.239887676203E+03   -0.38787E-02   -0.58147E-02  4606   0.631E-01    0.324E-01
RMM:   3    -0.239889051035E+03   -0.13748E-02   -0.18191E-02  4631   0.315E-01
   1340 T=   825. E= -.22508244E+03 F= -.23988905E+03 E0= -.23988905E+03  EK= 0.67208E+01 SP= 0.81E+01 SK= 0.22E-01 mag=     -0.000
       N       E                     dE             d eps       ncg     rms          rms(c)
DAV:   1    -0.240003611177E+03   -0.11593E+00   -0.63780E-02  6016   0.218E+00    0.990E-01
RMM:   2    -0.240007755749E+03   -0.41446E-02   -0.53857E-02  4857   0.550E-01    0.826E-01
RMM:   3    -0.240008638361E+03   -0.88261E-03   -0.17266E-02  4060   0.310E-01
   1341 T=   852. E= -.22506959E+03 F= -.24000864E+03 E0= -.24000864E+03  EK= 0.69387E+01 SP= 0.80E+01 SK= 0.18E-01 mag=      0.000
       N       E                     dE             d eps       ncg     rms          rms(c)
DAV:   1    -0.240127274713E+03   -0.11952E+00   -0.65948E-02  5968   0.221E+00    0.195E+00
RMM:   2    -0.240127528293E+03   -0.25358E-03   -0.52141E-02  4568   0.527E-01    0.901E-01
RMM:   3    -0.240127174185E+03    0.35411E-03   -0.26659E-02  4286   0.416E-01
   1342 T=   878. E= -.22505527E+03 F= -.24012717E+03 E0= -.24012717E+03  EK= 0.71483E+01 SP= 0.79E+01 SK= 0.12E-01 mag=      0.000
       N       E                     dE             d eps       ncg     rms          rms(c)
DAV:   1    -0.240235771592E+03   -0.10824E+00   -0.11299E-01  6120   0.234E+00    0.545E-01
RMM:   2    -0.240240031084E+03   -0.42595E-02   -0.74862E-02  4710   0.688E-01    0.399E-01
RMM:   3    -0.240241911477E+03   -0.18804E-02   -0.24716E-02  4776   0.364E-01
   1343 T=   901. E= -.22504443E+03 F= -.24024191E+03 E0= -.24024191E+03  EK= 0.73355E+01 SP= 0.79E+01 SK= 0.64E-02 mag=      0.000
       N       E                     dE             d eps       ncg     rms          rms(c)
DAV:   1    -0.240334552489E+03   -0.94521E-01   -0.11231E-01  6112   0.232E+00    0.115E+00
RMM:   2    -0.240340528489E+03   -0.59760E-02   -0.68984E-02  4959   0.619E-01    0.100E+00
RMM:   3    -0.240341984914E+03   -0.14564E-02   -0.22108E-02  4246   0.352E-01
   1344 T=   920. E= -.22502876E+03 F= -.24034198E+03 E0= -.24034198E+03  EK= 0.74912E+01 SP= 0.78E+01 SK= 0.17E-02 mag=      0.000
       N       E                     dE             d eps       ncg     rms          rms(c)
DAV:   1    -0.240424636090E+03   -0.84108E-01   -0.69704E-02  5904   0.231E+00    0.253E+00
RMM:   2    -0.240425597838E+03   -0.96175E-03   -0.65192E-02  4684   0.572E-01    0.120E+00
RMM:   3    -0.240425489461E+03    0.10838E-03   -0.33809E-02  4493   0.460E-01    0.503E-01
RMM:   4    -0.240427652185E+03   -0.21627E-02   -0.82678E-03  3414   0.231E-01
   1345 T=   933. E= -.22501777E+03 F= -.24042765E+03 E0= -.24042765E+03  EK= 0.76007E+01 SP= 0.78E+01 SK= 0.15E-04 mag=      0.000
       N       E                     dE             d eps       ncg     rms          rms(c)
DAV:   1    -0.240484146984E+03   -0.58658E-01   -0.67619E-02  6112   0.234E+00    0.617E-01
RMM:   2    -0.240489793503E+03   -0.56465E-02   -0.55829E-02  4502   0.505E-01    0.560E-01
RMM:   3    -0.240492267381E+03   -0.24739E-02   -0.16846E-02  4682   0.309E-01
   1346 T=   940. E= -.22500609E+03 F= -.24049227E+03 E0= -.24049227E+03  EK= 0.76587E+01 SP= 0.78E+01 SK= 0.28E-02 mag=     -0.000
       N       E                     dE             d eps       ncg     rms          rms(c)
DAV:   1    -0.240525283562E+03   -0.35490E-01   -0.75790E-02  6016   0.224E+00    0.128E+00
RMM:   2    -0.240532062902E+03   -0.67793E-02   -0.52635E-02  4867   0.532E-01    0.101E+00
RMM:   3    -0.240530183253E+03    0.18796E-02   -0.23788E-02  3828   0.486E-01
   1347 T=   942. E= -.22498125E+03 F= -.24053018E+03 E0= -.24053018E+03  EK= 0.76698E+01 SP= 0.79E+01 SK= 0.11E-01 mag=      0.000
       N       E                     dE             d eps       ncg     rms          rms(c)
DAV:   1    -0.240549047220E+03   -0.16984E-01   -0.90013E-02  5984   0.231E+00    0.263E+00
RMM:   2    -0.240552187939E+03   -0.31407E-02   -0.65518E-02  4807   0.626E-01    0.120E+00
RMM:   3    -0.240551366315E+03    0.82162E-03   -0.27380E-02  4422   0.476E-01
   1348 T=   936. E= -.22496129E+03 F= -.24055137E+03 E0= -.24055137E+03  EK= 0.76261E+01 SP= 0.79E+01 SK= 0.23E-01 mag=      0.000
       N       E                     dE             d eps       ncg     rms          rms(c)
DAV:   1    -0.240539158066E+03    0.13030E-01   -0.11713E-01  5456   0.247E+00    0.456E-01
RMM:   2    -0.240547641308E+03   -0.84832E-02   -0.89692E-02  4580   0.710E-01    0.610E-01
RMM:   3    -0.240550569167E+03   -0.29279E-02   -0.28158E-02  5049   0.378E-01
   1349 T=   924. E= -.22494523E+03 F= -.24055057E+03 E0= -.24055057E+03  EK= 0.75255E+01 SP= 0.80E+01 SK= 0.39E-01 mag=     -0.000
       N       E                     dE             d eps       ncg     rms          rms(c)
DAV:   1    -0.240523206697E+03    0.24435E-01   -0.10064E-01  5992   0.229E+00    0.237E+00
RMM:   2    -0.240525957171E+03   -0.27505E-02   -0.66669E-02  5013   0.561E-01    0.170E+00
RMM:   3    -0.240519818589E+03    0.61386E-02   -0.40706E-02  3943   0.594E-01    0.379E-01
RMM:   4    -0.240527127232E+03   -0.73086E-02   -0.15902E-02  3594   0.448E-01    0.128E-01
RMM:   5    -0.240527296757E+03   -0.16952E-03   -0.20570E-03  2482   0.127E-01
   1350 T=   905. E= -.22493172E+03 F= -.24052730E+03 E0= -.24052730E+03  EK= 0.73733E+01 SP= 0.82E+01 SK= 0.57E-01 mag=      0.000
       N       E                     dE             d eps       ncg     rms          rms(c)
DAV:   1    -0.240489982504E+03    0.37145E-01   -0.44834E-02  5856   0.207E+00    0.321E+00
RMM:   2    -0.240488668482E+03    0.13140E-02   -0.63359E-02  5001   0.536E-01    0.166E+00
RMM:   3    -0.240488675702E+03   -0.72196E-05   -0.24664E-02  4407   0.293E-01
   1351 T=   882. E= -.22492143E+03 F= -.24048868E+03 E0= -.24048868E+03  EK= 0.71823E+01 SP= 0.83E+01 SK= 0.74E-01 mag=     -0.000
       N       E                     dE             d eps       ncg     rms          rms(c)
DAV:   1    -0.240435368809E+03    0.53300E-01   -0.64398E-02  6064   0.216E+00    0.509E-01
RMM:   2    -0.240438365919E+03   -0.29971E-02   -0.54509E-02  4659   0.560E-01    0.459E-01
RMM:   3    -0.240439935833E+03   -0.15699E-02   -0.21851E-02  4899   0.312E-01
   1352 T=   856. E= -.22490486E+03 F= -.24043994E+03 E0= -.24043994E+03  EK= 0.69739E+01 SP= 0.85E+01 SK= 0.88E-01 mag=     -0.000
       N       E                     dE             d eps       ncg     rms          rms(c)
DAV:   1    -0.240378412527E+03    0.59953E-01   -0.64359E-02  6168   0.209E+00    0.102E+00
RMM:   2    -0.240383448449E+03   -0.50359E-02   -0.49691E-02  4428   0.551E-01    0.784E-01
RMM:   3    -0.240384416471E+03   -0.96802E-03   -0.18364E-02  4473   0.358E-01
   1353 T=   830. E= -.22488486E+03 F= -.24038442E+03 E0= -.24038442E+03  EK= 0.67555E+01 SP= 0.86E+01 SK= 0.97E-01 mag=     -0.000
       N       E                     dE             d eps       ncg     rms          rms(c)
DAV:   1    -0.240321659429E+03    0.61789E-01   -0.53202E-02  5984   0.208E+00    0.162E+00
RMM:   2    -0.240327217285E+03   -0.55579E-02   -0.52270E-02  4879   0.530E-01    0.651E-01
RMM:   3    -0.240327886535E+03   -0.66925E-03   -0.13242E-02  3691   0.324E-01
   1354 T=   802. E= -.22486771E+03 F= -.24032789E+03 E0= -.24032789E+03  EK= 0.65331E+01 SP= 0.88E+01 SK= 0.10E+00 mag=      0.000
       N       E                     dE             d eps       ncg     rms          rms(c)
DAV:   1    -0.240266551715E+03    0.60666E-01   -0.64175E-02  5952   0.209E+00    0.424E-01
RMM:   2    -0.240272441400E+03   -0.58897E-02   -0.47770E-02  4575   0.554E-01    0.210E-01
RMM:   3    -0.240274434645E+03   -0.19932E-02   -0.16363E-02  4559   0.307E-01
   1355 T=   776. E= -.22485006E+03 F= -.24027443E+03 E0= -.24027443E+03  EK= 0.63197E+01 SP= 0.90E+01 SK= 0.98E-01 mag=      0.000
       N       E                     dE             d eps       ncg     rms          rms(c)
DAV:   1    -0.240220657632E+03    0.51784E-01   -0.53970E-02  5952   0.200E+00    0.612E-01
RMM:   2    -0.240225479640E+03   -0.48220E-02   -0.41195E-02  4676   0.497E-01    0.532E-01
RMM:   3    -0.240227070993E+03   -0.15914E-02   -0.14862E-02  4391   0.286E-01
   1356 T=   752. E= -.22483337E+03 F= -.24022707E+03 E0= -.24022707E+03  EK= 0.61218E+01 SP= 0.92E+01 SK= 0.90E-01 mag=     -0.000
       N       E                     dE             d eps       ncg     rms          rms(c)
DAV:   1    -0.240184028096E+03    0.41452E-01   -0.45445E-02  5976   0.193E+00    0.781E-01
RMM:   2    -0.240188152445E+03   -0.41243E-02   -0.37224E-02  4608   0.473E-01    0.286E-01
RMM:   3    -0.240189207456E+03   -0.10550E-02   -0.11999E-02  4041   0.253E-01
   1357 T=   730. E= -.22481906E+03 F= -.24018921E+03 E0= -.24018921E+03  EK= 0.59449E+01 SP= 0.93E+01 SK= 0.78E-01 mag=     -0.000
       N       E                     dE             d eps       ncg     rms          rms(c)
DAV:   1    -0.240158157447E+03    0.29995E-01   -0.50691E-02  5752   0.190E+00    0.405E-01
RMM:   2    -0.240162654328E+03   -0.44969E-02   -0.39043E-02  4513   0.496E-01    0.151E-01
RMM:   3    -0.240163945144E+03   -0.12908E-02   -0.12530E-02  4060   0.244E-01
   1358 T=   712. E= -.22480538E+03 F= -.24016395E+03 E0= -.24016395E+03  EK= 0.57968E+01 SP= 0.95E+01 SK= 0.63E-01 mag=      0.000
       N       E                     dE             d eps       ncg     rms          rms(c)
DAV:   1    -0.240146205851E+03    0.16448E-01   -0.46059E-02  5880   0.187E+00    0.160E-01
RMM:   2    -0.240150188923E+03   -0.39831E-02   -0.34246E-02  4524   0.482E-01    0.202E-01
RMM:   3    -0.240151445097E+03   -0.12562E-02   -0.12176E-02  3852   0.230E-01
   1359 T=   698. E= -.22479134E+03 F= -.24015145E+03 E0= -.24015145E+03  EK= 0.56804E+01 SP= 0.96E+01 SK= 0.47E-01 mag=      0.000
       N       E                     dE             d eps       ncg     rms          rms(c)
DAV:   1    -0.240147721577E+03    0.24673E-02   -0.39167E-02  5704   0.183E+00    0.513E-01
RMM:   2    -0.240151421577E+03   -0.37000E-02   -0.31868E-02  4768   0.428E-01    0.440E-01
RMM:   3    -0.240152424091E+03   -0.10025E-02   -0.10884E-02  3483   0.217E-01
   1360 T=   687. E= -.22477882E+03 F= -.24015242E+03 E0= -.24015242E+03  EK= 0.55960E+01 SP= 0.97E+01 SK= 0.32E-01 mag=     -0.000
       N       E                     dE             d eps       ncg     rms          rms(c)
DAV:   1    -0.240163288787E+03   -0.11867E-01   -0.43152E-02  5896   0.184E+00    0.146E+00
RMM:   2    -0.240166201148E+03   -0.29124E-02   -0.30713E-02  4788   0.414E-01
   1361 T=   682. E= -.22475768E+03 F= -.24016620E+03 E0= -.24016620E+03  EK= 0.55534E+01 SP= 0.98E+01 SK= 0.19E-01 mag=     -0.000
       N       E                     dE             d eps       ncg     rms          rms(c)
DAV:   1    -0.240182028245E+03   -0.18739E-01   -0.91150E-02  6472   0.202E+00    0.654E-01
RMM:   2    -0.240190066670E+03   -0.80384E-02   -0.71285E-02  5020   0.575E-01    0.384E-01
RMM:   3    -0.240191666314E+03   -0.15996E-02   -0.14770E-02  3868   0.271E-01
   1362 T=   681. E= -.22473772E+03 F= -.24019167E+03 E0= -.24019167E+03  EK= 0.55420E+01 SP= 0.99E+01 SK= 0.93E-02 mag=      0.000
       N       E                     dE             d eps       ncg     rms          rms(c)
DAV:   1    -0.240219231832E+03   -0.29165E-01   -0.62763E-02  5904   0.186E+00    0.123E+00
RMM:   2    -0.240223362111E+03   -0.41303E-02   -0.35584E-02  4713   0.462E-01    0.809E-01
RMM:   3    -0.240224983353E+03   -0.16212E-02   -0.14650E-02  4195   0.240E-01
   1363 T=   681. E= -.22473124E+03 F= -.24022498E+03 E0= -.24022498E+03  EK= 0.55455E+01 SP= 0.99E+01 SK= 0.29E-02 mag=     -0.000
       N       E                     dE             d eps       ncg     rms          rms(c)
DAV:   1    -0.240258733321E+03   -0.35371E-01   -0.40137E-02  5896   0.186E+00    0.154E+00
RMM:   2    -0.240261470364E+03   -0.27370E-02   -0.37925E-02  4803   0.444E-01    0.744E-01
RMM:   3    -0.240262080800E+03   -0.61044E-03   -0.10684E-02  3741   0.217E-01
   1364 T=   684. E= -.22472618E+03 F= -.24026208E+03 E0= -.24026208E+03  EK= 0.55717E+01 SP= 0.10E+02 SK= 0.16E-03 mag=     -0.000
       N       E                     dE             d eps       ncg     rms          rms(c)
DAV:   1    -0.240294563215E+03   -0.33093E-01   -0.38326E-02  5728   0.187E+00    0.194E-01
RMM:   2    -0.240298691665E+03   -0.41284E-02   -0.39519E-02  4807   0.455E-01    0.248E-01
RMM:   3    -0.240299681596E+03   -0.98993E-03   -0.10010E-02  3379   0.216E-01
   1365 T=   690. E= -.22471703E+03 F= -.24029968E+03 E0= -.24029968E+03  EK= 0.56223E+01 SP= 0.10E+02 SK= 0.75E-03 mag=      0.000
       N       E                     dE             d eps       ncg     rms          rms(c)
DAV:   1    -0.240329109999E+03   -0.30418E-01   -0.41385E-02  5832   0.188E+00    0.932E-01
RMM:   2    -0.240331722246E+03   -0.26122E-02   -0.34454E-02  4930   0.439E-01    0.704E-01
RMM:   3    -0.240332448194E+03   -0.72595E-03   -0.13572E-02  3596   0.228E-01
   1366 T=   699. E= -.22470571E+03 F= -.24033245E+03 E0= -.24033245E+03  EK= 0.56895E+01 SP= 0.99E+01 SK= 0.42E-02 mag=     -0.000
       N       E                     dE             d eps       ncg     rms          rms(c)
DAV:   1    -0.240357944098E+03   -0.26222E-01   -0.38046E-02  5824   0.189E+00    0.145E+00
RMM:   2    -0.240356604974E+03    0.13391E-02   -0.34752E-02  4537   0.417E-01    0.739E-01
RMM:   3    -0.240356830315E+03   -0.22534E-03   -0.19484E-02  4472   0.254E-01
   1367 T=   708. E= -.22469898E+03 F= -.24035683E+03 E0= -.24035683E+03  EK= 0.57619E+01 SP= 0.99E+01 SK= 0.98E-02 mag=     -0.000
       N       E                     dE             d eps       ncg     rms          rms(c)
DAV:   1    -0.240367512667E+03   -0.10908E-01   -0.48318E-02  6080   0.194E+00    0.378E-01
RMM:   2    -0.240368144495E+03   -0.63183E-03   -0.44916E-02  4385   0.482E-01    0.275E-01
RMM:   3    -0.240368752553E+03   -0.60806E-03   -0.14541E-02  4458   0.253E-01
   1368 T=   717. E= -.22469342E+03 F= -.24036875E+03 E0= -.24036875E+03  EK= 0.58378E+01 SP= 0.98E+01 SK= 0.17E-01 mag=      0.000
       N       E                     dE             d eps       ncg     rms          rms(c)
DAV:   1    -0.240359196231E+03    0.89483E-02   -0.56276E-02  6168   0.191E+00    0.485E-01
RMM:   2    -0.240363456175E+03   -0.42599E-02   -0.42608E-02  4440   0.477E-01    0.437E-01
RMM:   3    -0.240364691927E+03   -0.12358E-02   -0.13174E-02  4345   0.246E-01
   1369 T=   727. E= -.22468415E+03 F= -.24036469E+03 E0= -.24036469E+03  EK= 0.59172E+01 SP= 0.97E+01 SK= 0.25E-01 mag=      0.000
       N       E                     dE             d eps       ncg     rms          rms(c)
DAV:   1    -0.240338600123E+03    0.24856E-01   -0.44214E-02  5808   0.191E+00    0.308E-01
RMM:   2    -0.240342008053E+03   -0.34079E-02   -0.39378E-02  4746   0.440E-01    0.157E-01
RMM:   3    -0.240343057127E+03   -0.10491E-02   -0.11160E-02  3825   0.219E-01
   1370 T=   736. E= -.22467681E+03 F= -.24034306E+03 E0= -.24034306E+03  EK= 0.59916E+01 SP= 0.96E+01 SK= 0.33E-01 mag=     -0.000
       N       E                     dE             d eps       ncg     rms          rms(c)
DAV:   1    -0.240297801828E+03    0.44206E-01   -0.47652E-02  5864   0.195E+00    0.548E-01
RMM:   2    -0.240301493946E+03   -0.36921E-02   -0.35781E-02  4698   0.420E-01    0.197E-01
RMM:   3    -0.240302357353E+03   -0.86341E-03   -0.98097E-03  3583   0.219E-01
   1371 T=   744. E= -.22467029E+03 F= -.24030236E+03 E0= -.24030236E+03  EK= 0.60590E+01 SP= 0.95E+01 SK= 0.41E-01 mag=     -0.000
       N       E                     dE             d eps       ncg     rms          rms(c)
DAV:   1    -0.240238465371E+03    0.63029E-01   -0.43686E-02  5856   0.195E+00    0.334E-01
RMM:   2    -0.240242520806E+03   -0.40554E-02   -0.36912E-02  4850   0.444E-01    0.122E-01
RMM:   3    -0.240243554288E+03   -0.10335E-02   -0.99985E-03  3558   0.214E-01
   1372 T=   752. E= -.22466188E+03 F= -.24024355E+03 E0= -.24024355E+03  EK= 0.61219E+01 SP= 0.94E+01 SK= 0.49E-01 mag=      0.000
       N       E                     dE             d eps       ncg     rms          rms(c)
DAV:   1    -0.240162191769E+03    0.80329E-01   -0.45523E-02  5864   0.193E+00    0.207E-01
RMM:   2    -0.240166097417E+03   -0.39056E-02   -0.37188E-02  4773   0.435E-01    0.216E-01
RMM:   3    -0.240167134134E+03   -0.10367E-02   -0.10209E-02  3616   0.205E-01
   1373 T=   759. E= -.22465333E+03 F= -.24016713E+03 E0= -.24016713E+03  EK= 0.61775E+01 SP= 0.93E+01 SK= 0.57E-01 mag=      0.000
       N       E                     dE             d eps       ncg     rms          rms(c)
DAV:   1    -0.240070431232E+03    0.95666E-01   -0.42678E-02  5912   0.195E+00    0.291E-01
RMM:   2    -0.240074618315E+03   -0.41871E-02   -0.37623E-02  4991   0.414E-01    0.346E-01
RMM:   3    -0.240075426051E+03   -0.80774E-03   -0.83015E-03  3256   0.188E-01
   1374 T=   765. E= -.22464590E+03 F= -.24007543E+03 E0= -.24007543E+03  EK= 0.62257E+01 SP= 0.91E+01 SK= 0.63E-01 mag=      0.000
       N       E                     dE             d eps       ncg     rms          rms(c)
DAV:   1    -0.239967881515E+03    0.10674E+00   -0.47780E-02  5952   0.208E+00    0.345E-01
RMM:   2    -0.239971843702E+03   -0.39622E-02   -0.38894E-02  4978   0.436E-01    0.326E-01
RMM:   3    -0.239972690626E+03   -0.84692E-03   -0.85229E-03  3277   0.193E-01
   1375 T=   770. E= -.22463824E+03 F= -.23997269E+03 E0= -.23997269E+03  EK= 0.62709E+01 SP= 0.90E+01 SK= 0.69E-01 mag=     -0.000
       N       E                     dE             d eps       ncg     rms          rms(c)
DAV:   1    -0.239856419660E+03    0.11542E+00   -0.43974E-02  5960   0.202E+00    0.440E-01
RMM:   2    -0.239860874165E+03   -0.44545E-02   -0.39703E-02  5063   0.426E-01    0.360E-01
RMM:   3    -0.239861885486E+03   -0.10113E-02   -0.87427E-03  3249   0.203E-01
   1376 T=   776. E= -.22462952E+03 F= -.23986189E+03 E0= -.23986189E+03  EK= 0.63159E+01 SP= 0.88E+01 SK= 0.74E-01 mag=     -0.000
       N       E                     dE             d eps       ncg     rms          rms(c)
DAV:   1    -0.239741750975E+03    0.11912E+00   -0.47789E-02  5976   0.198E+00    0.473E-01
RMM:   2    -0.239745892805E+03   -0.41418E-02   -0.38037E-02  5022   0.423E-01    0.174E-01
RMM:   3    -0.239746713244E+03   -0.82044E-03   -0.82635E-03  3179   0.204E-01
   1377 T=   781. E= -.22462170E+03 F= -.23974671E+03 E0= -.23974671E+03  EK= 0.63615E+01 SP= 0.87E+01 SK= 0.79E-01 mag=      0.000
       N       E                     dE             d eps       ncg     rms          rms(c)
DAV:   1    -0.239625581347E+03    0.12031E+00   -0.41291E-02  5480   0.199E+00    0.521E-01
RMM:   2    -0.239629701185E+03   -0.41198E-02   -0.38801E-02  5058   0.412E-01    0.175E-01
RMM:   3    -0.239630448662E+03   -0.74748E-03   -0.81016E-03  3126   0.196E-01
   1378 T=   787. E= -.22461436E+03 F= -.23963045E+03 E0= -.23963045E+03  EK= 0.64104E+01 SP= 0.85E+01 SK= 0.82E-01 mag=      0.000
       N       E                     dE             d eps       ncg     rms          rms(c)
DAV:   1    -0.239511902589E+03    0.11780E+00   -0.45718E-02  5864   0.200E+00    0.252E-01
RMM:   2    -0.239516207699E+03   -0.43051E-02   -0.40106E-02  4998   0.425E-01    0.168E-01
RMM:   3    -0.239517084271E+03   -0.87657E-03   -0.84556E-03  3250   0.193E-01
   1379 T=   794. E= -.22460650E+03 F= -.23951708E+03 E0= -.23951708E+03  EK= 0.64665E+01 SP= 0.84E+01 SK= 0.84E-01 mag=      0.000
       N       E                     dE             d eps       ncg     rms          rms(c)
DAV:   1    -0.239406024398E+03    0.11018E+00   -0.52018E-02  6072   0.201E+00    0.305E-01
RMM:   2    -0.239410478932E+03   -0.44545E-02   -0.41606E-02  5055   0.426E-01    0.339E-01
RMM:   3    -0.239411340235E+03   -0.86130E-03   -0.84785E-03  3259   0.192E-01
   1380 T=   802. E= -.22459862E+03 F= -.23941134E+03 E0= -.23941134E+03  EK= 0.65330E+01 SP= 0.82E+01 SK= 0.84E-01 mag=     -0.000
       N       E                     dE             d eps       ncg     rms          rms(c)
DAV:   1    -0.239311061698E+03    0.99417E-01   -0.55597E-02  5984   0.205E+00    0.541E-01
RMM:   2    -0.239315733149E+03   -0.46715E-02   -0.42493E-02  5003   0.444E-01    0.523E-01
RMM:   3    -0.239316557131E+03   -0.82398E-03   -0.86028E-03  3240   0.200E-01
   1381 T=   812. E= -.22459093E+03 F= -.23931656E+03 E0= -.23931656E+03  EK= 0.66116E+01 SP= 0.80E+01 SK= 0.83E-01 mag=      0.000
       N       E                     dE             d eps       ncg     rms          rms(c)
DAV:   1    -0.239230854769E+03    0.84878E-01   -0.54868E-02  6080   0.205E+00    0.214E+00
RMM:   2    -0.239234720046E+03   -0.38653E-02   -0.44915E-02  5036   0.436E-01    0.104E+00
RMM:   3    -0.239235210195E+03   -0.49015E-03   -0.97235E-03  3289   0.212E-01
   1382 T=   823. E= -.22458363E+03 F= -.23923521E+03 E0= -.23923521E+03  EK= 0.67030E+01 SP= 0.79E+01 SK= 0.79E-01 mag=      0.000
       N       E                     dE             d eps       ncg     rms          rms(c)
DAV:   1    -0.239163420516E+03    0.71300E-01   -0.60024E-02  6112   0.213E+00    0.711E-01
RMM:   2    -0.239168438137E+03   -0.50176E-02   -0.53233E-02  5059   0.479E-01    0.625E-01
RMM:   3    -0.239169125329E+03   -0.68719E-03   -0.95262E-03  3292   0.209E-01
   1383 T=   836. E= -.22457554E+03 F= -.23916913E+03 E0= -.23916913E+03  EK= 0.68080E+01 SP= 0.77E+01 SK= 0.73E-01 mag=      0.000
       N       E                     dE             d eps       ncg     rms          rms(c)
DAV:   1    -0.239116833833E+03    0.51604E-01   -0.98031E-02  6312   0.206E+00    0.134E+00
RMM:   2    -0.239118765517E+03   -0.19317E-02   -0.50097E-02  4936   0.472E-01    0.493E-01
RMM:   3    -0.239118660281E+03    0.10524E-03   -0.12420E-02  3585   0.220E-01
   1384 T=   850. E= -.22456920E+03 F= -.23911866E+03 E0= -.23911866E+03  EK= 0.69219E+01 SP= 0.76E+01 SK= 0.65E-01 mag=      0.000
       N       E                     dE             d eps       ncg     rms          rms(c)
DAV:   1    -0.239076587859E+03    0.42178E-01   -0.80970E-02  6232   0.220E+00    0.427E-01
RMM:   2    -0.239082195624E+03   -0.56078E-02   -0.67390E-02  4994   0.503E-01    0.499E-01
RMM:   3    -0.239082552947E+03   -0.35732E-03   -0.97333E-03  3425   0.216E-01
   1385 T=   865. E= -.22456447E+03 F= -.23908255E+03 E0= -.23908255E+03  EK= 0.70405E+01 SP= 0.74E+01 SK= 0.55E-01 mag=     -0.000
       N       E                     dE             d eps       ncg     rms          rms(c)
DAV:   1    -0.239054303691E+03    0.27892E-01   -0.72664E-02  6152   0.219E+00    0.113E+00
RMM:   2    -0.239054745645E+03   -0.44195E-03   -0.72482E-02  4941   0.501E-01    0.889E-01
RMM:   3    -0.239055392203E+03   -0.64656E-03   -0.16862E-02  3926   0.245E-01
   1386 T=   880. E= -.22455102E+03 F= -.23905539E+03 E0= -.23905539E+03  EK= 0.71652E+01 SP= 0.73E+01 SK= 0.44E-01 mag=     -0.000
       N       E                     dE             d eps       ncg     rms          rms(c)
DAV:   1    -0.239046026819E+03    0.87188E-02   -0.78638E-02  6184   0.209E+00    0.202E+00
RMM:   2    -0.239036632631E+03    0.93942E-02   -0.61638E-02  4876   0.483E-01    0.921E-01
RMM:   3    -0.239034997068E+03    0.16356E-02   -0.23446E-02  4193   0.269E-01
   1387 T=   893. E= -.22454367E+03 F= -.23903500E+03 E0= -.23903500E+03  EK= 0.72750E+01 SP= 0.72E+01 SK= 0.32E-01 mag=      0.000
       N       E                     dE             d eps       ncg     rms          rms(c)
DAV:   1    -0.239016096226E+03    0.20536E-01   -0.11260E-01  6680   0.230E+00    0.614E-01
RMM:   2    -0.239015997292E+03    0.98933E-04   -0.73054E-02  4935   0.554E-01    0.410E-01
RMM:   3    -0.239015333367E+03    0.66393E-03   -0.13851E-02  3781   0.247E-01
   1388 T=   904. E= -.22453840E+03 F= -.23901533E+03 E0= -.23901533E+03  EK= 0.73642E+01 SP= 0.71E+01 SK= 0.21E-01 mag=     -0.000
       N       E                     dE             d eps       ncg     rms          rms(c)
DAV:   1    -0.238981671137E+03    0.34326E-01   -0.16368E-01  6536   0.224E+00    0.548E-01
RMM:   2    -0.238988812181E+03   -0.71410E-02   -0.71213E-02  4916   0.547E-01    0.609E-01
RMM:   3    -0.238989788349E+03   -0.97617E-03   -0.11205E-02  3592   0.232E-01
   1389 T=   913. E= -.22452383E+03 F= -.23898979E+03 E0= -.23898979E+03  EK= 0.74341E+01 SP= 0.70E+01 SK= 0.11E-01 mag=     -0.000
       N       E                     dE             d eps       ncg     rms          rms(c)
DAV:   1    -0.238951336940E+03    0.37475E-01   -0.59273E-02  6080   0.214E+00    0.866E-01
RMM:   2    -0.238953511825E+03   -0.21749E-02   -0.79762E-02  4886   0.506E-01    0.712E-01
RMM:   3    -0.238954594099E+03   -0.10823E-02   -0.14213E-02  3686   0.245E-01
   1390 T=   916. E= -.22451649E+03 F= -.23895459E+03 E0= -.23895459E+03  EK= 0.74617E+01 SP= 0.70E+01 SK= 0.42E-02 mag=     -0.000
       N       E                     dE             d eps       ncg     rms          rms(c)
DAV:   1    -0.238904687923E+03    0.48824E-01   -0.56504E-02  6024   0.226E+00    0.162E+00
RMM:   2    -0.238906428704E+03   -0.17408E-02   -0.50415E-02  4831   0.473E-01    0.736E-01
RMM:   3    -0.238906538975E+03   -0.11027E-03   -0.11543E-02  3437   0.221E-01
   1391 T=   915. E= -.22450826E+03 F= -.23890654E+03 E0= -.23890654E+03  EK= 0.74508E+01 SP= 0.69E+01 SK= 0.58E-03 mag=      0.000
       N       E                     dE             d eps       ncg     rms          rms(c)
DAV:   1    -0.238836776965E+03    0.69652E-01   -0.10005E-01  6360   0.215E+00    0.589E-01
RMM:   2    -0.238842337437E+03   -0.55605E-02   -0.62729E-02  5089   0.507E-01    0.285E-01
RMM:   3    -0.238842957193E+03   -0.61976E-03   -0.10660E-02  3393   0.220E-01
   1392 T=   909. E= -.22449397E+03 F= -.23884296E+03 E0= -.23884296E+03  EK= 0.74040E+01 SP= 0.69E+01 SK= 0.24E-03 mag=      0.000
       N       E                     dE             d eps       ncg     rms          rms(c)
DAV:   1    -0.238755392612E+03    0.86945E-01   -0.69229E-02  6168   0.216E+00    0.531E-01
RMM:   2    -0.238761602097E+03   -0.62095E-02   -0.65778E-02  5034   0.487E-01    0.555E-01
RMM:   3    -0.238762681656E+03   -0.10796E-02   -0.11208E-02  3421   0.221E-01
   1393 T=   898. E= -.22448252E+03 F= -.23876268E+03 E0= -.23876268E+03  EK= 0.73129E+01 SP= 0.70E+01 SK= 0.27E-02 mag=     -0.000
       N       E                     dE             d eps       ncg     rms          rms(c)
DAV:   1    -0.238662609581E+03    0.98993E-01   -0.59557E-02  6064   0.215E+00    0.450E-01
RMM:   2    -0.238667120795E+03   -0.45112E-02   -0.54901E-02  4905   0.459E-01    0.321E-01
RMM:   3    -0.238668044559E+03   -0.92376E-03   -0.10087E-02  3365   0.210E-01
   1394 T=   883. E= -.22446988E+03 F= -.23866804E+03 E0= -.23866804E+03  EK= 0.71870E+01 SP= 0.70E+01 SK= 0.71E-02 mag=      0.000
       N       E                     dE             d eps       ncg     rms          rms(c)
DAV:   1    -0.238555811154E+03    0.11131E+00   -0.53681E-02  6016   0.210E+00    0.553E-01
RMM:   2    -0.238560815445E+03   -0.50043E-02   -0.47992E-02  4969   0.459E-01    0.253E-01
RMM:   3    -0.238561712101E+03   -0.89666E-03   -0.93362E-03  3228   0.202E-01
   1395 T=   864. E= -.22445576E+03 F= -.23856171E+03 E0= -.23856171E+03  EK= 0.70337E+01 SP= 0.71E+01 SK= 0.12E-01 mag=      0.000
       N       E                     dE             d eps       ncg     rms          rms(c)
DAV:   1    -0.238440152337E+03    0.12066E+00   -0.59349E-02  5984   0.209E+00    0.490E-01
RMM:   2    -0.238445213797E+03   -0.50615E-02   -0.47952E-02  5042   0.453E-01    0.194E-01
RMM:   3    -0.238446198259E+03   -0.98446E-03   -0.98858E-03  3238   0.201E-01
   1396 T=   842. E= -.22444365E+03 F= -.23844620E+03 E0= -.23844620E+03  EK= 0.68570E+01 SP= 0.71E+01 SK= 0.17E-01 mag=      0.000
       N       E                     dE             d eps       ncg     rms          rms(c)
DAV:   1    -0.238319343900E+03    0.12587E+00   -0.52666E-02  6000   0.206E+00    0.231E-01
RMM:   2    -0.238324171502E+03   -0.48276E-02   -0.45476E-02  5063   0.436E-01    0.210E-01
RMM:   3    -0.238325047152E+03   -0.87565E-03   -0.89733E-03  3231   0.193E-01
   1397 T=   819. E= -.22443163E+03 F= -.23832505E+03 E0= -.23832505E+03  EK= 0.66676E+01 SP= 0.72E+01 SK= 0.20E-01 mag=      0.000
       N       E                     dE             d eps       ncg     rms          rms(c)
DAV:   1    -0.238197210626E+03    0.12696E+00   -0.58521E-02  5944   0.203E+00    0.261E-01
RMM:   2    -0.238202330130E+03   -0.51195E-02   -0.48009E-02  5034   0.436E-01    0.376E-01
RMM:   3    -0.238203226132E+03   -0.89600E-03   -0.90716E-03  3260   0.195E-01
   1398 T=   795. E= -.22441894E+03 F= -.23820323E+03 E0= -.23820323E+03  EK= 0.64767E+01 SP= 0.73E+01 SK= 0.20E-01 mag=     -0.000
       N       E                     dE             d eps       ncg     rms          rms(c)
DAV:   1    -0.238081204390E+03    0.12113E+00   -0.55661E-02  5960   0.201E+00    0.433E-01
RMM:   2    -0.238085844322E+03   -0.46399E-02   -0.44341E-02  4994   0.434E-01    0.493E-01
RMM:   3    -0.238086723311E+03   -0.87899E-03   -0.89849E-03  3244   0.194E-01
   1399 T=   773. E= -.22440745E+03 F= -.23808672E+03 E0= -.23808672E+03  EK= 0.62932E+01 SP= 0.74E+01 SK= 0.19E-01 mag=     -0.000
       N       E                     dE             d eps       ncg     rms          rms(c)
DAV:   1    -0.237975313077E+03    0.11053E+00   -0.50637E-02  5920   0.200E+00    0.894E-01
RMM:   2    -0.237979748802E+03   -0.44357E-02   -0.43835E-02  5026   0.440E-01    0.763E-01
RMM:   3    -0.237980561554E+03   -0.81275E-03   -0.90665E-03  3255   0.195E-01
   1400 T=   752. E= -.22439719E+03 F= -.23798056E+03 E0= -.23798056E+03  EK= 0.61260E+01 SP= 0.74E+01 SK= 0.15E-01 mag=      0.000
       N       E                     dE             d eps       ncg     rms          rms(c)
DAV:   1    -0.237886949517E+03    0.92799E-01   -0.65977E-02  6056   0.201E+00    0.319E+00
RMM:   2    -0.237889613974E+03   -0.26645E-02   -0.42635E-02  5015   0.434E-01    0.163E+00
RMM:   3    -0.237889922822E+03   -0.30885E-03   -0.10732E-02  3341   0.211E-01
   1401 T=   735. E= -.22438816E+03 F= -.23788992E+03 E0= -.23788992E+03  EK= 0.59839E+01 SP= 0.75E+01 SK= 0.11E-01 mag=      0.000
       N       E                     dE             d eps       ncg     rms          rms(c)
DAV:   1    -0.237815747950E+03    0.73866E-01   -0.50924E-02  6008   0.197E+00    0.120E+00
RMM:   2    -0.237819401347E+03   -0.36534E-02   -0.46288E-02  5065   0.462E-01    0.952E-01
RMM:   3    -0.237819740103E+03   -0.33876E-03   -0.97003E-03  3272   0.207E-01
   1402 T=   722. E= -.22437892E+03 F= -.23781974E+03 E0= -.23781974E+03  EK= 0.58756E+01 SP= 0.76E+01 SK= 0.60E-02 mag=      0.000
       N       E                     dE             d eps       ncg     rms          rms(c)
DAV:   1    -0.237773782123E+03    0.45619E-01   -0.70141E-02  6176   0.192E+00    0.105E+00
RMM:   2    -0.237775077375E+03   -0.12953E-02   -0.41278E-02  4895   0.432E-01    0.362E-01
RMM:   3    -0.237775277967E+03   -0.20059E-03   -0.10663E-02  3411   0.201E-01
   1403 T=   713. E= -.22437124E+03 F= -.23777528E+03 E0= -.23777528E+03  EK= 0.58063E+01 SP= 0.76E+01 SK= 0.23E-02 mag=     -0.000
       N       E                     dE             d eps       ncg     rms          rms(c)
DAV:   1    -0.237755251796E+03    0.19826E-01   -0.57774E-02  6088   0.192E+00    0.270E-01
RMM:   2    -0.237759034885E+03   -0.37831E-02   -0.47600E-02  5044   0.448E-01    0.353E-01
RMM:   3    -0.237759506443E+03   -0.47156E-03   -0.78261E-03  3187   0.192E-01
   1404 T=   710. E= -.22436577E+03 F= -.23775951E+03 E0= -.23775951E+03  EK= 0.57793E+01 SP= 0.76E+01 SK= 0.29E-03 mag=      0.000
       N       E                     dE             d eps       ncg     rms          rms(c)
DAV:   1    -0.237769865641E+03   -0.10831E-01   -0.58470E-02  6064   0.191E+00    0.692E-01
RMM:   2    -0.237772015634E+03   -0.21500E-02   -0.47583E-02  4984   0.433E-01    0.613E-01
RMM:   3    -0.237772646704E+03   -0.63107E-03   -0.99007E-03  3378   0.202E-01
   1405 T=   712. E= -.22435737E+03 F= -.23777265E+03 E0= -.23777265E+03  EK= 0.58004E+01 SP= 0.76E+01 SK= 0.21E-03 mag=      0.000
       N       E                     dE             d eps       ncg     rms          rms(c)
DAV:   1    -0.237817980224E+03   -0.45965E-01   -0.54403E-02  6120   0.189E+00    0.139E+00
RMM:   2    -0.237816580893E+03    0.13993E-02   -0.40346E-02  4975   0.422E-01    0.602E-01
RMM:   3    -0.237816375220E+03    0.20567E-03   -0.12039E-02  3430   0.211E-01
   1406 T=   720. E= -.22435171E+03 F= -.23781638E+03 E0= -.23781638E+03  EK= 0.58651E+01 SP= 0.76E+01 SK= 0.20E-02 mag=     -0.000
       N       E                     dE             d eps       ncg     rms          rms(c)
DAV:   1    -0.237884622702E+03   -0.68042E-01   -0.73538E-02  6344   0.197E+00    0.503E-01
RMM:   2    -0.237888213034E+03   -0.35903E-02   -0.49861E-02  5003   0.457E-01    0.300E-01
RMM:   3    -0.237888373769E+03   -0.16073E-03   -0.83058E-03  3306   0.202E-01
   1407 T=   733. E= -.22434789E+03 F= -.23788837E+03 E0= -.23788837E+03  EK= 0.59710E+01 SP= 0.76E+01 SK= 0.49E-02 mag=     -0.000
       N       E                     dE             d eps       ncg     rms          rms(c)
DAV:   1    -0.237979114639E+03   -0.90902E-01   -0.71856E-02  6264   0.196E+00    0.429E-01
RMM:   2    -0.237983603707E+03   -0.44891E-02   -0.52830E-02  5031   0.452E-01    0.473E-01
RMM:   3    -0.237984428317E+03   -0.82461E-03   -0.89934E-03  3334   0.204E-01
   1408 T=   751. E= -.22434015E+03 F= -.23798443E+03 E0= -.23798443E+03  EK= 0.61181E+01 SP= 0.75E+01 SK= 0.82E-02 mag=     -0.000
       N       E                     dE             d eps       ncg     rms          rms(c)
DAV:   1    -0.238097931253E+03   -0.11433E+00   -0.50521E-02  5864   0.196E+00    0.507E-01
RMM:   2    -0.238100325227E+03   -0.23940E-02   -0.48128E-02  5039   0.445E-01    0.454E-01
RMM:   3    -0.238101062998E+03   -0.73777E-03   -0.95445E-03  3320   0.208E-01
   1409 T=   773. E= -.22433413E+03 F= -.23810106E+03 E0= -.23810106E+03  EK= 0.62944E+01 SP= 0.75E+01 SK= 0.11E-01 mag=     -0.000
       N       E                     dE             d eps       ncg     rms          rms(c)
DAV:   1    -0.238229371265E+03   -0.12905E+00   -0.47292E-02  6072   0.204E+00    0.859E-01
RMM:   2    -0.238233488568E+03   -0.41173E-02   -0.43181E-02  5139   0.451E-01    0.328E-01
RMM:   3    -0.238234098093E+03   -0.60952E-03   -0.81369E-03  3163   0.198E-01
   1410 T=   797. E= -.22432956E+03 F= -.23823410E+03 E0= -.23823410E+03  EK= 0.64926E+01 SP= 0.74E+01 SK= 0.12E-01 mag=     -0.000
       N       E                     dE             d eps       ncg     rms          rms(c)
DAV:   1    -0.238374126898E+03   -0.14064E+00   -0.66783E-02  6176   0.206E+00    0.603E-01
RMM:   2    -0.238378968418E+03   -0.48415E-02   -0.46759E-02  5111   0.458E-01    0.199E-01
RMM:   3    -0.238379835567E+03   -0.86715E-03   -0.92016E-03  3302   0.209E-01
   1411 T=   824. E= -.22432219E+03 F= -.23837984E+03 E0= -.23837984E+03  EK= 0.67088E+01 SP= 0.73E+01 SK= 0.11E-01 mag=      0.000
       N       E                     dE             d eps       ncg     rms          rms(c)
DAV:   1    -0.238528229273E+03   -0.14926E+00   -0.46507E-02  5832   0.209E+00    0.202E-01
RMM:   2    -0.238532490093E+03   -0.42608E-02   -0.42822E-02  5118   0.449E-01    0.251E-01
RMM:   3    -0.238533372939E+03   -0.88285E-03   -0.90928E-03  3220   0.204E-01
   1412 T=   851. E= -.22431362E+03 F= -.23853337E+03 E0= -.23853337E+03  EK= 0.69311E+01 SP= 0.73E+01 SK= 0.85E-02 mag=     -0.000
       N       E                     dE             d eps       ncg     rms          rms(c)
DAV:   1    -0.238684477224E+03   -0.15199E+00   -0.59016E-02  5968   0.214E+00    0.497E-01
RMM:   2    -0.238689336556E+03   -0.48593E-02   -0.46687E-02  5145   0.456E-01    0.483E-01
RMM:   3    -0.238690243129E+03   -0.90657E-03   -0.96608E-03  3338   0.208E-01
   1413 T=   878. E= -.22430519E+03 F= -.23869024E+03 E0= -.23869024E+03  EK= 0.71473E+01 SP= 0.72E+01 SK= 0.48E-02 mag=     -0.000
       N       E                     dE             d eps       ncg     rms          rms(c)
DAV:   1    -0.238840602107E+03   -0.15127E+00   -0.74952E-02  6216   0.218E+00    0.894E-01
RMM:   2    -0.238845466198E+03   -0.48641E-02   -0.45976E-02  5125   0.458E-01    0.323E-01
RMM:   3    -0.238846390035E+03   -0.92384E-03   -0.99049E-03  3368   0.212E-01
   1414 T=   902. E= -.22429584E+03 F= -.23884639E+03 E0= -.23884639E+03  EK= 0.73479E+01 SP= 0.72E+01 SK= 0.14E-02 mag=      0.000
       N       E                     dE             d eps       ncg     rms          rms(c)
DAV:   1    -0.238991514606E+03   -0.14605E+00   -0.66864E-02  6104   0.220E+00    0.478E-01
RMM:   2    -0.238996762488E+03   -0.52479E-02   -0.49215E-02  5127   0.473E-01    0.203E-01
RMM:   3    -0.238997727450E+03   -0.96496E-03   -0.99190E-03  3376   0.216E-01
   1415 T=   924. E= -.22428533E+03 F= -.23899773E+03 E0= -.23899773E+03  EK= 0.75222E+01 SP= 0.72E+01 SK= 0.56E-05 mag=     -0.000
       N       E                     dE             d eps       ncg     rms          rms(c)
DAV:   1    -0.239134132178E+03   -0.13737E+00   -0.58469E-02  6120   0.225E+00    0.178E-01
RMM:   2    -0.239139021221E+03   -0.48890E-02   -0.44735E-02  5122   0.465E-01    0.266E-01
RMM:   3    -0.239139994829E+03   -0.97361E-03   -0.98127E-03  3330   0.213E-01
   1416 T=   941. E= -.22427320E+03 F= -.23913999E+03 E0= -.23913999E+03  EK= 0.76604E+01 SP= 0.72E+01 SK= 0.24E-02 mag=     -0.000
       N       E                     dE             d eps       ncg     rms          rms(c)
DAV:   1    -0.239262717583E+03   -0.12370E+00   -0.59763E-02  6040   0.223E+00    0.605E-01
RMM:   2    -0.239267768399E+03   -0.50508E-02   -0.45902E-02  5168   0.473E-01    0.562E-01
RMM:   3    -0.239268735311E+03   -0.96691E-03   -0.10158E-02  3361   0.217E-01
   1417 T=   952. E= -.22426046E+03 F= -.23926874E+03 E0= -.23926874E+03  EK= 0.77521E+01 SP= 0.72E+01 SK= 0.10E-01 mag=      0.000
       N       E                     dE             d eps       ncg     rms          rms(c)
DAV:   1    -0.239375391438E+03   -0.10762E+00   -0.56969E-02  5992   0.226E+00    0.188E+00
RMM:   2    -0.239379860830E+03   -0.44694E-02   -0.44157E-02  5171   0.462E-01    0.903E-01
RMM:   3    -0.239380656874E+03   -0.79604E-03   -0.10491E-02  3366   0.219E-01
   1418 T=   957. E= -.22424825E+03 F= -.23938066E+03 E0= -.23938066E+03  EK= 0.77896E+01 SP= 0.73E+01 SK= 0.24E-01 mag=      0.000
       N       E                     dE             d eps       ncg     rms          rms(c)
DAV:   1    -0.239469100313E+03   -0.89239E-01   -0.57938E-02  5816   0.225E+00    0.494E-01
RMM:   2    -0.239474425775E+03   -0.53255E-02   -0.48961E-02  5140   0.480E-01    0.484E-01
RMM:   3    -0.239475371861E+03   -0.94609E-03   -0.10107E-02  3414   0.220E-01
   1419 T=   955. E= -.22423502E+03 F= -.23947537E+03 E0= -.23947537E+03  EK= 0.77734E+01 SP= 0.74E+01 SK= 0.45E-01 mag=      0.000
       N       E                     dE             d eps       ncg     rms          rms(c)
DAV:   1    -0.239546930188E+03   -0.72504E-01   -0.48685E-02  6000   0.221E+00    0.116E+00
RMM:   2    -0.239551229129E+03   -0.42989E-02   -0.42182E-02  5099   0.458E-01    0.890E-01
RMM:   3    -0.239551987047E+03   -0.75792E-03   -0.10319E-02  3312   0.217E-01
   1420 T=   946. E= -.22421946E+03 F= -.23955199E+03 E0= -.23955199E+03  EK= 0.77052E+01 SP= 0.76E+01 SK= 0.70E-01 mag=     -0.000
       N       E                     dE             d eps       ncg     rms          rms(c)
DAV:   1    -0.239608694790E+03   -0.57466E-01   -0.49328E-02  5888   0.218E+00    0.211E+00
RMM:   2    -0.239611248514E+03   -0.25537E-02   -0.42416E-02  5105   0.459E-01    0.106E+00
RMM:   3    -0.239611710923E+03   -0.46241E-03   -0.11870E-02  3483   0.225E-01
   1421 T=   932. E= -.22420455E+03 F= -.23961171E+03 E0= -.23961171E+03  EK= 0.75870E+01 SP= 0.77E+01 SK= 0.98E-01 mag=      0.000
       N       E                     dE             d eps       ncg     rms          rms(c)
DAV:   1    -0.239652440861E+03   -0.41192E-01   -0.51479E-02  5888   0.218E+00    0.447E-01
RMM:   2    -0.239656392338E+03   -0.39515E-02   -0.45817E-02  5075   0.466E-01    0.460E-01
RMM:   3    -0.239657041331E+03   -0.64899E-03   -0.90579E-03  3249   0.213E-01
   1422 T=   912. E= -.22418999E+03 F= -.23965704E+03 E0= -.23965704E+03  EK= 0.74272E+01 SP= 0.79E+01 SK= 0.13E+00 mag=      0.000
       N       E                     dE             d eps       ncg     rms          rms(c)
DAV:   1    -0.239684128934E+03   -0.27737E-01   -0.54263E-02  6056   0.211E+00    0.684E-01
RMM:   2    -0.239688941448E+03   -0.48125E-02   -0.44599E-02  5143   0.458E-01    0.599E-01
RMM:   3    -0.239689768157E+03   -0.82671E-03   -0.87071E-03  3184   0.203E-01
   1423 T=   889. E= -.22417391E+03 F= -.23968977E+03 E0= -.23968977E+03  EK= 0.72361E+01 SP= 0.81E+01 SK= 0.15E+00 mag=      0.000
       N       E                     dE             d eps       ncg     rms          rms(c)
DAV:   1    -0.239708165139E+03   -0.19224E-01   -0.42458E-02  5832   0.209E+00    0.117E+00
RMM:   2    -0.239712695315E+03   -0.45302E-02   -0.49607E-02  5140   0.458E-01    0.519E-01
RMM:   3    -0.239713603245E+03   -0.90793E-03   -0.99989E-03  3375   0.214E-01
   1424 T=   862. E= -.22415978E+03 F= -.23971360E+03 E0= -.23971360E+03  EK= 0.70213E+01 SP= 0.84E+01 SK= 0.18E+00 mag=     -0.000
       N       E                     dE             d eps       ncg     rms          rms(c)
DAV:   1    -0.239727949182E+03   -0.15254E-01   -0.52845E-02  5960   0.207E+00    0.385E-01
RMM:   2    -0.239732360005E+03   -0.44108E-02   -0.41519E-02  5074   0.451E-01    0.217E-01
RMM:   3    -0.239733241719E+03   -0.88171E-03   -0.91430E-03  3365   0.206E-01
   1425 T=   834. E= -.22414716E+03 F= -.23973324E+03 E0= -.23973324E+03  EK= 0.67954E+01 SP= 0.86E+01 SK= 0.19E+00 mag=      0.000
       N       E                     dE             d eps       ncg     rms          rms(c)
DAV:   1    -0.239746722715E+03   -0.14363E-01   -0.46781E-02  5840   0.201E+00    0.351E-01
RMM:   2    -0.239750842210E+03   -0.41195E-02   -0.38385E-02  5072   0.433E-01    0.391E-01
RMM:   3    -0.239751597491E+03   -0.75528E-03   -0.77378E-03  3086   0.193E-01
   1426 T=   807. E= -.22413386E+03 F= -.23975160E+03 E0= -.23975160E+03  EK= 0.65702E+01 SP= 0.89E+01 SK= 0.20E+00 mag=      0.000
       N       E                     dE             d eps       ncg     rms          rms(c)
DAV:   1    -0.239764581803E+03   -0.13740E-01   -0.37346E-02  5712   0.200E+00    0.772E-01
RMM:   2    -0.239768749362E+03   -0.41676E-02   -0.39208E-02  5177   0.430E-01    0.631E-01
RMM:   3    -0.239769443438E+03   -0.69408E-03   -0.83224E-03  3079   0.195E-01
   1427 T=   780. E= -.22412128E+03 F= -.23976944E+03 E0= -.23976944E+03  EK= 0.63508E+01 SP= 0.91E+01 SK= 0.19E+00 mag=     -0.000
       N       E                     dE             d eps       ncg     rms          rms(c)
DAV:   1    -0.239784687091E+03   -0.15938E-01   -0.48473E-02  5912   0.197E+00    0.181E+00
RMM:   2    -0.239787948975E+03   -0.32619E-02   -0.37383E-02  5166   0.429E-01    0.902E-01
RMM:   3    -0.239788485200E+03   -0.53623E-03   -0.86314E-03  3178   0.197E-01
   1428 T=   754. E= -.22411042E+03 F= -.23978849E+03 E0= -.23978849E+03  EK= 0.61431E+01 SP= 0.94E+01 SK= 0.18E+00 mag=      0.000
       N       E                     dE             d eps       ncg     rms          rms(c)
DAV:   1    -0.239805434410E+03   -0.17485E-01   -0.41352E-02  5928   0.190E+00    0.400E-01
RMM:   2    -0.239808919454E+03   -0.34850E-02   -0.33777E-02  5149   0.413E-01    0.397E-01
RMM:   3    -0.239809561378E+03   -0.64192E-03   -0.70567E-03  3032   0.182E-01
   1429 T=   731. E= -.22410036E+03 F= -.23980956E+03 E0= -.23980956E+03  EK= 0.59526E+01 SP= 0.96E+01 SK= 0.17E+00 mag=      0.000
       N       E                     dE             d eps       ncg     rms          rms(c)
DAV:   1    -0.239830720231E+03   -0.21801E-01   -0.34323E-02  5840   0.187E+00    0.661E-01
RMM:   2    -0.239833903979E+03   -0.31837E-02   -0.30539E-02  5051   0.384E-01
   1430 T=   711. E= -.22408477E+03 F= -.23983390E+03 E0= -.23983390E+03  EK= 0.57899E+01 SP= 0.98E+01 SK= 0.14E+00 mag=      0.000
       N       E                     dE             d eps       ncg     rms          rms(c)
DAV:   1    -0.239855855716E+03   -0.25135E-01   -0.64149E-02  6392   0.204E+00    0.339E-01
RMM:   2    -0.239861621973E+03   -0.57663E-02   -0.56648E-02  5237   0.510E-01    0.198E-01
RMM:   3    -0.239862809817E+03   -0.11878E-02   -0.11861E-02  3530   0.238E-01
   1431 T=   694. E= -.22407023E+03 F= -.23986281E+03 E0= -.23986281E+03  EK= 0.56515E+01 SP= 0.10E+02 SK= 0.12E+00 mag=     -0.000
       N       E                     dE             d eps       ncg     rms          rms(c)
DAV:   1    -0.239889822446E+03   -0.28200E-01   -0.44607E-02  5784   0.186E+00    0.493E-01
RMM:   2    -0.239893425133E+03   -0.36027E-02   -0.35214E-02  4835   0.439E-01    0.293E-01
RMM:   3    -0.239894572489E+03   -0.11474E-02   -0.12112E-02  3719   0.211E-01
   1432 T=   679. E= -.22406474E+03 F= -.23989457E+03 E0= -.23989457E+03  EK= 0.55294E+01 SP= 0.10E+02 SK= 0.93E-01 mag=     -0.000
       N       E                     dE             d eps       ncg     rms          rms(c)
DAV:   1    -0.239924567207E+03   -0.31142E-01   -0.40262E-02  5816   0.181E+00    0.520E-01
RMM:   2    -0.239928022916E+03   -0.34557E-02   -0.33699E-02  5056   0.411E-01    0.179E-01
RMM:   3    -0.239928682979E+03   -0.66006E-03   -0.72491E-03  3075   0.187E-01
   1433 T=   667. E= -.22406131E+03 F= -.23992868E+03 E0= -.23992868E+03  EK= 0.54312E+01 SP= 0.10E+02 SK= 0.68E-01 mag=     -0.000
       N       E                     dE             d eps       ncg     rms          rms(c)
DAV:   1    -0.239959937139E+03   -0.31914E-01   -0.36846E-02  5728   0.181E+00    0.318E-01
RMM:   2    -0.239963730768E+03   -0.37936E-02   -0.36407E-02  4993   0.418E-01    0.141E-01
RMM:   3    -0.239964500206E+03   -0.76944E-03   -0.80685E-03  3248   0.190E-01
   1434 T=   658. E= -.22405495E+03 F= -.23996450E+03 E0= -.23996450E+03  EK= 0.53618E+01 SP= 0.11E+02 SK= 0.45E-01 mag=      0.000
       N       E                     dE             d eps       ncg     rms          rms(c)
DAV:   1    -0.239996797619E+03   -0.33067E-01   -0.52108E-02  5960   0.178E+00    0.255E-01
RMM:   2    -0.240000597356E+03   -0.37997E-02   -0.35832E-02  5068   0.401E-01    0.222E-01
RMM:   3    -0.240001359161E+03   -0.76181E-03   -0.78583E-03  3174   0.186E-01
   1435 T=   653. E= -.22404813E+03 F= -.24000136E+03 E0= -.24000136E+03  EK= 0.53185E+01 SP= 0.11E+02 SK= 0.26E-01 mag=      0.000
       N       E                     dE             d eps       ncg     rms          rms(c)
DAV:   1    -0.240034675014E+03   -0.34078E-01   -0.45995E-02  5840   0.175E+00    0.310E-01
RMM:   2    -0.240038050541E+03   -0.33755E-02   -0.32071E-02  4976   0.379E-01    0.323E-01
RMM:   3    -0.240038632802E+03   -0.58226E-03   -0.62963E-03  3040   0.167E-01
   1436 T=   651. E= -.22404342E+03 F= -.24003863E+03 E0= -.24003863E+03  EK= 0.52980E+01 SP= 0.11E+02 SK= 0.12E-01 mag=     -0.000
       N       E                     dE             d eps       ncg     rms          rms(c)
DAV:   1    -0.240071007307E+03   -0.32957E-01   -0.36262E-02  5856   0.174E+00    0.250E-01
RMM:   2    -0.240074450451E+03   -0.34431E-02   -0.31905E-02  5032   0.371E-01    0.309E-01
RMM:   3    -0.240075067799E+03   -0.61735E-03   -0.64347E-03  2993   0.164E-01
   1437 T=   651. E= -.22403874E+03 F= -.24007507E+03 E0= -.24007507E+03  EK= 0.53013E+01 SP= 0.11E+02 SK= 0.31E-02 mag=     -0.000
       N       E                     dE             d eps       ncg     rms          rms(c)
DAV:   1    -0.240106634885E+03   -0.32184E-01   -0.42769E-02  5944   0.176E+00    0.563E-01
RMM:   2    -0.240109884374E+03   -0.32495E-02   -0.31899E-02  5009   0.388E-01    0.496E-01
RMM:   3    -0.240110469280E+03   -0.58491E-03   -0.66837E-03  3050   0.171E-01
   1438 T=   654. E= -.22403346E+03 F= -.24011047E+03 E0= -.24011047E+03  EK= 0.53285E+01 SP= 0.11E+02 SK= 0.11E-04 mag=      0.000
       N       E                     dE             d eps       ncg     rms          rms(c)
DAV:   1    -0.240142222742E+03   -0.32338E-01   -0.46404E-02  5808   0.187E+00    0.236E+00
RMM:   2    -0.240143733746E+03   -0.15110E-02   -0.30980E-02  5013   0.385E-01
   1439 T=   661. E= -.22402242E+03 F= -.24014373E+03 E0= -.24014373E+03  EK= 0.53834E+01 SP= 0.11E+02 SK= 0.22E-02 mag=      0.000
       N       E                     dE             d eps       ncg     rms          rms(c)
DAV:   1    -0.240165505796E+03   -0.23283E-01   -0.78980E-02  6320   0.208E+00    0.807E-01
RMM:   2    -0.240172313284E+03   -0.68075E-02   -0.72472E-02  4689   0.557E-01    0.635E-01
RMM:   3    -0.240173814457E+03   -0.15012E-02   -0.18524E-02  4893   0.295E-01
   1440 T=   670. E= -.22401079E+03 F= -.24017381E+03 E0= -.24017381E+03  EK= 0.54590E+01 SP= 0.11E+02 SK= 0.90E-02 mag=     -0.000
       N       E                     dE             d eps       ncg     rms          rms(c)
DAV:   1    -0.240201556336E+03   -0.29243E-01   -0.56946E-02  5896   0.186E+00    0.271E+00
RMM:   2    -0.240198047137E+03    0.35092E-02   -0.44732E-02  4555   0.475E-01    0.172E+00
RMM:   3    -0.240198642234E+03   -0.59510E-03   -0.24814E-02  4682   0.253E-01
   1441 T=   681. E= -.22400419E+03 F= -.24019864E+03 E0= -.24019864E+03  EK= 0.55469E+01 SP= 0.11E+02 SK= 0.19E-01 mag=     -0.000
       N       E                     dE             d eps       ncg     rms          rms(c)
DAV:   1    -0.240236940483E+03   -0.38893E-01   -0.55130E-02  6344   0.186E+00    0.315E+00
RMM:   2    -0.240220999150E+03    0.15941E-01   -0.47728E-02  4545   0.464E-01    0.165E+00
RMM:   3    -0.240218960332E+03    0.20388E-02   -0.44769E-02  4397   0.323E-01    0.492E-01
RMM:   4    -0.240219374964E+03   -0.41463E-03   -0.65856E-03  3329   0.179E-01
   1442 T=   693. E= -.22400236E+03 F= -.24021937E+03 E0= -.24021937E+03  EK= 0.56475E+01 SP= 0.11E+02 SK= 0.32E-01 mag=      0.000
       N       E                     dE             d eps       ncg     rms          rms(c)
DAV:   1    -0.240234779663E+03   -0.15819E-01   -0.40131E-02  6088   0.198E+00    0.680E-01
RMM:   2    -0.240231860330E+03    0.29193E-02   -0.56002E-02  4544   0.501E-01    0.507E-01
RMM:   3    -0.240231875784E+03   -0.15454E-04   -0.23453E-02  4786   0.275E-01
   1443 T=   708. E= -.22399602E+03 F= -.24023188E+03 E0= -.24023188E+03  EK= 0.57645E+01 SP= 0.10E+02 SK= 0.46E-01 mag=      0.000
       N       E                     dE             d eps       ncg     rms          rms(c)
DAV:   1    -0.240229142583E+03    0.27177E-02   -0.63286E-02  5984   0.189E+00    0.404E-01
RMM:   2    -0.240235001786E+03   -0.58592E-02   -0.62146E-02  4447   0.493E-01    0.352E-01
RMM:   3    -0.240236624866E+03   -0.16231E-02   -0.16835E-02  4701   0.272E-01
   1444 T=   724. E= -.22398693E+03 F= -.24023662E+03 E0= -.24023662E+03  EK= 0.58953E+01 SP= 0.10E+02 SK= 0.59E-01 mag=      0.000
       N       E                     dE             d eps       ncg     rms          rms(c)
DAV:   1    -0.240226304910E+03    0.86969E-02   -0.47108E-02  6008   0.190E+00    0.701E-01
RMM:   2    -0.240230158514E+03   -0.38536E-02   -0.43859E-02  4313   0.439E-01    0.570E-01
RMM:   3    -0.240231243392E+03   -0.10849E-02   -0.11772E-02  4256   0.229E-01
   1445 T=   740. E= -.22398027E+03 F= -.24023124E+03 E0= -.24023124E+03  EK= 0.60301E+01 SP= 0.10E+02 SK= 0.72E-01 mag=      0.000
       N       E                     dE             d eps       ncg     rms          rms(c)
DAV:   1    -0.240210993565E+03    0.19165E-01   -0.42749E-02  5824   0.192E+00    0.106E+00
RMM:   2    -0.240213433858E+03   -0.24403E-02   -0.38035E-02  4532   0.425E-01    0.481E-01
RMM:   3    -0.240214528986E+03   -0.10951E-02   -0.13019E-02  4201   0.229E-01
   1446 T=   757. E= -.22397322E+03 F= -.24021453E+03 E0= -.24021453E+03  EK= 0.61682E+01 SP= 0.10E+02 SK= 0.82E-01 mag=     -0.000
       N       E                     dE             d eps       ncg     rms          rms(c)
DAV:   1    -0.240180307947E+03    0.33126E-01   -0.47560E-02  5904   0.199E+00    0.461E-01
RMM:   2    -0.240183806571E+03   -0.34986E-02   -0.38507E-02  4697   0.446E-01    0.164E-01
RMM:   3    -0.240184985800E+03   -0.11792E-02   -0.12519E-02  4175   0.229E-01
   1447 T=   775. E= -.22396377E+03 F= -.24018499E+03 E0= -.24018499E+03  EK= 0.63074E+01 SP= 0.98E+01 SK= 0.89E-01 mag=     -0.000
       N       E                     dE             d eps       ncg     rms          rms(c)
DAV:   1    -0.240136287417E+03    0.47519E-01   -0.47514E-02  6064   0.197E+00    0.276E-01
RMM:   2    -0.240140376237E+03   -0.40888E-02   -0.38723E-02  4717   0.430E-01    0.260E-01
RMM:   3    -0.240141532661E+03   -0.11564E-02   -0.11459E-02  3865   0.222E-01
   1448 T=   791. E= -.22395274E+03 F= -.24014153E+03 E0= -.24014153E+03  EK= 0.64428E+01 SP= 0.97E+01 SK= 0.92E-01 mag=      0.000
       N       E                     dE             d eps       ncg     rms          rms(c)
DAV:   1    -0.240078419263E+03    0.61957E-01   -0.47492E-02  5968   0.200E+00    0.585E-01
RMM:   2    -0.240082509604E+03   -0.40903E-02   -0.36993E-02  4893   0.449E-01    0.481E-01
RMM:   3    -0.240083512969E+03   -0.10034E-02   -0.10631E-02  3493   0.211E-01
   1449 T=   807. E= -.22394211E+03 F= -.24008351E+03 E0= -.24008351E+03  EK= 0.65684E+01 SP= 0.95E+01 SK= 0.93E-01 mag=     -0.000
       N       E                     dE             d eps       ncg     rms          rms(c)
DAV:   1    -0.240006252076E+03    0.76258E-01   -0.49731E-02  5952   0.203E+00    0.120E+00
RMM:   2    -0.240010512579E+03   -0.42605E-02   -0.39930E-02  4997   0.435E-01    0.565E-01
RMM:   3    -0.240011523429E+03   -0.10109E-02   -0.10737E-02  3514   0.212E-01
   1450 T=   821. E= -.22393105E+03 F= -.24001152E+03 E0= -.24001152E+03  EK= 0.66823E+01 SP= 0.93E+01 SK= 0.90E-01 mag=      0.000
       N       E                     dE             d eps       ncg     rms          rms(c)
DAV:   1    -0.239920314994E+03    0.90198E-01   -0.55632E-02  5984   0.208E+00    0.304E-01
RMM:   2    -0.239925084573E+03   -0.47696E-02   -0.41135E-02  4983   0.464E-01    0.229E-01
RMM:   3    -0.239926198547E+03   -0.11140E-02   -0.10840E-02  3508   0.216E-01
   1451 T=   833. E= -.22391692E+03 F= -.23992620E+03 E0= -.23992620E+03  EK= 0.67845E+01 SP= 0.91E+01 SK= 0.84E-01 mag=      0.000
       N       E                     dE             d eps       ncg     rms          rms(c)
DAV:   1    -0.239823144639E+03    0.10194E+00   -0.42977E-02  5648   0.208E+00    0.565E-01
RMM:   2    -0.239827834557E+03   -0.46899E-02   -0.40923E-02  5029   0.443E-01    0.492E-01
RMM:   3    -0.239828824095E+03   -0.98954E-03   -0.10109E-02  3331   0.210E-01
   1452 T=   844. E= -.22390006E+03 F= -.23982882E+03 E0= -.23982882E+03  EK= 0.68728E+01 SP= 0.90E+01 SK= 0.76E-01 mag=     -0.000
       N       E                     dE             d eps       ncg     rms          rms(c)
DAV:   1    -0.239717535951E+03    0.11030E+00   -0.47547E-02  5752   0.209E+00    0.125E+00
RMM:   2    -0.239721623430E+03   -0.40875E-02   -0.41812E-02  5076   0.453E-01    0.563E-01
RMM:   3    -0.239722462932E+03   -0.83950E-03   -0.11371E-02  3383   0.219E-01
   1453 T=   853. E= -.22388373E+03 F= -.23972246E+03 E0= -.23972246E+03  EK= 0.69443E+01 SP= 0.88E+01 SK= 0.67E-01 mag=     -0.000
       N       E                     dE             d eps       ncg     rms          rms(c)
DAV:   1    -0.239603929161E+03    0.11769E+00   -0.55307E-02  5856   0.215E+00    0.244E-01
RMM:   2    -0.239609115423E+03   -0.51863E-02   -0.46069E-02  5071   0.467E-01    0.292E-01
RMM:   3    -0.239610083080E+03   -0.96766E-03   -0.10231E-02  3337   0.216E-01
   1454 T=   860. E= -.22386669E+03 F= -.23961008E+03 E0= -.23961008E+03  EK= 0.70006E+01 SP= 0.87E+01 SK= 0.57E-01 mag=      0.000
       N       E                     dE             d eps       ncg     rms          rms(c)
DAV:   1    -0.239490609618E+03    0.11851E+00   -0.53552E-02  5960   0.217E+00    0.956E-01
RMM:   2    -0.239494089690E+03   -0.34801E-02   -0.43776E-02  5113   0.475E-01    0.733E-01
RMM:   3    -0.239494918092E+03   -0.82840E-03   -0.13730E-02  3403   0.231E-01
   1455 T=   865. E= -.22384548E+03 F= -.23949492E+03 E0= -.23949492E+03  EK= 0.70465E+01 SP= 0.86E+01 SK= 0.47E-01 mag=     -0.000
       N       E                     dE             d eps       ncg     rms          rms(c)
DAV:   1    -0.239382948427E+03    0.11114E+00   -0.54268E-02  5984   0.215E+00    0.167E+00
RMM:   2    -0.239382138013E+03    0.81041E-03   -0.49038E-02  5042   0.476E-01    0.796E-01
RMM:   3    -0.239382128883E+03    0.91300E-05   -0.18963E-02  4049   0.260E-01
   1456 T=   869. E= -.22382631E+03 F= -.23938213E+03 E0= -.23938213E+03  EK= 0.70792E+01 SP= 0.84E+01 SK= 0.37E-01 mag=     -0.000
       N       E                     dE             d eps       ncg     rms          rms(c)
DAV:   1    -0.239273985978E+03    0.10815E+00   -0.83864E-02  6352   0.221E+00    0.421E-01
RMM:   2    -0.239275594993E+03   -0.16090E-02   -0.52713E-02  4801   0.527E-01    0.323E-01
RMM:   3    -0.239276150600E+03   -0.55561E-03   -0.14869E-02  4021   0.264E-01
   1457 T=   872. E= -.22380836E+03 F= -.23927615E+03 E0= -.23927615E+03  EK= 0.71030E+01 SP= 0.83E+01 SK= 0.28E-01 mag=     -0.000
       N       E                     dE             d eps       ncg     rms          rms(c)
DAV:   1    -0.239172716150E+03    0.10288E+00   -0.79094E-02  6312   0.216E+00    0.611E-01
RMM:   2    -0.239178799564E+03   -0.60834E-02   -0.54456E-02  5080   0.516E-01    0.572E-01
RMM:   3    -0.239179993671E+03   -0.11941E-02   -0.11764E-02  3433   0.233E-01
   1458 T=   875. E= -.22378523E+03 F= -.23917999E+03 E0= -.23917999E+03  EK= 0.71262E+01 SP= 0.82E+01 SK= 0.20E-01 mag=      0.000
       N       E                     dE             d eps       ncg     rms          rms(c)
DAV:   1    -0.239091530139E+03    0.87269E-01   -0.65860E-02  6056   0.216E+00    0.825E-01
RMM:   2    -0.239096482350E+03   -0.49522E-02   -0.56714E-02  5101   0.501E-01    0.321E-01
RMM:   3    -0.239097847930E+03   -0.13656E-02   -0.13732E-02  3522   0.247E-01
   1459 T=   877. E= -.22376534E+03 F= -.23909785E+03 E0= -.23909785E+03  EK= 0.71440E+01 SP= 0.82E+01 SK= 0.13E-01 mag=      0.000
       N       E                     dE             d eps       ncg     rms          rms(c)
DAV:   1    -0.239024141060E+03    0.72341E-01   -0.58426E-02  5960   0.218E+00    0.616E-01
RMM:   2    -0.239029380154E+03   -0.52391E-02   -0.48162E-02  5024   0.488E-01    0.273E-01
RMM:   3    -0.239030548729E+03   -0.11686E-02   -0.11597E-02  3443   0.233E-01
   1460 T=   879. E= -.22374759E+03 F= -.23903055E+03 E0= -.23903055E+03  EK= 0.71576E+01 SP= 0.81E+01 SK= 0.77E-02 mag=      0.000
       N       E                     dE             d eps       ncg     rms          rms(c)
DAV:   1    -0.238970786579E+03    0.58594E-01   -0.69801E-02  6040   0.218E+00    0.206E-01
RMM:   2    -0.238976293465E+03   -0.55069E-02   -0.46958E-02  5063   0.487E-01    0.209E-01
RMM:   3    -0.238977498122E+03   -0.12047E-02   -0.11422E-02  3350   0.223E-01
   1461 T=   881. E= -.22372762E+03 F= -.23897750E+03 E0= -.23897750E+03  EK= 0.71704E+01 SP= 0.81E+01 SK= 0.35E-02 mag=     -0.000
       N       E                     dE             d eps       ncg     rms          rms(c)
DAV:   1    -0.238930076998E+03    0.46216E-01   -0.50224E-02  5600   0.216E+00    0.452E-01
RMM:   2    -0.238935168376E+03   -0.50914E-02   -0.46210E-02  5118   0.468E-01    0.425E-01
RMM:   3    -0.238936282318E+03   -0.11139E-02   -0.11122E-02  3271   0.217E-01
   1462 T=   881. E= -.22370938E+03 F= -.23893628E+03 E0= -.23893628E+03  EK= 0.71755E+01 SP= 0.81E+01 SK= 0.94E-03 mag=      0.000
       N       E                     dE             d eps       ncg     rms          rms(c)
DAV:   1    -0.238897080671E+03    0.38088E-01   -0.54083E-02  5720   0.218E+00    0.101E+00
RMM:   2    -0.238902015387E+03   -0.49347E-02   -0.44118E-02  5100   0.454E-01    0.428E-01
RMM:   3    -0.238903018810E+03   -0.10034E-02   -0.10905E-02  3290   0.217E-01
   1463 T=   880. E= -.22369326E+03 F= -.23890302E+03 E0= -.23890302E+03  EK= 0.71686E+01 SP= 0.80E+01 SK= 0.42E-05 mag=      0.000
       N       E                     dE             d eps       ncg     rms          rms(c)
DAV:   1    -0.238867098504E+03    0.34917E-01   -0.54482E-02  5600   0.215E+00    0.326E-01
RMM:   2    -0.238872641036E+03   -0.55425E-02   -0.47713E-02  5127   0.465E-01    0.214E-01
RMM:   3    -0.238873713735E+03   -0.10727E-02   -0.10326E-02  3333   0.216E-01
   1464 T=   878. E= -.22367676E+03 F= -.23887371E+03 E0= -.23887371E+03  EK= 0.71482E+01 SP= 0.80E+01 SK= 0.67E-03 mag=     -0.000
       N       E                     dE             d eps       ncg     rms          rms(c)
DAV:   1    -0.238837591976E+03    0.35049E-01   -0.55325E-02  5848   0.218E+00    0.385E-01
RMM:   2    -0.238842455148E+03   -0.48632E-02   -0.44916E-02  5094   0.457E-01    0.405E-01
RMM:   3    -0.238843524165E+03   -0.10690E-02   -0.10403E-02  3300   0.214E-01
   1465 T=   873. E= -.22365925E+03 F= -.23884352E+03 E0= -.23884352E+03  EK= 0.71109E+01 SP= 0.81E+01 SK= 0.28E-02 mag=     -0.000
       N       E                     dE             d eps       ncg     rms          rms(c)
DAV:   1    -0.238804748263E+03    0.37707E-01   -0.58495E-02  6056   0.215E+00    0.873E-01
RMM:   2    -0.238809561445E+03   -0.48132E-02   -0.43464E-02  5068   0.458E-01    0.713E-01
RMM:   3    -0.238810480995E+03   -0.91955E-03   -0.10638E-02  3317   0.219E-01
   1466 T=   866. E= -.22364275E+03 F= -.23881048E+03 E0= -.23881048E+03  EK= 0.70539E+01 SP= 0.81E+01 SK= 0.60E-02 mag=      0.000
       N       E                     dE             d eps       ncg     rms          rms(c)
DAV:   1    -0.238769969889E+03    0.39592E-01   -0.52083E-02  5936   0.214E+00    0.220E+00
RMM:   2    -0.238773740078E+03   -0.37702E-02   -0.44280E-02  5122   0.457E-01    0.112E+00
RMM:   3    -0.238774381010E+03   -0.64093E-03   -0.11277E-02  3311   0.219E-01
   1467 T=   857. E= -.22362662E+03 F= -.23877438E+03 E0= -.23877438E+03  EK= 0.69795E+01 SP= 0.82E+01 SK= 0.99E-02 mag=     -0.000
       N       E                     dE             d eps       ncg     rms          rms(c)
DAV:   1    -0.238729693162E+03    0.44047E-01   -0.66651E-02  5928   0.214E+00    0.572E-01
RMM:   2    -0.238734619238E+03   -0.49261E-02   -0.47667E-02  5082   0.471E-01    0.522E-01
RMM:   3    -0.238735604421E+03   -0.98518E-03   -0.10971E-02  3453   0.221E-01
   1468 T=   846. E= -.22361054E+03 F= -.23873560E+03 E0= -.23873560E+03  EK= 0.68909E+01 SP= 0.82E+01 SK= 0.14E-01 mag=      0.000
       N       E                     dE             d eps       ncg     rms          rms(c)
DAV:   1    -0.238692020367E+03    0.42599E-01   -0.54977E-02  6128   0.209E+00    0.510E-01
RMM:   2    -0.238696314746E+03   -0.42944E-02   -0.43637E-02  5050   0.454E-01    0.165E-01
RMM:   3    -0.238697085447E+03   -0.77070E-03   -0.10017E-02  3263   0.207E-01
   1469 T=   834. E= -.22359711E+03 F= -.23869709E+03 E0= -.23869709E+03  EK= 0.67910E+01 SP= 0.83E+01 SK= 0.17E-01 mag=      0.000
       N       E                     dE             d eps       ncg     rms          rms(c)
DAV:   1    -0.238655917299E+03    0.40397E-01   -0.62943E-02  6048   0.209E+00    0.232E-01
RMM:   2    -0.238661472923E+03   -0.55556E-02   -0.52374E-02  5023   0.472E-01    0.231E-01
RMM:   3    -0.238662464324E+03   -0.99140E-03   -0.10414E-02  3454   0.218E-01
   1470 T=   821. E= -.22358518E+03 F= -.23866246E+03 E0= -.23866246E+03  EK= 0.66875E+01 SP= 0.84E+01 SK= 0.20E-01 mag=      0.000
       N       E                     dE             d eps       ncg     rms          rms(c)
DAV:   1    -0.238632241719E+03    0.29231E-01   -0.42334E-02  5688   0.211E+00    0.425E-01
RMM:   2    -0.238634974021E+03   -0.27323E-02   -0.45423E-02  5083   0.456E-01    0.408E-01
RMM:   3    -0.238635763193E+03   -0.78917E-03   -0.10315E-02  3233   0.210E-01
   1471 T=   809. E= -.22357043E+03 F= -.23863576E+03 E0= -.23863576E+03  EK= 0.65917E+01 SP= 0.85E+01 SK= 0.22E-01 mag=      0.000
       N       E                     dE             d eps       ncg     rms          rms(c)
DAV:   1    -0.238618033520E+03    0.16941E-01   -0.57384E-02  6096   0.202E+00    0.968E-01
RMM:   2    -0.238620283166E+03   -0.22496E-02   -0.39212E-02  5051   0.437E-01    0.359E-01
RMM:   3    -0.238620650509E+03   -0.36734E-03   -0.10024E-02  3256   0.205E-01
   1472 T=   799. E= -.22355755E+03 F= -.23862065E+03 E0= -.23862065E+03  EK= 0.65048E+01 SP= 0.85E+01 SK= 0.22E-01 mag=     -0.000
       N       E                     dE             d eps       ncg     rms          rms(c)
DAV:   1    -0.238613858464E+03    0.64247E-02   -0.48921E-02  5936   0.204E+00    0.390E-01
RMM:   2    -0.238618702360E+03   -0.48439E-02   -0.46462E-02  5174   0.456E-01    0.204E-01
RMM:   3    -0.238619274141E+03   -0.57178E-03   -0.78392E-03  3070   0.194E-01
   1473 T=   790. E= -.22354767E+03 F= -.23861927E+03 E0= -.23861927E+03  EK= 0.64299E+01 SP= 0.86E+01 SK= 0.21E-01 mag=     -0.000
       N       E                     dE             d eps       ncg     rms          rms(c)
DAV:   1    -0.238630251146E+03   -0.11549E-01   -0.44082E-02  5920   0.202E+00    0.299E-01
RMM:   2    -0.238633821065E+03   -0.35699E-02   -0.44128E-02  5066   0.426E-01    0.348E-01
RMM:   3    -0.238634632894E+03   -0.81183E-03   -0.84091E-03  3105   0.193E-01
   1474 T=   783. E= -.22353616E+03 F= -.23863463E+03 E0= -.23863463E+03  EK= 0.63762E+01 SP= 0.87E+01 SK= 0.20E-01 mag=     -0.000
       N       E                     dE             d eps       ncg     rms          rms(c)
DAV:   1    -0.238661983924E+03   -0.28163E-01   -0.44744E-02  5848   0.196E+00    0.284E-01
RMM:   2    -0.238665358561E+03   -0.33746E-02   -0.39796E-02  5106   0.423E-01    0.309E-01
RMM:   3    -0.238666130806E+03   -0.77225E-03   -0.84162E-03  3142   0.189E-01
   1475 T=   779. E= -.22352562E+03 F= -.23866613E+03 E0= -.23866613E+03  EK= 0.63417E+01 SP= 0.88E+01 SK= 0.18E-01 mag=     -0.000
       N       E                     dE             d eps       ncg     rms          rms(c)
DAV:   1    -0.238707802724E+03   -0.42444E-01   -0.42496E-02  5792   0.198E+00    0.266E-01
RMM:   2    -0.238711962361E+03   -0.41596E-02   -0.39677E-02  5119   0.419E-01    0.202E-01
RMM:   3    -0.238712683652E+03   -0.72129E-03   -0.72285E-03  2979   0.179E-01
   1476 T=   777. E= -.22351807E+03 F= -.23871268E+03 E0= -.23871268E+03  EK= 0.63236E+01 SP= 0.89E+01 SK= 0.16E-01 mag=      0.000
       N       E                     dE             d eps       ncg     rms          rms(c)
DAV:   1    -0.238766073805E+03   -0.54111E-01   -0.48019E-02  5816   0.200E+00    0.382E-01
RMM:   2    -0.238769983813E+03   -0.39100E-02   -0.40764E-02  5076   0.412E-01    0.152E-01
RMM:   3    -0.238770725420E+03   -0.74161E-03   -0.80307E-03  3102   0.188E-01
   1477 T=   777. E= -.22350837E+03 F= -.23877073E+03 E0= -.23877073E+03  EK= 0.63239E+01 SP= 0.89E+01 SK= 0.14E-01 mag=      0.000
       N       E                     dE             d eps       ncg     rms          rms(c)
DAV:   1    -0.238830906288E+03   -0.60922E-01   -0.49363E-02  6024   0.199E+00    0.349E-01
RMM:   2    -0.238835016138E+03   -0.41099E-02   -0.38086E-02  5065   0.419E-01    0.894E-02
RMM:   3    -0.238835808421E+03   -0.79228E-03   -0.80967E-03  3088   0.186E-01
   1478 T=   778. E= -.22349788E+03 F= -.23883581E+03 E0= -.23883581E+03  EK= 0.63365E+01 SP= 0.90E+01 SK= 0.12E-01 mag=     -0.000
       N       E                     dE             d eps       ncg     rms          rms(c)
DAV:   1    -0.238897249948E+03   -0.62234E-01   -0.41879E-02  5856   0.199E+00    0.165E-01
RMM:   2    -0.238901447885E+03   -0.41979E-02   -0.39715E-02  5092   0.414E-01    0.165E-01
RMM:   3    -0.238902230526E+03   -0.78264E-03   -0.78721E-03  3076   0.183E-01
   1479 T=   780. E= -.22348879E+03 F= -.23890223E+03 E0= -.23890223E+03  EK= 0.63532E+01 SP= 0.90E+01 SK= 0.11E-01 mag=     -0.000
       N       E                     dE             d eps       ncg     rms          rms(c)
DAV:   1    -0.238959466701E+03   -0.58019E-01   -0.44735E-02  5816   0.202E+00    0.193E-01
RMM:   2    -0.238963724544E+03   -0.42578E-02   -0.39598E-02  5033   0.413E-01    0.259E-01
RMM:   3    -0.238964524314E+03   -0.79977E-03   -0.80088E-03  3088   0.184E-01
   1480 T=   782. E= -.22347878E+03 F= -.23896452E+03 E0= -.23896452E+03  EK= 0.63704E+01 SP= 0.91E+01 SK= 0.93E-02 mag=      0.000
       N       E                     dE             d eps       ncg     rms          rms(c)
DAV:   1    -0.239012797571E+03   -0.49073E-01   -0.48259E-02  5872   0.202E+00    0.273E-01
RMM:   2    -0.239017153771E+03   -0.43562E-02   -0.39948E-02  5078   0.421E-01    0.322E-01
RMM:   3    -0.239018004550E+03   -0.85078E-03   -0.84928E-03  3132   0.186E-01
   1481 T=   784. E= -.22346822E+03 F= -.23901800E+03 E0= -.23901800E+03  EK= 0.63827E+01 SP= 0.92E+01 SK= 0.82E-02 mag=      0.000
       N       E                     dE             d eps       ncg     rms          rms(c)
DAV:   1    -0.239052167058E+03   -0.35013E-01   -0.45318E-02  5856   0.203E+00    0.388E-01
RMM:   2    -0.239056655810E+03   -0.44888E-02   -0.41421E-02  5060   0.420E-01    0.393E-01
RMM:   3    -0.239057497749E+03   -0.84194E-03   -0.85549E-03  3166   0.187E-01
   1482 T=   784. E= -.22345829E+03 F= -.23905750E+03 E0= -.23905750E+03  EK= 0.63836E+01 SP= 0.92E+01 SK= 0.72E-02 mag=      0.000
       N       E                     dE             d eps       ncg     rms          rms(c)
DAV:   1    -0.239076219918E+03   -0.19564E-01   -0.45314E-02  5848   0.204E+00    0.917E-01
RMM:   2    -0.239080517372E+03   -0.42975E-02   -0.40641E-02  5053   0.434E-01    0.740E-01
RMM:   3    -0.239081288866E+03   -0.77149E-03   -0.86568E-03  3158   0.194E-01
   1483 T=   782. E= -.22344881E+03 F= -.23908129E+03 E0= -.23908129E+03  EK= 0.63715E+01 SP= 0.93E+01 SK= 0.62E-02 mag=     -0.000
       N       E                     dE             d eps       ncg     rms          rms(c)
DAV:   1    -0.239085469968E+03   -0.49526E-02   -0.51429E-02  6008   0.212E+00    0.306E+00
RMM:   2    -0.239087751114E+03   -0.22811E-02   -0.42542E-02  5011   0.433E-01    0.158E+00
RMM:   3    -0.239087735986E+03    0.15128E-04   -0.14009E-02  3666   0.223E-01
   1484 T=   780. E= -.22343684E+03 F= -.23908774E+03 E0= -.23908774E+03  EK= 0.63481E+01 SP= 0.93E+01 SK= 0.52E-02 mag=      0.000
       N       E                     dE             d eps       ncg     rms          rms(c)
DAV:   1    -0.239073109115E+03    0.14642E-01   -0.72127E-02  6080   0.210E+00    0.120E+00
RMM:   2    -0.239076443672E+03   -0.33346E-02   -0.52559E-02  5065   0.487E-01    0.994E-01
RMM:   3    -0.239076305862E+03    0.13781E-03   -0.13898E-02  3845   0.234E-01
   1485 T=   775. E= -.22342356E+03 F= -.23907631E+03 E0= -.23907631E+03  EK= 0.63123E+01 SP= 0.93E+01 SK= 0.41E-02 mag=     -0.000
       N       E                     dE             d eps       ncg     rms          rms(c)
DAV:   1    -0.239051427786E+03    0.25016E-01   -0.78345E-02  6120   0.209E+00    0.104E+00
RMM:   2    -0.239051009593E+03    0.41819E-03   -0.50425E-02  4843   0.467E-01    0.375E-01
RMM:   3    -0.239050797571E+03    0.21202E-03   -0.14593E-02  3843   0.228E-01
   1486 T=   769. E= -.22341240E+03 F= -.23905080E+03 E0= -.23905080E+03  EK= 0.62654E+01 SP= 0.94E+01 SK= 0.29E-02 mag=     -0.000
       N       E                     dE             d eps       ncg     rms          rms(c)
DAV:   1    -0.239010395575E+03    0.40614E-01   -0.93759E-02  6248   0.205E+00    0.399E-01
RMM:   2    -0.239013557591E+03   -0.31620E-02   -0.54064E-02  4816   0.486E-01    0.314E-01
RMM:   3    -0.239013944821E+03   -0.38723E-03   -0.10719E-02  3537   0.220E-01
   1487 T=   763. E= -.22340207E+03 F= -.23901394E+03 E0= -.23901394E+03  EK= 0.62125E+01 SP= 0.94E+01 SK= 0.18E-02 mag=      0.000
       N       E                     dE             d eps       ncg     rms          rms(c)
DAV:   1    -0.238964568998E+03    0.48989E-01   -0.62717E-02  5968   0.203E+00    0.397E-01
RMM:   2    -0.238969024630E+03   -0.44556E-02   -0.57450E-02  4945   0.480E-01    0.449E-01
RMM:   3    -0.238970052190E+03   -0.10276E-02   -0.10733E-02  3416   0.218E-01
   1488 T=   757. E= -.22338993E+03 F= -.23897005E+03 E0= -.23897005E+03  EK= 0.61616E+01 SP= 0.94E+01 SK= 0.77E-03 mag=      0.000
       N       E                     dE             d eps       ncg     rms          rms(c)
DAV:   1    -0.238922746446E+03    0.46278E-01   -0.45706E-02  5888   0.201E+00    0.382E-01
RMM:   2    -0.238924790794E+03   -0.20443E-02   -0.48075E-02  4919   0.443E-01    0.329E-01
RMM:   3    -0.238925600482E+03   -0.80969E-03   -0.10333E-02  3368   0.212E-01
   1489 T=   751. E= -.22337747E+03 F= -.23892560E+03 E0= -.23892560E+03  EK= 0.61189E+01 SP= 0.94E+01 SK= 0.13E-03 mag=      0.000
       N       E                     dE             d eps       ncg     rms          rms(c)
DAV:   1    -0.238879668722E+03    0.45122E-01   -0.53437E-02  5960   0.200E+00    0.633E-01
RMM:   2    -0.238884120228E+03   -0.44515E-02   -0.42291E-02  5068   0.441E-01    0.202E-01
RMM:   3    -0.238884834097E+03   -0.71387E-03   -0.80988E-03  3153   0.194E-01
   1490 T=   747. E= -.22336716E+03 F= -.23888483E+03 E0= -.23888483E+03  EK= 0.60869E+01 SP= 0.94E+01 SK= 0.42E-04 mag=     -0.000
       N       E                     dE             d eps       ncg     rms          rms(c)
DAV:   1    -0.238846665404E+03    0.37455E-01   -0.55749E-02  5976   0.199E+00    0.527E-01
RMM:   2    -0.238851181625E+03   -0.45162E-02   -0.44852E-02  5030   0.439E-01    0.140E-01
RMM:   3    -0.238852011397E+03   -0.82977E-03   -0.85066E-03  3157   0.196E-01
   1491 T=   746. E= -.22335726E+03 F= -.23885201E+03 E0= -.23885201E+03  EK= 0.60723E+01 SP= 0.94E+01 SK= 0.64E-03 mag=     -0.000
       N       E                     dE             d eps       ncg     rms          rms(c)
DAV:   1    -0.238826136161E+03    0.25045E-01   -0.52063E-02  5992   0.196E+00    0.165E-01
RMM:   2    -0.238830208485E+03   -0.40723E-02   -0.39131E-02  5045   0.423E-01    0.194E-01
RMM:   3    -0.238831042526E+03   -0.83404E-03   -0.83933E-03  3170   0.190E-01
   1492 T=   747. E= -.22334658E+03 F= -.23883104E+03 E0= -.23883104E+03  EK= 0.60806E+01 SP= 0.94E+01 SK= 0.20E-02 mag=      0.000
       N       E                     dE             d eps       ncg     rms          rms(c)
DAV:   1    -0.238818153308E+03    0.12055E-01   -0.46045E-02  5904   0.197E+00    0.364E-01
RMM:   2    -0.238822567895E+03   -0.44146E-02   -0.39031E-02  5057   0.422E-01    0.392E-01
RMM:   3    -0.238823368038E+03   -0.80014E-03   -0.79278E-03  3092   0.185E-01
   1493 T=   750. E= -.22333661E+03 F= -.23882337E+03 E0= -.23882337E+03  EK= 0.61115E+01 SP= 0.94E+01 SK= 0.39E-02 mag=      0.000
       N       E                     dE             d eps       ncg     rms          rms(c)
DAV:   1    -0.238823770107E+03   -0.12022E-02   -0.41666E-02  5992   0.198E+00    0.493E-01
RMM:   2    -0.238828010343E+03   -0.42402E-02   -0.38753E-02  5051   0.415E-01    0.474E-01
RMM:   3    -0.238828799913E+03   -0.78957E-03   -0.82684E-03  3106   0.188E-01
   1494 T=   757. E= -.22332709E+03 F= -.23882880E+03 E0= -.23882880E+03  EK= 0.61646E+01 SP= 0.93E+01 SK= 0.63E-02 mag=      0.000
       N       E                     dE             d eps       ncg     rms          rms(c)
DAV:   1    -0.238842572505E+03   -0.14562E-01   -0.56121E-02  6160   0.198E+00    0.163E+00
RMM:   2    -0.238846489560E+03   -0.39171E-02   -0.39057E-02  5089   0.421E-01    0.757E-01
RMM:   3    -0.238847109234E+03   -0.61967E-03   -0.91837E-03  3168   0.195E-01
   1495 T=   766. E= -.22331937E+03 F= -.23884711E+03 E0= -.23884711E+03  EK= 0.62375E+01 SP= 0.93E+01 SK= 0.86E-02 mag=     -0.000
       N       E                     dE             d eps       ncg     rms          rms(c)
DAV:   1    -0.238871799459E+03   -0.25310E-01   -0.63039E-02  6072   0.203E+00    0.339E-01
RMM:   2    -0.238876832923E+03   -0.50335E-02   -0.45764E-02  5059   0.452E-01    0.371E-01
RMM:   3    -0.238877616276E+03   -0.78335E-03   -0.88105E-03  3211   0.198E-01
   1496 T=   777. E= -.22331144E+03 F= -.23887762E+03 E0= -.23887762E+03  EK= 0.63300E+01 SP= 0.92E+01 SK= 0.11E-01 mag=     -0.000
       N       E                     dE             d eps       ncg     rms          rms(c)
DAV:   1    -0.238914503061E+03   -0.37670E-01   -0.60905E-02  6080   0.206E+00    0.131E+00
RMM:   2    -0.238918207884E+03   -0.37048E-02   -0.48815E-02  5035   0.457E-01    0.982E-01
RMM:   3    -0.238918859792E+03   -0.65191E-03   -0.13444E-02  3411   0.222E-01
   1497 T=   791. E= -.22329711E+03 F= -.23891886E+03 E0= -.23891886E+03  EK= 0.64450E+01 SP= 0.92E+01 SK= 0.12E-01 mag=      0.000
       N       E                     dE             d eps       ncg     rms          rms(c)
DAV:   1    -0.238972340731E+03   -0.54133E-01   -0.79664E-02  6224   0.201E+00    0.214E+00
RMM:   2    -0.238970732701E+03    0.16080E-02   -0.50108E-02  4859   0.458E-01    0.104E+00
RMM:   3    -0.238970617159E+03    0.11554E-03   -0.20421E-02  4215   0.255E-01
   1498 T=   807. E= -.22328692E+03 F= -.23897062E+03 E0= -.23897062E+03  EK= 0.65691E+01 SP= 0.91E+01 SK= 0.12E-01 mag=      0.000
       N       E                     dE             d eps       ncg     rms          rms(c)
DAV:   1    -0.239030665325E+03   -0.59933E-01   -0.69467E-02  6192   0.215E+00    0.481E-01
RMM:   2    -0.239031003515E+03   -0.33819E-03   -0.55469E-02  4564   0.521E-01    0.383E-01
RMM:   3    -0.239031522181E+03   -0.51867E-03   -0.18032E-02  4403   0.272E-01
   1499 T=   823. E= -.22327878E+03 F= -.23903152E+03 E0= -.23903152E+03  EK= 0.67002E+01 SP= 0.90E+01 SK= 0.11E-01 mag=     -0.000
       N       E                     dE             d eps       ncg     rms          rms(c)
DAV:   1    -0.239093045438E+03   -0.62042E-01   -0.95033E-02  6424   0.211E+00    0.722E-01
RMM:   2    -0.239098841508E+03   -0.57961E-02   -0.52698E-02  4807   0.503E-01    0.638E-01
RMM:   3    -0.239100022860E+03   -0.11814E-02   -0.12352E-02  3737   0.237E-01
   1500 T=   840. E= -.22326301E+03 F= -.23910002E+03 E0= -.23910002E+03  EK= 0.68431E+01 SP= 0.90E+01 SK= 0.85E-02 mag=      0.000
       N       E                     dE             d eps       ncg     rms          rms(c)
DAV:   1    -0.239168727157E+03   -0.69886E-01   -0.56186E-02  5880   0.212E+00    0.118E+00
RMM:   2    -0.239173566765E+03   -0.48396E-02   -0.52927E-02  4975   0.485E-01    0.504E-01
RMM:   3    -0.239174677191E+03   -0.11104E-02   -0.12360E-02  3492   0.230E-01
   1501 T=   857. E= -.22325176E+03 F= -.23917468E+03 E0= -.23917468E+03  EK= 0.69801E+01 SP= 0.89E+01 SK= 0.56E-02 mag=      0.000
       N       E                     dE             d eps       ncg     rms          rms(c)
DAV:   1    -0.239246944951E+03   -0.73378E-01   -0.47496E-02  5872   0.218E+00    0.459E-01
RMM:   2    -0.239251741419E+03   -0.47965E-02   -0.44789E-02  4793   0.475E-01    0.231E-01
RMM:   3    -0.239252869621E+03   -0.11282E-02   -0.11633E-02  3678   0.228E-01
   1502 T=   873. E= -.22324179E+03 F= -.23925287E+03 E0= -.23925287E+03  EK= 0.71080E+01 SP= 0.89E+01 SK= 0.27E-02 mag=     -0.000
       N       E                     dE             d eps       ncg     rms          rms(c)
DAV:   1    -0.239325208093E+03   -0.73467E-01   -0.57328E-02  6064   0.219E+00    0.316E-01
RMM:   2    -0.239330348324E+03   -0.51402E-02   -0.44170E-02  4954   0.472E-01    0.357E-01
RMM:   3    -0.239331427125E+03   -0.10788E-02   -0.10413E-02  3332   0.215E-01
   1503 T=   887. E= -.22322546E+03 F= -.23933143E+03 E0= -.23933143E+03  EK= 0.72272E+01 SP= 0.89E+01 SK= 0.56E-03 mag=     -0.000
       N       E                     dE             d eps       ncg     rms          rms(c)
DAV:   1    -0.239399484768E+03   -0.69136E-01   -0.47526E-02  5872   0.218E+00    0.701E-01
RMM:   2    -0.239404452739E+03   -0.49680E-02   -0.44849E-02  4990   0.465E-01    0.607E-01
RMM:   3    -0.239405509141E+03   -0.10564E-02   -0.11740E-02  3333   0.219E-01
   1504 T=   899. E= -.22321085E+03 F= -.23940551E+03 E0= -.23940551E+03  EK= 0.73210E+01 SP= 0.89E+01 SK= 0.89E-04 mag=     -0.000
       N       E                     dE             d eps       ncg     rms          rms(c)
DAV:   1    -0.239464514788E+03   -0.60062E-01   -0.53722E-02  5808   0.224E+00    0.170E+00
RMM:   2    -0.239468765297E+03   -0.42505E-02   -0.44901E-02  5030   0.459E-01    0.811E-01
RMM:   3    -0.239469391817E+03   -0.62652E-03   -0.11107E-02  3321   0.216E-01
   1505 T=   906. E= -.22319744E+03 F= -.23946939E+03 E0= -.23946939E+03  EK= 0.73809E+01 SP= 0.89E+01 SK= 0.21E-02 mag=     -0.000
       N       E                     dE             d eps       ncg     rms          rms(c)
DAV:   1    -0.239511383736E+03   -0.42618E-01   -0.56803E-02  6096   0.220E+00    0.326E-01
RMM:   2    -0.239516400602E+03   -0.50169E-02   -0.46365E-02  4990   0.464E-01    0.358E-01
RMM:   3    -0.239517314151E+03   -0.91355E-03   -0.97266E-03  3241   0.211E-01
   1506 T=   909. E= -.22318083E+03 F= -.23951731E+03 E0= -.23951731E+03  EK= 0.74038E+01 SP= 0.89E+01 SK= 0.71E-02 mag=      0.000
       N       E                     dE             d eps       ncg     rms          rms(c)
DAV:   1    -0.239539637561E+03   -0.23237E-01   -0.46193E-02  5736   0.218E+00    0.107E+00
RMM:   2    -0.239544240084E+03   -0.46025E-02   -0.48382E-02  5015   0.461E-01    0.830E-01
RMM:   3    -0.239545088869E+03   -0.84878E-03   -0.12162E-02  3338   0.222E-01
   1507 T=   906. E= -.22316656E+03 F= -.23954509E+03 E0= -.23954509E+03  EK= 0.73794E+01 SP= 0.90E+01 SK= 0.15E-01 mag=      0.000
       N       E                     dE             d eps       ncg     rms          rms(c)
DAV:   1    -0.239550320662E+03   -0.60806E-02   -0.48163E-02  5792   0.223E+00    0.179E+00
RMM:   2    -0.239551962620E+03   -0.16420E-02   -0.47566E-02  4918   0.465E-01    0.872E-01
RMM:   3    -0.239552137883E+03   -0.17526E-03   -0.15661E-02  3769   0.242E-01
   1508 T=   898. E= -.22315022E+03 F= -.23955214E+03 E0= -.23955214E+03  EK= 0.73127E+01 SP= 0.91E+01 SK= 0.25E-01 mag=     -0.000
       N       E                     dE             d eps       ncg     rms          rms(c)
DAV:   1    -0.239534459038E+03    0.17504E-01   -0.77515E-02  6216   0.218E+00    0.364E-01
RMM:   2    -0.239537631050E+03   -0.31720E-02   -0.51139E-02  4771   0.494E-01    0.347E-01
RMM:   3    -0.239538290603E+03   -0.65955E-03   -0.11547E-02  3598   0.234E-01
   1509 T=   885. E= -.22313180E+03 F= -.23953829E+03 E0= -.23953829E+03  EK= 0.72064E+01 SP= 0.92E+01 SK= 0.36E-01 mag=     -0.000
       N       E                     dE             d eps       ncg     rms          rms(c)
DAV:   1    -0.239499308631E+03    0.38322E-01   -0.63725E-02  6088   0.216E+00    0.683E-01
RMM:   2    -0.239505234269E+03   -0.59256E-02   -0.57411E-02  4967   0.495E-01    0.649E-01
RMM:   3    -0.239506309230E+03   -0.10750E-02   -0.10890E-02  3417   0.221E-01
   1510 T=   867. E= -.22311537E+03 F= -.23950631E+03 E0= -.23950631E+03  EK= 0.70632E+01 SP= 0.93E+01 SK= 0.47E-01 mag=      0.000
       N       E                     dE             d eps       ncg     rms          rms(c)
DAV:   1    -0.239458939367E+03    0.46295E-01   -0.63121E-02  6056   0.214E+00    0.130E+00
RMM:   2    -0.239463596450E+03   -0.46571E-02   -0.54505E-02  4965   0.481E-01    0.549E-01
RMM:   3    -0.239464701703E+03   -0.11053E-02   -0.12694E-02  3554   0.234E-01
   1511 T=   847. E= -.22309959E+03 F= -.23946470E+03 E0= -.23946470E+03  EK= 0.68979E+01 SP= 0.94E+01 SK= 0.57E-01 mag=      0.000
       N       E                     dE             d eps       ncg     rms          rms(c)
DAV:   1    -0.239413656023E+03    0.49940E-01   -0.72310E-02  6016   0.212E+00    0.479E-01
RMM:   2    -0.239419039201E+03   -0.53832E-02   -0.50366E-02  4901   0.478E-01    0.272E-01
RMM:   3    -0.239420116046E+03   -0.10768E-02   -0.10965E-02  3601   0.220E-01
   1512 T=   825. E= -.22308472E+03 F= -.23942012E+03 E0= -.23942012E+03  EK= 0.67223E+01 SP= 0.96E+01 SK= 0.63E-01 mag=      0.000
       N       E                     dE             d eps       ncg     rms          rms(c)
DAV:   1    -0.239375436410E+03    0.43603E-01   -0.50167E-02  5992   0.206E+00    0.392E-01
RMM:   2    -0.239380199173E+03   -0.47628E-02   -0.43558E-02  4910   0.456E-01    0.432E-01
RMM:   3    -0.239381174773E+03   -0.97560E-03   -0.96022E-03  3215   0.206E-01
   1513 T=   804. E= -.22306991E+03 F= -.23938117E+03 E0= -.23938117E+03  EK= 0.65507E+01 SP= 0.97E+01 SK= 0.66E-01 mag=     -0.000
       N       E                     dE             d eps       ncg     rms          rms(c)
DAV:   1    -0.239349235766E+03    0.30963E-01   -0.52177E-02  5888   0.205E+00    0.931E-01
RMM:   2    -0.239353608313E+03   -0.43725E-02   -0.42934E-02  5023   0.448E-01    0.741E-01
RMM:   3    -0.239354456379E+03   -0.84807E-03   -0.11526E-02  3302   0.217E-01
   1514 T=   785. E= -.22305537E+03 F= -.23935446E+03 E0= -.23935446E+03  EK= 0.63939E+01 SP= 0.98E+01 SK= 0.65E-01 mag=      0.000
       N       E                     dE             d eps       ncg     rms          rms(c)
DAV:   1    -0.239341281128E+03    0.12327E-01   -0.48174E-02  6080   0.203E+00    0.203E+00
RMM:   2    -0.239344069754E+03   -0.27886E-02   -0.40555E-02  4992   0.441E-01    0.104E+00
RMM:   3    -0.239344364538E+03   -0.29478E-03   -0.11309E-02  3433   0.223E-01
   1515 T=   768. E= -.22304261E+03 F= -.23934436E+03 E0= -.23934436E+03  EK= 0.62580E+01 SP= 0.10E+02 SK= 0.61E-01 mag=      0.000
       N       E                     dE             d eps       ncg     rms          rms(c)
DAV:   1    -0.239349133961E+03   -0.50642E-02   -0.60101E-02  6024   0.205E+00    0.437E-01
RMM:   2    -0.239353079755E+03   -0.39458E-02   -0.43642E-02  4794   0.480E-01    0.431E-01
RMM:   3    -0.239354013468E+03   -0.93371E-03   -0.10951E-02  3662   0.228E-01
   1516 T=   755. E= -.22302979E+03 F= -.23935401E+03 E0= -.23935401E+03  EK= 0.61506E+01 SP= 0.10E+02 SK= 0.54E-01 mag=     -0.000
       N       E                     dE             d eps       ncg     rms          rms(c)
DAV:   1    -0.239377056041E+03   -0.23976E-01   -0.45659E-02  5904   0.201E+00    0.103E+00
RMM:   2    -0.239381128170E+03   -0.40721E-02   -0.41887E-02  4966   0.454E-01    0.770E-01
RMM:   3    -0.239381786611E+03   -0.65844E-03   -0.10945E-02  3300   0.230E-01
   1517 T=   746. E= -.22301621E+03 F= -.23938179E+03 E0= -.23938179E+03  EK= 0.60725E+01 SP= 0.10E+02 SK= 0.46E-01 mag=      0.000
       N       E                     dE             d eps       ncg     rms          rms(c)
DAV:   1    -0.239423329742E+03   -0.42202E-01   -0.50428E-02  5912   0.203E+00    0.162E+00
RMM:   2    -0.239425475647E+03   -0.21459E-02   -0.41975E-02  4801   0.474E-01    0.822E-01
RMM:   3    -0.239425910008E+03   -0.43436E-03   -0.14960E-02  4008   0.268E-01
   1518 T=   739. E= -.22300314E+03 F= -.23942591E+03 E0= -.23942591E+03  EK= 0.60216E+01 SP= 0.10E+02 SK= 0.38E-01 mag=      0.000
       N       E                     dE             d eps       ncg     rms          rms(c)
DAV:   1    -0.239478243602E+03   -0.52768E-01   -0.53164E-02  6048   0.208E+00    0.329E-01
RMM:   2    -0.239482162196E+03   -0.39186E-02   -0.46828E-02  4489   0.534E-01    0.300E-01
RMM:   3    -0.239483399405E+03   -0.12372E-02   -0.14313E-02  4318   0.267E-01
   1519 T=   736. E= -.22299004E+03 F= -.23948340E+03 E0= -.23948340E+03  EK= 0.59960E+01 SP= 0.10E+02 SK= 0.30E-01 mag=     -0.000
       N       E                     dE             d eps       ncg     rms          rms(c)
DAV:   1    -0.239543349416E+03   -0.61187E-01   -0.49360E-02  6008   0.206E+00    0.884E-01
RMM:   2    -0.239547319972E+03   -0.39706E-02   -0.42912E-02  4725   0.483E-01    0.672E-01
RMM:   3    -0.239547833416E+03   -0.51344E-03   -0.14420E-02  3829   0.289E-01
   1520 T=   736. E= -.22297557E+03 F= -.23954783E+03 E0= -.23954783E+03  EK= 0.59907E+01 SP= 0.11E+02 SK= 0.22E-01 mag=     -0.000
       N       E                     dE             d eps       ncg     rms          rms(c)
DAV:   1    -0.239614370780E+03   -0.67051E-01   -0.53843E-02  5856   0.206E+00    0.148E+00
RMM:   2    -0.239616321159E+03   -0.19504E-02   -0.45403E-02  4634   0.495E-01    0.672E-01
RMM:   3    -0.239616356267E+03   -0.35108E-04   -0.17966E-02  4103   0.335E-01
   1521 T=   737. E= -.22296105E+03 F= -.23961636E+03 E0= -.23961636E+03  EK= 0.60015E+01 SP= 0.11E+02 SK= 0.16E-01 mag=      0.000
       N       E                     dE             d eps       ncg     rms          rms(c)
DAV:   1    -0.239679241928E+03   -0.62921E-01   -0.77401E-02  5816   0.218E+00    0.420E-01
RMM:   2    -0.239684230650E+03   -0.49887E-02   -0.57460E-02  4570   0.583E-01    0.260E-01
RMM:   3    -0.239686071045E+03   -0.18404E-02   -0.19232E-02  4602   0.317E-01
   1522 T=   740. E= -.22294770E+03 F= -.23968607E+03 E0= -.23968607E+03  EK= 0.60238E+01 SP= 0.11E+02 SK= 0.11E-01 mag=     -0.000
       N       E                     dE             d eps       ncg     rms          rms(c)
DAV:   1    -0.239745129496E+03   -0.60899E-01   -0.59708E-02  5920   0.213E+00    0.780E-01
RMM:   2    -0.239749816037E+03   -0.46865E-02   -0.51379E-02  4822   0.526E-01    0.662E-01
RMM:   3    -0.239751283763E+03   -0.14677E-02   -0.17792E-02  4093   0.300E-01
   1523 T=   743. E= -.22293442E+03 F= -.23975128E+03 E0= -.23975128E+03  EK= 0.60525E+01 SP= 0.11E+02 SK= 0.72E-02 mag=     -0.000
       N       E                     dE             d eps       ncg     rms          rms(c)
DAV:   1    -0.239808155897E+03   -0.58340E-01   -0.53091E-02  5936   0.210E+00    0.147E+00
RMM:   2    -0.239810044890E+03   -0.18890E-02   -0.45072E-02  4626   0.501E-01    0.663E-01
RMM:   3    -0.239810524164E+03   -0.47927E-03   -0.20011E-02  4289   0.336E-01
   1524 T=   747. E= -.22292161E+03 F= -.23981052E+03 E0= -.23981052E+03  EK= 0.60851E+01 SP= 0.11E+02 SK= 0.43E-02 mag=     -0.000
       N       E                     dE             d eps       ncg     rms          rms(c)
DAV:   1    -0.239856200326E+03   -0.46155E-01   -0.78239E-02  6096   0.217E+00    0.440E-01
RMM:   2    -0.239861193977E+03   -0.49937E-02   -0.60627E-02  4526   0.602E-01    0.268E-01
RMM:   3    -0.239862840085E+03   -0.16461E-02   -0.18826E-02  4537   0.306E-01
   1525 T=   752. E= -.22290925E+03 F= -.23986284E+03 E0= -.23986284E+03  EK= 0.61201E+01 SP= 0.11E+02 SK= 0.22E-02 mag=      0.000
       N       E                     dE             d eps       ncg     rms          rms(c)
DAV:   1    -0.239898726843E+03   -0.37533E-01   -0.73233E-02  6008   0.210E+00    0.731E-01
RMM:   2    -0.239903560583E+03   -0.48337E-02   -0.52750E-02  4755   0.546E-01    0.660E-01
RMM:   3    -0.239905076855E+03   -0.15163E-02   -0.17192E-02  4215   0.280E-01
   1526 T=   756. E= -.22289562E+03 F= -.23990508E+03 E0= -.23990508E+03  EK= 0.61553E+01 SP= 0.11E+02 SK= 0.96E-03 mag=      0.000
       N       E                     dE             d eps       ncg     rms          rms(c)
DAV:   1    -0.239933129980E+03   -0.29569E-01   -0.48563E-02  5984   0.210E+00    0.153E+00
RMM:   2    -0.239935727693E+03   -0.25977E-02   -0.45217E-02  4644   0.480E-01    0.696E-01
RMM:   3    -0.239936412652E+03   -0.68496E-03   -0.18533E-02  4318   0.315E-01
   1527 T=   760. E= -.22288413E+03 F= -.23993641E+03 E0= -.23993641E+03  EK= 0.61857E+01 SP= 0.11E+02 SK= 0.26E-03 mag=      0.000
       N       E                     dE             d eps       ncg     rms          rms(c)
DAV:   1    -0.239949541533E+03   -0.13814E-01   -0.67103E-02  6168   0.212E+00    0.430E-01
RMM:   2    -0.239954644903E+03   -0.51034E-02   -0.57360E-02  4453   0.569E-01    0.308E-01
RMM:   3    -0.239956137028E+03   -0.14921E-02   -0.15794E-02  4400   0.276E-01
   1528 T=   763. E= -.22287471E+03 F= -.23995614E+03 E0= -.23995614E+03  EK= 0.62101E+01 SP= 0.11E+02 SK= 0.48E-05 mag=     -0.000
       N       E                     dE             d eps       ncg     rms          rms(c)
DAV:   1    -0.239956103770E+03   -0.14589E-02   -0.64794E-02  6136   0.207E+00    0.799E-01
RMM:   2    -0.239960752456E+03   -0.46487E-02   -0.48350E-02  4676   0.523E-01    0.705E-01
RMM:   3    -0.239962019884E+03   -0.12674E-02   -0.15952E-02  4218   0.280E-01
   1529 T=   765. E= -.22286307E+03 F= -.23996202E+03 E0= -.23996202E+03  EK= 0.62300E+01 SP= 0.11E+02 SK= 0.11E-03 mag=      0.000
       N       E                     dE             d eps       ncg     rms          rms(c)
DAV:   1    -0.239953172498E+03    0.75800E-02   -0.54656E-02  6040   0.205E+00    0.199E+00
RMM:   2    -0.239954528236E+03   -0.13557E-02   -0.44814E-02  4477   0.509E-01    0.963E-01
RMM:   3    -0.239954861851E+03   -0.33361E-03   -0.21005E-02  4533   0.311E-01
   1530 T=   767. E= -.22285304E+03 F= -.23995486E+03 E0= -.23995486E+03  EK= 0.62420E+01 SP= 0.11E+02 SK= 0.52E-03 mag=     -0.000
       N       E                     dE             d eps       ncg     rms          rms(c)
DAV:   1    -0.239930358169E+03    0.24170E-01   -0.73241E-02  6072   0.211E+00    0.429E-01
RMM:   2    -0.239934510500E+03   -0.41523E-02   -0.62334E-02  4294   0.617E-01    0.483E-01
RMM:   3    -0.239935758150E+03   -0.12476E-02   -0.16745E-02  4603   0.281E-01
   1531 T=   767. E= -.22284441E+03 F= -.23993576E+03 E0= -.23993576E+03  EK= 0.62471E+01 SP= 0.11E+02 SK= 0.12E-02 mag=     -0.000
       N       E                     dE             d eps       ncg     rms          rms(c)
DAV:   1    -0.239898233276E+03    0.36277E-01   -0.62370E-02  6056   0.208E+00    0.170E+00
RMM:   2    -0.239901362804E+03   -0.31295E-02   -0.50195E-02  4638   0.524E-01    0.125E+00
RMM:   3    -0.239900509757E+03    0.85305E-03   -0.27132E-02  4312   0.396E-01
   1532 T=   768. E= -.22282670E+03 F= -.23990051E+03 E0= -.23990051E+03  EK= 0.62516E+01 SP= 0.11E+02 SK= 0.21E-02 mag=     -0.000
       N       E                     dE             d eps       ncg     rms          rms(c)
DAV:   1    -0.239861731348E+03    0.39631E-01   -0.91199E-02  5800   0.213E+00    0.296E+00
RMM:   2    -0.239857097970E+03    0.46334E-02   -0.72026E-02  4443   0.593E-01    0.141E+00
RMM:   3    -0.239855725125E+03    0.13728E-02   -0.46653E-02  4453   0.478E-01    0.324E-01
RMM:   4    -0.239857920025E+03   -0.21949E-02   -0.10369E-02  3835   0.243E-01
   1533 T=   767. E= -.22281749E+03 F= -.23985792E+03 E0= -.23985792E+03  EK= 0.62464E+01 SP= 0.11E+02 SK= 0.33E-02 mag=      0.000
       N       E                     dE             d eps       ncg     rms          rms(c)
DAV:   1    -0.239800186067E+03    0.55539E-01   -0.75087E-02  5888   0.221E+00    0.529E-01
RMM:   2    -0.239801865798E+03   -0.16797E-02   -0.59996E-02  4313   0.527E-01    0.507E-01
RMM:   3    -0.239803521094E+03   -0.16553E-02   -0.19755E-02  4686   0.315E-01
   1534 T=   766. E= -.22281011E+03 F= -.23980352E+03 E0= -.23980352E+03  EK= 0.62338E+01 SP= 0.11E+02 SK= 0.48E-02 mag=     -0.000
       N       E                     dE             d eps       ncg     rms          rms(c)
DAV:   1    -0.239732654644E+03    0.69211E-01   -0.75564E-02  6048   0.202E+00    0.972E-01
RMM:   2    -0.239739531730E+03   -0.68771E-02   -0.53229E-02  4670   0.524E-01    0.825E-01
RMM:   3    -0.239740803896E+03   -0.12722E-02   -0.19131E-02  4298   0.370E-01
   1535 T=   765. E= -.22279483E+03 F= -.23974080E+03 E0= -.23974080E+03  EK= 0.62274E+01 SP= 0.11E+02 SK= 0.67E-02 mag=      0.000
       N       E                     dE             d eps       ncg     rms          rms(c)
DAV:   1    -0.239667928255E+03    0.71603E-01   -0.74845E-02  6080   0.208E+00    0.223E+00
RMM:   2    -0.239673879682E+03   -0.59514E-02   -0.61286E-02  4930   0.515E-01    0.906E-01
RMM:   3    -0.239673362091E+03    0.51759E-03   -0.20136E-02  3820   0.427E-01
   1536 T=   764. E= -.22278164E+03 F= -.23967336E+03 E0= -.23967336E+03  EK= 0.62210E+01 SP= 0.11E+02 SK= 0.89E-02 mag=      0.000
       N       E                     dE             d eps       ncg     rms          rms(c)
DAV:   1    -0.239596267425E+03    0.77612E-01   -0.10288E-01  5576   0.225E+00    0.518E-01
RMM:   2    -0.239604293839E+03   -0.80264E-02   -0.72956E-02  4656   0.608E-01    0.399E-01
RMM:   3    -0.239607227687E+03   -0.29338E-02   -0.24153E-02  4831   0.354E-01
   1537 T=   763. E= -.22277606E+03 F= -.23960723E+03 E0= -.23960723E+03  EK= 0.62151E+01 SP= 0.11E+02 SK= 0.12E-01 mag=      0.000
       N       E                     dE             d eps       ncg     rms          rms(c)
DAV:   1    -0.239533338692E+03    0.70955E-01   -0.88405E-02  5984   0.214E+00    0.140E+00
RMM:   2    -0.239536616626E+03   -0.32779E-02   -0.58872E-02  4654   0.543E-01    0.109E+00
RMM:   3    -0.239536825409E+03   -0.20878E-03   -0.29108E-02  4566   0.430E-01
   1538 T=   764. E= -.22276101E+03 F= -.23953683E+03 E0= -.23953683E+03  EK= 0.62215E+01 SP= 0.11E+02 SK= 0.14E-01 mag=     -0.000
       N       E                     dE             d eps       ncg     rms          rms(c)
DAV:   1    -0.239476958745E+03    0.59658E-01   -0.84831E-02  6080   0.210E+00    0.260E+00
RMM:   2    -0.239472887007E+03    0.40717E-02   -0.70843E-02  4568   0.582E-01    0.115E+00
RMM:   3    -0.239470630685E+03    0.22563E-02   -0.35536E-02  4283   0.437E-01    0.403E-01
RMM:   4    -0.239472657817E+03   -0.20271E-02   -0.94984E-03  3667   0.228E-01
   1539 T=   766. E= -.22275268E+03 F= -.23947266E+03 E0= -.23947266E+03  EK= 0.62344E+01 SP= 0.10E+02 SK= 0.18E-01 mag=     -0.000
       N       E                     dE             d eps       ncg     rms          rms(c)
DAV:   1    -0.239408305121E+03    0.62326E-01   -0.81406E-02  6088   0.219E+00    0.526E-01
RMM:   2    -0.239410714572E+03   -0.24095E-02   -0.54117E-02  4557   0.522E-01    0.466E-01
RMM:   3    -0.239412276288E+03   -0.15617E-02   -0.17597E-02  4620   0.306E-01
   1540 T=   768. E= -.22274766E+03 F= -.23941228E+03 E0= -.23941228E+03  EK= 0.62546E+01 SP= 0.10E+02 SK= 0.21E-01 mag=      0.000
       N       E                     dE             d eps       ncg     rms          rms(c)
DAV:   1    -0.239351473674E+03    0.59241E-01   -0.66738E-02  6048   0.202E+00    0.108E+00
RMM:   2    -0.239355712872E+03   -0.42392E-02   -0.50873E-02  4982   0.498E-01    0.891E-01
RMM:   3    -0.239355813673E+03   -0.10080E-03   -0.17615E-02  4028   0.354E-01
   1541 T=   773. E= -.22273482E+03 F= -.23935581E+03 E0= -.23935581E+03  EK= 0.62930E+01 SP= 0.10E+02 SK= 0.24E-01 mag=      0.000
       N       E                     dE             d eps       ncg     rms          rms(c)
DAV:   1    -0.239306118871E+03    0.49594E-01   -0.69958E-02  6072   0.208E+00    0.202E+00
RMM:   2    -0.239307293525E+03   -0.11747E-02   -0.52857E-02  4720   0.488E-01    0.892E-01
RMM:   3    -0.239305298176E+03    0.19953E-02   -0.25522E-02  3907   0.463E-01
   1542 T=   779. E= -.22272367E+03 F= -.23930530E+03 E0= -.23930530E+03  EK= 0.63416E+01 SP= 0.10E+02 SK= 0.27E-01 mag=     -0.000
       N       E                     dE             d eps       ncg     rms          rms(c)
DAV:   1    -0.239253548292E+03    0.53745E-01   -0.14572E-01  5568   0.233E+00    0.703E-01
RMM:   2    -0.239261298674E+03   -0.77504E-02   -0.82883E-02  4586   0.625E-01    0.410E-01
RMM:   3    -0.239264445946E+03   -0.31473E-02   -0.28357E-02  5022   0.398E-01
   1543 T=   786. E= -.22272051E+03 F= -.23926445E+03 E0= -.23926445E+03  EK= 0.63968E+01 SP= 0.10E+02 SK= 0.29E-01 mag=     -0.000
       N       E                     dE             d eps       ncg     rms          rms(c)
DAV:   1    -0.239216198272E+03    0.45100E-01   -0.10395E-01  5856   0.221E+00    0.133E+00
RMM:   2    -0.239221238952E+03   -0.50407E-02   -0.75474E-02  4763   0.566E-01    0.115E+00
RMM:   3    -0.239222949704E+03   -0.17108E-02   -0.24304E-02  4483   0.367E-01
   1544 T=   794. E= -.22270864E+03 F= -.23922295E+03 E0= -.23922295E+03  EK= 0.64638E+01 SP= 0.10E+02 SK= 0.30E-01 mag=     -0.000
       N       E                     dE             d eps       ncg     rms          rms(c)
DAV:   1    -0.239182882715E+03    0.38356E-01   -0.78210E-02  5872   0.217E+00    0.261E+00
RMM:   2    -0.239182586840E+03    0.29587E-03   -0.62507E-02  4431   0.541E-01    0.124E+00
RMM:   3    -0.239181248013E+03    0.13388E-02   -0.34127E-02  4234   0.475E-01    0.557E-01
RMM:   4    -0.239184242636E+03   -0.29946E-02   -0.10459E-02  3928   0.233E-01
   1545 T=   802. E= -.22270151E+03 F= -.23918424E+03 E0= -.23918424E+03  EK= 0.65311E+01 SP= 0.99E+01 SK= 0.30E-01 mag=     -0.000
       N       E                     dE             d eps       ncg     rms          rms(c)
DAV:   1    -0.239133596678E+03    0.47651E-01   -0.58077E-02  6152   0.222E+00    0.632E-01
RMM:   2    -0.239139954749E+03   -0.63581E-02   -0.53375E-02  4454   0.492E-01    0.546E-01
RMM:   3    -0.239142860419E+03   -0.29057E-02   -0.16132E-02  4629   0.306E-01
   1546 T=   810. E= -.22269571E+03 F= -.23914286E+03 E0= -.23914286E+03  EK= 0.65950E+01 SP= 0.98E+01 SK= 0.30E-01 mag=      0.000
       N       E                     dE             d eps       ncg     rms          rms(c)
DAV:   1    -0.239088829306E+03    0.51125E-01   -0.70141E-02  6064   0.210E+00    0.140E+00
RMM:   2    -0.239094375104E+03   -0.55458E-02   -0.50598E-02  4827   0.533E-01    0.104E+00
RMM:   3    -0.239092456710E+03    0.19184E-02   -0.23414E-02  3932   0.458E-01
   1547 T=   818. E= -.22267706E+03 F= -.23909246E+03 E0= -.23909246E+03  EK= 0.66617E+01 SP= 0.97E+01 SK= 0.28E-01 mag=     -0.000
       N       E                     dE             d eps       ncg     rms          rms(c)
DAV:   1    -0.239042162225E+03    0.52213E-01   -0.84060E-02  6112   0.221E+00    0.249E+00
RMM:   2    -0.239041948387E+03    0.21384E-03   -0.65901E-02  4895   0.571E-01    0.110E+00
RMM:   3    -0.239039278815E+03    0.26696E-02   -0.25891E-02  4160   0.447E-01
   1548 T=   825. E= -.22266300E+03 F= -.23903928E+03 E0= -.23903928E+03  EK= 0.67182E+01 SP= 0.96E+01 SK= 0.26E-01 mag=      0.000
       N       E                     dE             d eps       ncg     rms          rms(c)
DAV:   1    -0.238969442074E+03    0.72506E-01   -0.16906E-01  5648   0.245E+00    0.647E-01
RMM:   2    -0.238976755138E+03   -0.73131E-02   -0.95463E-02  4572   0.685E-01    0.519E-01
RMM:   3    -0.238979521776E+03   -0.27666E-02   -0.30083E-02  5069   0.400E-01
   1549 T=   830. E= -.22265358E+03 F= -.23897952E+03 E0= -.23897952E+03  EK= 0.67590E+01 SP= 0.95E+01 SK= 0.23E-01 mag=      0.000
       N       E                     dE             d eps       ncg     rms          rms(c)
DAV:   1    -0.238901003518E+03    0.75752E-01   -0.11775E-01  5992   0.231E+00    0.172E+00
RMM:   2    -0.238905236846E+03   -0.42333E-02   -0.79411E-02  4848   0.582E-01    0.137E+00
RMM:   3    -0.238904985263E+03    0.25158E-03   -0.29803E-02  4477   0.456E-01
   1550 T=   834. E= -.22263196E+03 F= -.23890499E+03 E0= -.23890499E+03  EK= 0.67915E+01 SP= 0.95E+01 SK= 0.19E-01 mag=     -0.000
       N       E                     dE             d eps       ncg     rms          rms(c)
DAV:   1    -0.238836284732E+03    0.68952E-01   -0.97038E-02  5912   0.229E+00    0.311E+00
RMM:   2    -0.238830815423E+03    0.54693E-02   -0.81655E-02  4652   0.604E-01    0.144E+00
RMM:   3    -0.238826574110E+03    0.42413E-02   -0.45199E-02  4169   0.541E-01    0.587E-01
RMM:   4    -0.238830692737E+03   -0.41186E-02   -0.15837E-02  4295   0.281E-01    0.167E-01
RMM:   5    -0.238830443734E+03    0.24900E-03   -0.13471E-03  2598   0.105E-01
   1551 T=   836. E= -.22262097E+03 F= -.23883044E+03 E0= -.23883044E+03  EK= 0.68065E+01 SP= 0.94E+01 SK= 0.16E-01 mag=     -0.000
       N       E                     dE             d eps       ncg     rms          rms(c)
DAV:   1    -0.238745252581E+03    0.85440E-01   -0.77355E-02  6264   0.224E+00    0.738E-01
RMM:   2    -0.238748545582E+03   -0.32930E-02   -0.53376E-02  4549   0.538E-01    0.600E-01
RMM:   3    -0.238750055834E+03   -0.15103E-02   -0.17429E-02  4480   0.310E-01
   1552 T=   836. E= -.22261192E+03 F= -.23875006E+03 E0= -.23875006E+03  EK= 0.68063E+01 SP= 0.93E+01 SK= 0.13E-01 mag=      0.000
       N       E                     dE             d eps       ncg     rms          rms(c)
DAV:   1    -0.238664781188E+03    0.83764E-01   -0.61203E-02  6120   0.211E+00    0.111E+00
RMM:   2    -0.238668527185E+03   -0.37460E-02   -0.55662E-02  5036   0.532E-01    0.852E-01
RMM:   3    -0.238669281540E+03   -0.75435E-03   -0.15183E-02  3779   0.265E-01
   1553 T=   836. E= -.22259559E+03 F= -.23866928E+03 E0= -.23866928E+03  EK= 0.68054E+01 SP= 0.93E+01 SK= 0.10E-01 mag=      0.000
       N       E                     dE             d eps       ncg     rms          rms(c)
DAV:   1    -0.238594704523E+03    0.73823E-01   -0.51333E-02  6000   0.209E+00    0.160E+00
RMM:   2    -0.238594505529E+03    0.19899E-03   -0.44732E-02  4664   0.486E-01    0.837E-01
RMM:   3    -0.238594215776E+03    0.28975E-03   -0.18351E-02  4300   0.280E-01
   1554 T=   835. E= -.22257990E+03 F= -.23859422E+03 E0= -.23859422E+03  EK= 0.68021E+01 SP= 0.92E+01 SK= 0.78E-02 mag=      0.000
       N       E                     dE             d eps       ncg     rms          rms(c)
DAV:   1    -0.238524642161E+03    0.69863E-01   -0.64419E-02  6192   0.213E+00    0.504E-01
RMM:   2    -0.238528725167E+03   -0.40830E-02   -0.51708E-02  4507   0.566E-01    0.335E-01
RMM:   3    -0.238529915318E+03   -0.11902E-02   -0.15398E-02  4509   0.288E-01
   1555 T=   835. E= -.22256805E+03 F= -.23852992E+03 E0= -.23852992E+03  EK= 0.67983E+01 SP= 0.92E+01 SK= 0.58E-02 mag=      0.000
       N       E                     dE             d eps       ncg     rms          rms(c)
DAV:   1    -0.238474695401E+03    0.54030E-01   -0.49968E-02  6144   0.208E+00    0.819E-01
RMM:   2    -0.238478850493E+03   -0.41551E-02   -0.51726E-02  4682   0.524E-01    0.611E-01
RMM:   3    -0.238479920586E+03   -0.10701E-02   -0.14985E-02  4234   0.265E-01
   1556 T=   836. E= -.22255386E+03 F= -.23847992E+03 E0= -.23847992E+03  EK= 0.68039E+01 SP= 0.91E+01 SK= 0.40E-02 mag=      0.000
       N       E                     dE             d eps       ncg     rms          rms(c)
DAV:   1    -0.238446046261E+03    0.32804E-01   -0.57958E-02  5904   0.206E+00    0.102E+00
RMM:   2    -0.238448282935E+03   -0.22367E-02   -0.48813E-02  4630   0.506E-01    0.461E-01
RMM:   3    -0.238449046357E+03   -0.76342E-03   -0.17683E-02  4415   0.283E-01
   1557 T=   838. E= -.22253925E+03 F= -.23844905E+03 E0= -.23844905E+03  EK= 0.68216E+01 SP= 0.91E+01 SK= 0.26E-02 mag=      0.000
       N       E                     dE             d eps       ncg     rms          rms(c)
DAV:   1    -0.238434574790E+03    0.13708E-01   -0.53474E-02  6096   0.209E+00    0.521E-01
RMM:   2    -0.238439329015E+03   -0.47542E-02   -0.49301E-02  4432   0.548E-01    0.221E-01
RMM:   3    -0.238440637334E+03   -0.13083E-02   -0.14288E-02  4295   0.275E-01
   1558 T=   841. E= -.22252689E+03 F= -.23844064E+03 E0= -.23844064E+03  EK= 0.68517E+01 SP= 0.91E+01 SK= 0.13E-02 mag=      0.000
       N       E                     dE             d eps       ncg     rms          rms(c)
DAV:   1    -0.238450362053E+03   -0.11033E-01   -0.56552E-02  6104   0.205E+00    0.376E-01
RMM:   2    -0.238454908411E+03   -0.45464E-02   -0.44800E-02  4582   0.528E-01    0.321E-01
RMM:   3    -0.238456282950E+03   -0.13745E-02   -0.14120E-02  4295   0.251E-01
   1559 T=   847. E= -.22251473E+03 F= -.23845628E+03 E0= -.23845628E+03  EK= 0.68970E+01 SP= 0.90E+01 SK= 0.44E-03 mag=     -0.000
       N       E                     dE             d eps       ncg     rms          rms(c)
DAV:   1    -0.238490550078E+03   -0.35642E-01   -0.37649E-02  5808   0.203E+00    0.388E-01
RMM:   2    -0.238494633965E+03   -0.40839E-02   -0.43076E-02  4823   0.471E-01    0.349E-01
RMM:   3    -0.238495760061E+03   -0.11261E-02   -0.12496E-02  3819   0.232E-01
   1560 T=   854. E= -.22250319E+03 F= -.23849576E+03 E0= -.23849576E+03  EK= 0.69556E+01 SP= 0.90E+01 SK= 0.94E-05 mag=     -0.000
       N       E                     dE             d eps       ncg     rms          rms(c)
DAV:   1    -0.238548855950E+03   -0.54222E-01   -0.64647E-02  6144   0.207E+00    0.906E-01
RMM:   2    -0.238554463348E+03   -0.56074E-02   -0.43896E-02  4916   0.461E-01    0.342E-01
RMM:   3    -0.238555752127E+03   -0.12888E-02   -0.12292E-02  3737   0.282E-01
   1561 T=   862. E= -.22249175E+03 F= -.23855575E+03 E0= -.23855575E+03  EK= 0.70230E+01 SP= 0.90E+01 SK= 0.31E-03 mag=     -0.000
       N       E                     dE             d eps       ncg     rms          rms(c)
DAV:   1    -0.238625274998E+03   -0.70812E-01   -0.53051E-02  6008   0.209E+00    0.438E-01
RMM:   2    -0.238630961679E+03   -0.56867E-02   -0.44760E-02  4824   0.486E-01    0.190E-01
RMM:   3    -0.238632659147E+03   -0.16975E-02   -0.12149E-02  3876   0.259E-01
   1562 T=   871. E= -.22248092E+03 F= -.23863266E+03 E0= -.23863266E+03  EK= 0.70931E+01 SP= 0.91E+01 SK= 0.17E-02 mag=     -0.000
       N       E                     dE             d eps       ncg     rms          rms(c)
DAV:   1    -0.238714343599E+03   -0.83382E-01   -0.48391E-02  5976   0.210E+00    0.255E-01
RMM:   2    -0.238718817497E+03   -0.44739E-02   -0.39366E-02  4673   0.494E-01    0.300E-01
RMM:   3    -0.238720112134E+03   -0.12946E-02   -0.11848E-02  3904   0.236E-01
   1563 T=   879. E= -.22246905E+03 F= -.23872011E+03 E0= -.23872011E+03  EK= 0.71590E+01 SP= 0.91E+01 SK= 0.46E-02 mag=      0.000
       N       E                     dE             d eps       ncg     rms          rms(c)
DAV:   1    -0.238806387146E+03   -0.87570E-01   -0.47433E-02  5888   0.207E+00    0.724E-01
RMM:   2    -0.238810878871E+03   -0.44917E-02   -0.39048E-02  4940   0.463E-01    0.605E-01
RMM:   3    -0.238811753262E+03   -0.87439E-03   -0.11311E-02  3528   0.245E-01
   1564 T=   886. E= -.22245701E+03 F= -.23881175E+03 E0= -.23881175E+03  EK= 0.72115E+01 SP= 0.91E+01 SK= 0.94E-02 mag=     -0.000
       N       E                     dE             d eps       ncg     rms          rms(c)
DAV:   1    -0.238896457775E+03   -0.85579E-01   -0.53677E-02  5912   0.212E+00    0.198E+00
RMM:   2    -0.238900522873E+03   -0.40651E-02   -0.41971E-02  4920   0.473E-01    0.983E-01
RMM:   3    -0.238901264460E+03   -0.74159E-03   -0.13186E-02  3887   0.269E-01
   1565 T=   889. E= -.22244471E+03 F= -.23890126E+03 E0= -.23890126E+03  EK= 0.72427E+01 SP= 0.92E+01 SK= 0.16E-01 mag=     -0.000
       N       E                     dE             d eps       ncg     rms          rms(c)
DAV:   1    -0.238976436256E+03   -0.75913E-01   -0.62129E-02  6024   0.215E+00    0.448E-01
RMM:   2    -0.238981884271E+03   -0.54480E-02   -0.51610E-02  4560   0.590E-01    0.452E-01
RMM:   3    -0.238983444104E+03   -0.15598E-02   -0.15610E-02  4458   0.281E-01
   1566 T=   890. E= -.22243105E+03 F= -.23898344E+03 E0= -.23898344E+03  EK= 0.72479E+01 SP= 0.93E+01 SK= 0.26E-01 mag=     -0.000
       N       E                     dE             d eps       ncg     rms          rms(c)
DAV:   1    -0.239048529704E+03   -0.66645E-01   -0.56229E-02  6048   0.213E+00    0.198E+00
RMM:   2    -0.239052294775E+03   -0.37651E-02   -0.41465E-02  4673   0.500E-01    0.137E+00
RMM:   3    -0.239050594934E+03    0.16998E-02   -0.20402E-02  3859   0.426E-01
   1567 T=   887. E= -.22241396E+03 F= -.23905059E+03 E0= -.23905059E+03  EK= 0.72215E+01 SP= 0.94E+01 SK= 0.37E-01 mag=     -0.000
       N       E                     dE             d eps       ncg     rms          rms(c)
DAV:   1    -0.239105555716E+03   -0.53261E-01   -0.70312E-02  6024   0.221E+00    0.305E+00
RMM:   2    -0.239107481484E+03   -0.19258E-02   -0.59288E-02  4791   0.595E-01    0.149E+00
RMM:   3    -0.239106858572E+03    0.62291E-03   -0.26870E-02  4384   0.454E-01
   1568 T=   880. E= -.22239674E+03 F= -.23910686E+03 E0= -.23910686E+03  EK= 0.71657E+01 SP= 0.95E+01 SK= 0.49E-01 mag=      0.000
       N       E                     dE             d eps       ncg     rms          rms(c)
DAV:   1    -0.239141378915E+03   -0.33897E-01   -0.10948E-01  5952   0.227E+00    0.481E-01
RMM:   2    -0.239146440025E+03   -0.50611E-02   -0.78112E-02  4582   0.717E-01    0.550E-01
RMM:   3    -0.239148578861E+03   -0.21388E-02   -0.25264E-02  4891   0.360E-01
   1569 T=   869. E= -.22238115E+03 F= -.23914858E+03 E0= -.23914858E+03  EK= 0.70776E+01 SP= 0.96E+01 SK= 0.61E-01 mag=      0.000
       N       E                     dE             d eps       ncg     rms          rms(c)
DAV:   1    -0.239167358866E+03   -0.20919E-01   -0.91249E-02  5992   0.219E+00    0.215E+00
RMM:   2    -0.239171179048E+03   -0.38202E-02   -0.57876E-02  4853   0.588E-01    0.150E+00
RMM:   3    -0.239170828490E+03    0.35056E-03   -0.28952E-02  4339   0.437E-01
   1570 T=   855. E= -.22236405E+03 F= -.23917083E+03 E0= -.23917083E+03  EK= 0.69586E+01 SP= 0.98E+01 SK= 0.72E-01 mag=     -0.000
       N       E                     dE             d eps       ncg     rms          rms(c)
DAV:   1    -0.239186666646E+03   -0.15488E-01   -0.85719E-02  5968   0.218E+00    0.332E+00
RMM:   2    -0.239183213356E+03    0.34533E-02   -0.76132E-02  4638   0.611E-01    0.161E+00
RMM:   3    -0.239182177919E+03    0.10354E-02   -0.46363E-02  4442   0.493E-01    0.414E-01
RMM:   4    -0.239184476826E+03   -0.22989E-02   -0.11334E-02  3954   0.251E-01
   1571 T=   837. E= -.22235482E+03 F= -.23918448E+03 E0= -.23918448E+03  EK= 0.68146E+01 SP= 0.99E+01 SK= 0.81E-01 mag=     -0.000
       N       E                     dE             d eps       ncg     rms          rms(c)
DAV:   1    -0.239180343769E+03    0.18341E-02   -0.79167E-02  5864   0.225E+00    0.618E-01
RMM:   2    -0.239182695172E+03   -0.23514E-02   -0.57720E-02  4543   0.527E-01    0.525E-01
RMM:   3    -0.239184412672E+03   -0.17175E-02   -0.20321E-02  4497   0.349E-01
   1572 T=   817. E= -.22234386E+03 F= -.23918441E+03 E0= -.23918441E+03  EK= 0.66546E+01 SP= 0.10E+02 SK= 0.87E-01 mag=     -0.000
       N       E                     dE             d eps       ncg     rms          rms(c)
DAV:   1    -0.239168773564E+03    0.13922E-01   -0.72503E-02  6208   0.202E+00    0.601E-01
RMM:   2    -0.239176198451E+03   -0.74249E-02   -0.55924E-02  4999   0.529E-01    0.676E-01
RMM:   3    -0.239178169013E+03   -0.19706E-02   -0.13829E-02  3854   0.259E-01
   1573 T=   797. E= -.22233020E+03 F= -.23917817E+03 E0= -.23917817E+03  EK= 0.64917E+01 SP= 0.10E+02 SK= 0.88E-01 mag=     -0.000
       N       E                     dE             d eps       ncg     rms          rms(c)
DAV:   1    -0.239160069596E+03    0.16129E-01   -0.48627E-02  5992   0.201E+00    0.141E+00
RMM:   2    -0.239166770447E+03   -0.67009E-02   -0.49213E-02  4730   0.596E-01    0.100E+00
RMM:   3    -0.239165188171E+03    0.15823E-02   -0.21404E-02  3918   0.427E-01
   1574 T=   777. E= -.22231505E+03 F= -.23916519E+03 E0= -.23916519E+03  EK= 0.63284E+01 SP= 0.10E+02 SK= 0.86E-01 mag=      0.000
       N       E                     dE             d eps       ncg     rms          rms(c)
DAV:   1    -0.239155276713E+03    0.11494E-01   -0.65816E-02  5872   0.207E+00    0.296E+00
RMM:   2    -0.239157469207E+03   -0.21925E-02   -0.53724E-02  4928   0.519E-01    0.139E+00
RMM:   3    -0.239156480530E+03    0.98868E-03   -0.23672E-02  4038   0.458E-01
   1575 T=   758. E= -.22230275E+03 F= -.23915648E+03 E0= -.23915648E+03  EK= 0.61749E+01 SP= 0.11E+02 SK= 0.79E-01 mag=      0.000
       N       E                     dE             d eps       ncg     rms          rms(c)
DAV:   1    -0.239147198380E+03    0.10271E-01   -0.13849E-01  5384   0.223E+00    0.478E-01
RMM:   2    -0.239151243526E+03   -0.40451E-02   -0.81527E-02  4544   0.752E-01    0.542E-01
RMM:   3    -0.239152956384E+03   -0.17129E-02   -0.24574E-02  4759   0.365E-01
   1576 T=   741. E= -.22229170E+03 F= -.23915296E+03 E0= -.23915296E+03  EK= 0.60369E+01 SP= 0.11E+02 SK= 0.69E-01 mag=     -0.000
       N       E                     dE             d eps       ncg     rms          rms(c)
DAV:   1    -0.239146704711E+03    0.45388E-02   -0.83542E-02  5728   0.205E+00    0.224E+00
RMM:   2    -0.239150619742E+03   -0.39150E-02   -0.56666E-02  4653   0.585E-01    0.159E+00
RMM:   3    -0.239149884740E+03    0.73500E-03   -0.31857E-02  4228   0.480E-01
   1577 T=   726. E= -.22227908E+03 F= -.23914988E+03 E0= -.23914988E+03  EK= 0.59148E+01 SP= 0.11E+02 SK= 0.58E-01 mag=      0.000
       N       E                     dE             d eps       ncg     rms          rms(c)
DAV:   1    -0.239160916142E+03   -0.10296E-01   -0.84642E-02  5360   0.215E+00    0.322E+00
RMM:   2    -0.239159336911E+03    0.15792E-02   -0.74397E-02  4649   0.588E-01    0.153E+00
RMM:   3    -0.239157447887E+03    0.18890E-02   -0.53335E-02  4164   0.577E-01    0.420E-01
RMM:   4    -0.239161794862E+03   -0.43470E-02   -0.14887E-02  4251   0.291E-01    0.170E-01
RMM:   5    -0.239161477114E+03    0.31775E-03   -0.19241E-03  2584   0.120E-01
   1578 T=   714. E= -.22227558E+03 F= -.23916148E+03 E0= -.23916148E+03  EK= 0.58140E+01 SP= 0.11E+02 SK= 0.45E-01 mag=     -0.000
       N       E                     dE             d eps       ncg     rms          rms(c)
DAV:   1    -0.239176581315E+03   -0.14786E-01   -0.66372E-02  5696   0.200E+00    0.539E-01
RMM:   2    -0.239179611211E+03   -0.30299E-02   -0.43168E-02  4568   0.470E-01    0.396E-01
RMM:   3    -0.239181395948E+03   -0.17847E-02   -0.16895E-02  4217   0.305E-01
   1579 T=   705. E= -.22226954E+03 F= -.23918140E+03 E0= -.23918140E+03  EK= 0.57412E+01 SP= 0.11E+02 SK= 0.32E-01 mag=     -0.000
       N       E                     dE             d eps       ncg     rms          rms(c)
DAV:   1    -0.239208111527E+03   -0.28500E-01   -0.56553E-02  6016   0.184E+00    0.708E-01
RMM:   2    -0.239212895316E+03   -0.47838E-02   -0.47883E-02  5055   0.480E-01    0.697E-01
RMM:   3    -0.239213769861E+03   -0.87454E-03   -0.93394E-03  3366   0.212E-01
   1580 T=   700. E= -.22226163E+03 F= -.23921377E+03 E0= -.23921377E+03  EK= 0.57004E+01 SP= 0.11E+02 SK= 0.21E-01 mag=      0.000
       N       E                     dE             d eps       ncg     rms          rms(c)
DAV:   1    -0.239254250734E+03   -0.41355E-01   -0.60423E-02  6040   0.187E+00    0.106E+00
RMM:   2    -0.239257491398E+03   -0.32407E-02   -0.31599E-02  4735   0.424E-01    0.515E-01
RMM:   3    -0.239258448459E+03   -0.95706E-03   -0.95654E-03  3732   0.205E-01
   1581 T=   699. E= -.22225350E+03 F= -.23925845E+03 E0= -.23925845E+03  EK= 0.56901E+01 SP= 0.11E+02 SK= 0.12E-01 mag=      0.000
       N       E                     dE             d eps       ncg     rms          rms(c)
DAV:   1    -0.239311429332E+03   -0.53938E-01   -0.24730E-02  5448   0.186E+00    0.718E-01
RMM:   2    -0.239315155958E+03   -0.37266E-02   -0.34219E-02  5060   0.416E-01    0.392E-01
RMM:   3    -0.239316004016E+03   -0.84806E-03   -0.76453E-03  3104   0.188E-01
   1582 T=   701. E= -.22224646E+03 F= -.23931600E+03 E0= -.23931600E+03  EK= 0.57094E+01 SP= 0.11E+02 SK= 0.54E-02 mag=      0.000
       N       E                     dE             d eps       ncg     rms          rms(c)
DAV:   1    -0.239383464698E+03   -0.68309E-01   -0.40128E-02  5904   0.184E+00    0.283E-01
RMM:   2    -0.239386486946E+03   -0.30222E-02   -0.29364E-02  4851   0.379E-01
   1583 T=   708. E= -.22223313E+03 F= -.23938649E+03 E0= -.23938649E+03  EK= 0.57651E+01 SP= 0.11E+02 SK= 0.16E-02 mag=     -0.000
       N       E                     dE             d eps       ncg     rms          rms(c)
DAV:   1    -0.239463417621E+03   -0.79953E-01   -0.69483E-02  6456   0.197E+00    0.340E-01
RMM:   2    -0.239469230821E+03   -0.58132E-02   -0.58159E-02  5203   0.513E-01    0.395E-01
RMM:   3    -0.239470237149E+03   -0.10063E-02   -0.10453E-02  3460   0.222E-01
   1584 T=   718. E= -.22222023E+03 F= -.23947024E+03 E0= -.23947024E+03  EK= 0.58499E+01 SP= 0.11E+02 SK= 0.85E-04 mag=      0.000
       N       E                     dE             d eps       ncg     rms          rms(c)
DAV:   1    -0.239559137819E+03   -0.89907E-01   -0.47711E-02  5960   0.185E+00    0.336E-01
RMM:   2    -0.239562311541E+03   -0.31737E-02   -0.30658E-02  4632   0.436E-01
   1585 T=   731. E= -.22221085E+03 F= -.23956231E+03 E0= -.23956231E+03  EK= 0.59541E+01 SP= 0.11E+02 SK= 0.30E-03 mag=      0.000
       N       E                     dE             d eps       ncg     rms          rms(c)
DAV:   1    -0.239656113461E+03   -0.96976E-01   -0.88041E-02  6680   0.206E+00    0.655E-01
RMM:   2    -0.239664105919E+03   -0.79925E-02   -0.80155E-02  5171   0.583E-01    0.245E-01
RMM:   3    -0.239665198503E+03   -0.10926E-02   -0.12682E-02  3463   0.246E-01
   1586 T=   746. E= -.22220652E+03 F= -.23966520E+03 E0= -.23966520E+03  EK= 0.60769E+01 SP= 0.11E+02 SK= 0.15E-02 mag=     -0.000
       N       E                     dE             d eps       ncg     rms          rms(c)
DAV:   1    -0.239765728556E+03   -0.10162E+00   -0.75037E-02  6048   0.192E+00    0.371E-01
RMM:   2    -0.239770936137E+03   -0.52076E-02   -0.51343E-02  4990   0.530E-01    0.196E-01
RMM:   3    -0.239772226935E+03   -0.12908E-02   -0.13397E-02  3859   0.227E-01
   1587 T=   763. E= -.22220408E+03 F= -.23977223E+03 E0= -.23977223E+03  EK= 0.62125E+01 SP= 0.11E+02 SK= 0.31E-02 mag=     -0.000
       N       E                     dE             d eps       ncg     rms          rms(c)
DAV:   1    -0.239875438885E+03   -0.10450E+00   -0.44294E-02  6032   0.192E+00    0.402E-01
RMM:   2    -0.239879548326E+03   -0.41094E-02   -0.44382E-02  5050   0.450E-01    0.133E-01
RMM:   3    -0.239880426024E+03   -0.87770E-03   -0.94139E-03  3325   0.213E-01
   1588 T=   781. E= -.22220186E+03 F= -.23988043E+03 E0= -.23988043E+03  EK= 0.63568E+01 SP= 0.11E+02 SK= 0.43E-02 mag=     -0.000
       N       E                     dE             d eps       ncg     rms          rms(c)
DAV:   1    -0.239981339495E+03   -0.10179E+00   -0.39047E-02  5760   0.193E+00    0.348E-01
RMM:   2    -0.239985050552E+03   -0.37111E-02   -0.37183E-02  4860   0.415E-01    0.212E-01
RMM:   3    -0.239985770541E+03   -0.71999E-03   -0.78323E-03  3275   0.192E-01
   1589 T=   799. E= -.22219862E+03 F= -.23998577E+03 E0= -.23998577E+03  EK= 0.65038E+01 SP= 0.11E+02 SK= 0.48E-02 mag=      0.000
       N       E                     dE             d eps       ncg     rms          rms(c)
DAV:   1    -0.240078663149E+03   -0.93613E-01   -0.48085E-02  5744   0.194E+00    0.215E-01
RMM:   2    -0.240082790576E+03   -0.41274E-02   -0.40052E-02  5060   0.424E-01    0.218E-01
RMM:   3    -0.240083622539E+03   -0.83196E-03   -0.86257E-03  3224   0.196E-01
   1590 T=   816. E= -.22219481E+03 F= -.24008362E+03 E0= -.24008362E+03  EK= 0.66451E+01 SP= 0.11E+02 SK= 0.44E-02 mag=      0.000
       N       E                     dE             d eps       ncg     rms          rms(c)
DAV:   1    -0.240164197985E+03   -0.81407E-01   -0.55451E-02  5928   0.197E+00    0.248E-01
RMM:   2    -0.240168208900E+03   -0.40109E-02   -0.39983E-02  4928   0.424E-01    0.311E-01
RMM:   3    -0.240168915826E+03   -0.70693E-03   -0.77233E-03  3232   0.183E-01
   1591 T=   832. E= -.22219102E+03 F= -.24016892E+03 E0= -.24016892E+03  EK= 0.67713E+01 SP= 0.11E+02 SK= 0.34E-02 mag=      0.000
       N       E                     dE             d eps       ncg     rms          rms(c)
DAV:   1    -0.240234338498E+03   -0.66130E-01   -0.47530E-02  6040   0.197E+00    0.481E-01
RMM:   2    -0.240238600196E+03   -0.42617E-02   -0.41276E-02  5066   0.420E-01    0.497E-01
RMM:   3    -0.240239357587E+03   -0.75739E-03   -0.80568E-03  3208   0.189E-01
   1592 T=   845. E= -.22218594E+03 F= -.24023936E+03 E0= -.24023936E+03  EK= 0.68779E+01 SP= 0.11E+02 SK= 0.20E-02 mag=      0.000
       N       E                     dE             d eps       ncg     rms          rms(c)
DAV:   1    -0.240288391154E+03   -0.49791E-01   -0.63385E-02  6040   0.203E+00    0.773E-01
RMM:   2    -0.240292698088E+03   -0.43069E-02   -0.43477E-02  5025   0.449E-01    0.693E-01
RMM:   3    -0.240293421551E+03   -0.72346E-03   -0.89943E-03  3394   0.201E-01
   1593 T=   855. E= -.22217908E+03 F= -.24029342E+03 E0= -.24029342E+03  EK= 0.69608E+01 SP= 0.11E+02 SK= 0.72E-03 mag=     -0.000
       N       E                     dE             d eps       ncg     rms          rms(c)
DAV:   1    -0.240328999637E+03   -0.36302E-01   -0.59785E-02  6064   0.203E+00    0.342E+00
RMM:   2    -0.240331035122E+03   -0.20355E-02   -0.43880E-02  5085   0.434E-01    0.174E+00
RMM:   3    -0.240330969932E+03    0.65190E-04   -0.12544E-02  3541   0.218E-01
   1594 T=   861. E= -.22217330E+03 F= -.24033097E+03 E0= -.24033097E+03  EK= 0.70146E+01 SP= 0.11E+02 SK= 0.40E-04 mag=      0.000
       N       E                     dE             d eps       ncg     rms          rms(c)
DAV:   1    -0.240349120901E+03   -0.18086E-01   -0.64284E-02  6064   0.209E+00    0.141E+00
RMM:   2    -0.240352462534E+03   -0.33416E-02   -0.55153E-02  5056   0.487E-01    0.111E+00
RMM:   3    -0.240352313327E+03    0.14921E-03   -0.13904E-02  3905   0.236E-01
   1595 T=   865. E= -.22216418E+03 F= -.24035231E+03 E0= -.24035231E+03  EK= 0.70423E+01 SP= 0.11E+02 SK= 0.26E-03 mag=     -0.000
       N       E                     dE             d eps       ncg     rms          rms(c)
DAV:   1    -0.240363483207E+03   -0.11021E-01   -0.88186E-02  6336   0.209E+00    0.118E+00
RMM:   2    -0.240361955092E+03    0.15281E-02   -0.54862E-02  4836   0.478E-01    0.408E-01
RMM:   3    -0.240361768132E+03    0.18696E-03   -0.16884E-02  4172   0.240E-01
   1596 T=   865. E= -.22215432E+03 F= -.24036177E+03 E0= -.24036177E+03  EK= 0.70447E+01 SP= 0.11E+02 SK= 0.15E-02 mag=     -0.000
       N       E                     dE             d eps       ncg     rms          rms(c)
DAV:   1    -0.240360907154E+03    0.10479E-02   -0.78084E-02  6104   0.208E+00    0.353E-01
RMM:   2    -0.240362987082E+03   -0.20799E-02   -0.53809E-02  4821   0.487E-01    0.334E-01
RMM:   3    -0.240363143535E+03   -0.15645E-03   -0.10065E-02  3519   0.219E-01
   1597 T=   862. E= -.22214679E+03 F= -.24036314E+03 E0= -.24036314E+03  EK= 0.70227E+01 SP= 0.11E+02 SK= 0.38E-02 mag=      0.000
       N       E                     dE             d eps       ncg     rms          rms(c)
DAV:   1    -0.240352770347E+03    0.10217E-01   -0.65645E-02  6144   0.205E+00    0.372E-01
RMM:   2    -0.240357205715E+03   -0.44354E-02   -0.53358E-02  5001   0.468E-01    0.446E-01
RMM:   3    -0.240358119919E+03   -0.91420E-03   -0.98090E-03  3420   0.211E-01
   1598 T=   858. E= -.22213493E+03 F= -.24035812E+03 E0= -.24035812E+03  EK= 0.69852E+01 SP= 0.11E+02 SK= 0.69E-02 mag=      0.000
       N       E                     dE             d eps       ncg     rms          rms(c)
DAV:   1    -0.240347253695E+03    0.99520E-02   -0.41294E-02  5760   0.202E+00    0.523E-01
RMM:   2    -0.240349237641E+03   -0.19839E-02   -0.49850E-02  4984   0.449E-01    0.459E-01
RMM:   3    -0.240350018233E+03   -0.78059E-03   -0.10685E-02  3417   0.214E-01
   1599 T=   851. E= -.22212499E+03 F= -.24035002E+03 E0= -.24035002E+03  EK= 0.69307E+01 SP= 0.11E+02 SK= 0.10E-01 mag=      0.000
       N       E                     dE             d eps       ncg     rms          rms(c)
DAV:   1    -0.240334487143E+03    0.14750E-01   -0.57443E-02  6080   0.205E+00    0.101E+00
RMM:   2    -0.240338613906E+03   -0.41268E-02   -0.44425E-02  5038   0.442E-01    0.365E-01
RMM:   3    -0.240339083699E+03   -0.46979E-03   -0.83407E-03  3273   0.197E-01
   1600 T=   843. E= -.22211715E+03 F= -.24033908E+03 E0= -.24033908E+03  EK= 0.68609E+01 SP= 0.11E+02 SK= 0.14E-01 mag=     -0.000
       N       E                     dE             d eps       ncg     rms          rms(c)
DAV:   1    -0.240318818380E+03    0.19796E-01   -0.65122E-02  6160   0.202E+00    0.540E-01
RMM:   2    -0.240324006197E+03   -0.51878E-02   -0.50401E-02  5029   0.450E-01    0.145E-01
RMM:   3    -0.240324753880E+03   -0.74768E-03   -0.85036E-03  3269   0.201E-01
   1601 T=   833. E= -.22210689E+03 F= -.24032475E+03 E0= -.24032475E+03  EK= 0.67818E+01 SP= 0.11E+02 SK= 0.17E-01 mag=     -0.000
       N       E                     dE             d eps       ncg     rms          rms(c)
DAV:   1    -0.240299430194E+03    0.24576E-01   -0.57683E-02  5936   0.199E+00    0.211E-01
RMM:   2    -0.240303828458E+03   -0.43983E-02   -0.46436E-02  5007   0.433E-01    0.307E-01
RMM:   3    -0.240304694002E+03   -0.86554E-03   -0.90038E-03  3299   0.199E-01
   1602 T=   822. E= -.22209612E+03 F= -.24030469E+03 E0= -.24030469E+03  EK= 0.66917E+01 SP= 0.11E+02 SK= 0.20E-01 mag=      0.000
       N       E                     dE             d eps       ncg     rms          rms(c)
DAV:   1    -0.240274017390E+03    0.29811E-01   -0.57422E-02  6040   0.198E+00    0.591E-01
RMM:   2    -0.240278067019E+03   -0.40496E-02   -0.41774E-02  4989   0.427E-01    0.573E-01
RMM:   3    -0.240278780150E+03   -0.71313E-03   -0.84242E-03  3264   0.189E-01
   1603 T=   809. E= -.22208651E+03 F= -.24027878E+03 E0= -.24027878E+03  EK= 0.65913E+01 SP= 0.12E+02 SK= 0.22E-01 mag=      0.000
       N       E                     dE             d eps       ncg     rms          rms(c)
DAV:   1    -0.240242567704E+03    0.35499E-01   -0.58725E-02  6088   0.196E+00    0.157E+00
RMM:   2    -0.240246440464E+03   -0.38728E-02   -0.40475E-02  5014   0.416E-01    0.678E-01
RMM:   3    -0.240246971339E+03   -0.53088E-03   -0.81215E-03  3154   0.187E-01
   1604 T=   796. E= -.22207761E+03 F= -.24024697E+03 E0= -.24024697E+03  EK= 0.64836E+01 SP= 0.12E+02 SK= 0.22E-01 mag=      0.000
       N       E                     dE             d eps       ncg     rms          rms(c)
DAV:   1    -0.240205665346E+03    0.40775E-01   -0.43050E-02  5736   0.195E+00    0.353E-01
RMM:   2    -0.240210115479E+03   -0.44501E-02   -0.42805E-02  5055   0.422E-01    0.328E-01
RMM:   3    -0.240210809691E+03   -0.69421E-03   -0.79289E-03  3146   0.187E-01
   1605 T=   783. E= -.22206939E+03 F= -.24021081E+03 E0= -.24021081E+03  EK= 0.63731E+01 SP= 0.12E+02 SK= 0.21E-01 mag=     -0.000
       N       E                     dE             d eps       ncg     rms          rms(c)
DAV:   1    -0.240168397903E+03    0.41718E-01   -0.45218E-02  5856   0.194E+00    0.107E+00
RMM:   2    -0.240170670688E+03   -0.22728E-02   -0.36597E-02  5024   0.408E-01    0.832E-01
RMM:   3    -0.240171036693E+03   -0.36600E-03   -0.98111E-03  3222   0.193E-01
   1606 T=   770. E= -.22205793E+03 F= -.24017104E+03 E0= -.24017104E+03  EK= 0.62670E+01 SP= 0.12E+02 SK= 0.18E-01 mag=      0.000
       N       E                     dE             d eps       ncg     rms          rms(c)
DAV:   1    -0.240132877965E+03    0.37793E-01   -0.44306E-02  6040   0.187E+00    0.190E+00
RMM:   2    -0.240130836249E+03    0.20417E-02   -0.36760E-02  4942   0.399E-01    0.895E-01
RMM:   3    -0.240130218773E+03    0.61748E-03   -0.14049E-02  3817   0.215E-01
   1607 T=   757. E= -.22205000E+03 F= -.24013022E+03 E0= -.24013022E+03  EK= 0.61634E+01 SP= 0.12E+02 SK= 0.15E-01 mag=     -0.000
       N       E                     dE             d eps       ncg     rms          rms(c)
DAV:   1    -0.240089526632E+03    0.41310E-01   -0.65743E-02  6072   0.195E+00    0.412E-01
RMM:   2    -0.240089982922E+03   -0.45629E-03   -0.48846E-02  4781   0.451E-01    0.400E-01
RMM:   3    -0.240089969890E+03    0.13032E-04   -0.99815E-03  3543   0.210E-01
   1608 T=   745. E= -.22204410E+03 F= -.24008997E+03 E0= -.24008997E+03  EK= 0.60676E+01 SP= 0.12E+02 SK= 0.11E-01 mag=      0.000
       N       E                     dE             d eps       ncg     rms          rms(c)
DAV:   1    -0.240045594076E+03    0.44389E-01   -0.82229E-02  6312   0.186E+00    0.604E-01
RMM:   2    -0.240050342205E+03   -0.47481E-02   -0.47265E-02  4973   0.439E-01    0.603E-01
RMM:   3    -0.240051014146E+03   -0.67194E-03   -0.75097E-03  3184   0.185E-01
   1609 T=   735. E= -.22203348E+03 F= -.24005101E+03 E0= -.24005101E+03  EK= 0.59889E+01 SP= 0.12E+02 SK= 0.71E-02 mag=      0.000
       N       E                     dE             d eps       ncg     rms          rms(c)
DAV:   1    -0.240011047266E+03    0.39295E-01   -0.54160E-02  5944   0.182E+00    0.653E-01
RMM:   2    -0.240014451358E+03   -0.34041E-02   -0.50209E-02  4924   0.430E-01    0.255E-01
RMM:   3    -0.240015284525E+03   -0.83317E-03   -0.90225E-03  3321   0.199E-01
   1610 T=   727. E= -.22202635E+03 F= -.24001528E+03 E0= -.24001528E+03  EK= 0.59225E+01 SP= 0.12E+02 SK= 0.36E-02 mag=     -0.000
       N       E                     dE             d eps       ncg     rms          rms(c)
DAV:   1    -0.239978133246E+03    0.36318E-01   -0.47002E-02  5816   0.189E+00    0.682E-01
RMM:   2    -0.239981698896E+03   -0.35656E-02   -0.40674E-02  4865   0.416E-01    0.271E-01
RMM:   3    -0.239982390610E+03   -0.69171E-03   -0.80279E-03  3244   0.190E-01
   1611 T=   721. E= -.22202022E+03 F= -.23998239E+03 E0= -.23998239E+03  EK= 0.58714E+01 SP= 0.12E+02 SK= 0.11E-02 mag=     -0.000
       N       E                     dE             d eps       ncg     rms          rms(c)
DAV:   1    -0.239947883692E+03    0.33815E-01   -0.53008E-02  5792   0.185E+00    0.262E-01
RMM:   2    -0.239951993268E+03   -0.41096E-02   -0.39149E-02  5001   0.415E-01    0.156E-01
RMM:   3    -0.239952698094E+03   -0.70483E-03   -0.75064E-03  3096   0.181E-01
   1612 T=   717. E= -.22201212E+03 F= -.23995270E+03 E0= -.23995270E+03  EK= 0.58400E+01 SP= 0.12E+02 SK= 0.20E-04 mag=     -0.000
       N       E                     dE             d eps       ncg     rms          rms(c)
DAV:   1    -0.239920111290E+03    0.31882E-01   -0.46026E-02  5808   0.184E+00    0.300E-01
RMM:   2    -0.239923802100E+03   -0.36908E-02   -0.36459E-02  5006   0.400E-01    0.337E-01
RMM:   3    -0.239924509266E+03   -0.70717E-03   -0.73788E-03  3078   0.175E-01
   1613 T=   715. E= -.22200472E+03 F= -.23992451E+03 E0= -.23992451E+03  EK= 0.58244E+01 SP= 0.12E+02 SK= 0.63E-03 mag=      0.000
       N       E                     dE             d eps       ncg     rms          rms(c)
DAV:   1    -0.239893119066E+03    0.30683E-01   -0.49871E-02  5768   0.186E+00    0.446E-01
RMM:   2    -0.239896817813E+03   -0.36987E-02   -0.35402E-02  4989   0.398E-01    0.467E-01
RMM:   3    -0.239897499372E+03   -0.68156E-03   -0.72360E-03  3085   0.175E-01
   1614 T=   715. E= -.22199826E+03 F= -.23989750E+03 E0= -.23989750E+03  EK= 0.58242E+01 SP= 0.12E+02 SK= 0.30E-02 mag=      0.000
       N       E                     dE             d eps       ncg     rms          rms(c)
DAV:   1    -0.239865566859E+03    0.31251E-01   -0.42642E-02  5840   0.186E+00    0.504E-01
RMM:   2    -0.239869120869E+03   -0.35540E-02   -0.35128E-02  5007   0.398E-01    0.500E-01
RMM:   3    -0.239869783252E+03   -0.66238E-03   -0.71311E-03  3045   0.174E-01
   1615 T=   717. E= -.22199025E+03 F= -.23986978E+03 E0= -.23986978E+03  EK= 0.58402E+01 SP= 0.12E+02 SK= 0.72E-02 mag=     -0.000
       N       E                     dE             d eps       ncg     rms          rms(c)
DAV:   1    -0.239837049972E+03    0.32071E-01   -0.52294E-02  5912   0.188E+00    0.219E+00
RMM:   2    -0.239839807281E+03   -0.27573E-02   -0.36902E-02  5049   0.405E-01    0.106E+00
RMM:   3    -0.239840145469E+03   -0.33819E-03   -0.86969E-03  3138   0.188E-01
   1616 T=   721. E= -.22198342E+03 F= -.23984015E+03 E0= -.23984015E+03  EK= 0.58682E+01 SP= 0.12E+02 SK= 0.13E-01 mag=      0.000
       N       E                     dE             d eps       ncg     rms          rms(c)
DAV:   1    -0.239803844258E+03    0.35963E-01   -0.51256E-02  5976   0.191E+00    0.643E-01
RMM:   2    -0.239807742669E+03   -0.38984E-02   -0.43568E-02  5035   0.434E-01    0.584E-01
RMM:   3    -0.239808237840E+03   -0.49517E-03   -0.79109E-03  3171   0.189E-01
   1617 T=   725. E= -.22197715E+03 F= -.23980824E+03 E0= -.23980824E+03  EK= 0.59080E+01 SP= 0.12E+02 SK= 0.20E-01 mag=     -0.000
       N       E                     dE             d eps       ncg     rms          rms(c)
DAV:   1    -0.239769254174E+03    0.38488E-01   -0.10577E-01  6344   0.196E+00    0.101E+00
RMM:   2    -0.239771195974E+03   -0.19418E-02   -0.46974E-02  4947   0.453E-01    0.314E-01
RMM:   3    -0.239770923597E+03    0.27238E-03   -0.10087E-02  3349   0.202E-01
   1618 T=   732. E= -.22196975E+03 F= -.23977092E+03 E0= -.23977092E+03  EK= 0.59578E+01 SP= 0.12E+02 SK= 0.28E-01 mag=     -0.000
       N       E                     dE             d eps       ncg     rms          rms(c)
DAV:   1    -0.239720858726E+03    0.50337E-01   -0.94298E-02  6224   0.199E+00    0.312E-01
RMM:   2    -0.239727188295E+03   -0.63296E-02   -0.64378E-02  4905   0.485E-01    0.403E-01
RMM:   3    -0.239727862271E+03   -0.67398E-03   -0.10727E-02  3614   0.222E-01
   1619 T=   738. E= -.22196389E+03 F= -.23972786E+03 E0= -.23972786E+03  EK= 0.60136E+01 SP= 0.12E+02 SK= 0.36E-01 mag=     -0.000
       N       E                     dE             d eps       ncg     rms          rms(c)
DAV:   1    -0.239678180428E+03    0.49008E-01   -0.58775E-02  6000   0.199E+00    0.105E+00
RMM:   2    -0.239675547558E+03    0.26329E-02   -0.64392E-02  4857   0.485E-01    0.836E-01
RMM:   3    -0.239676012466E+03   -0.46491E-03   -0.20718E-02  4251   0.250E-01
   1620 T=   747. E= -.22195148E+03 F= -.23967601E+03 E0= -.23967601E+03  EK= 0.60795E+01 SP= 0.12E+02 SK= 0.44E-01 mag=      0.000
       N       E                     dE             d eps       ncg     rms          rms(c)
DAV:   1    -0.239627292161E+03    0.48255E-01   -0.54547E-02  6160   0.191E+00    0.181E+00
RMM:   2    -0.239617175441E+03    0.10117E-01   -0.53471E-02  4537   0.463E-01    0.849E-01
RMM:   3    -0.239616129032E+03    0.10464E-02   -0.30737E-02  4539   0.285E-01
   1621 T=   755. E= -.22194289E+03 F= -.23961613E+03 E0= -.23961613E+03  EK= 0.61449E+01 SP= 0.11E+02 SK= 0.52E-01 mag=     -0.000
       N       E                     dE             d eps       ncg     rms          rms(c)
DAV:   1    -0.239550999498E+03    0.66176E-01   -0.90137E-02  6488   0.208E+00    0.651E-01
RMM:   2    -0.239548864652E+03    0.21348E-02   -0.59247E-02  4519   0.537E-01    0.346E-01
RMM:   3    -0.239549168489E+03   -0.30384E-03   -0.21722E-02  4726   0.290E-01
   1622 T=   762. E= -.22193796E+03 F= -.23954917E+03 E0= -.23954917E+03  EK= 0.62093E+01 SP= 0.11E+02 SK= 0.59E-01 mag=     -0.000
       N       E                     dE             d eps       ncg     rms          rms(c)
DAV:   1    -0.239467557552E+03    0.81307E-01   -0.11572E-01  6504   0.197E+00    0.560E-01
RMM:   2    -0.239473057386E+03   -0.54998E-02   -0.54709E-02  4650   0.509E-01    0.555E-01
RMM:   3    -0.239474389923E+03   -0.13325E-02   -0.14154E-02  4146   0.250E-01
   1623 T=   771. E= -.22192688E+03 F= -.23947439E+03 E0= -.23947439E+03  EK= 0.62808E+01 SP= 0.11E+02 SK= 0.64E-01 mag=     -0.000
       N       E                     dE             d eps       ncg     rms          rms(c)
DAV:   1    -0.239391518713E+03    0.81539E-01   -0.58387E-02  6000   0.196E+00    0.980E-01
RMM:   2    -0.239394133737E+03   -0.26150E-02   -0.53775E-02  4821   0.474E-01    0.823E-01
RMM:   3    -0.239395086416E+03   -0.95268E-03   -0.16039E-02  3900   0.241E-01
   1624 T=   780. E= -.22191918E+03 F= -.23939509E+03 E0= -.23939509E+03  EK= 0.63514E+01 SP= 0.11E+02 SK= 0.69E-01 mag=     -0.000
       N       E                     dE             d eps       ncg     rms          rms(c)
DAV:   1    -0.239314871142E+03    0.79263E-01   -0.58726E-02  6016   0.203E+00    0.225E+00
RMM:   2    -0.239315332713E+03   -0.46157E-03   -0.44334E-02  4637   0.447E-01    0.110E+00
RMM:   3    -0.239315348535E+03   -0.15821E-04   -0.16319E-02  4136   0.241E-01
   1625 T=   789. E= -.22191031E+03 F= -.23931535E+03 E0= -.23931535E+03  EK= 0.64284E+01 SP= 0.11E+02 SK= 0.72E-01 mag=      0.000
       N       E                     dE             d eps       ncg     rms          rms(c)
DAV:   1    -0.239235999883E+03    0.79333E-01   -0.93508E-02  6312   0.198E+00    0.493E-01
RMM:   2    -0.239238382124E+03   -0.23822E-02   -0.51290E-02  4651   0.477E-01    0.419E-01
RMM:   3    -0.239239058112E+03   -0.67599E-03   -0.12539E-02  3953   0.235E-01
   1626 T=   800. E= -.22189849E+03 F= -.23923906E+03 E0= -.23923906E+03  EK= 0.65158E+01 SP= 0.11E+02 SK= 0.73E-01 mag=      0.000
       N       E                     dE             d eps       ncg     rms          rms(c)
DAV:   1    -0.239163813713E+03    0.74568E-01   -0.64984E-02  6088   0.200E+00    0.104E+00
RMM:   2    -0.239169474342E+03   -0.56606E-02   -0.56515E-02  4893   0.482E-01    0.882E-01
RMM:   3    -0.239170571790E+03   -0.10974E-02   -0.12160E-02  3634   0.227E-01
   1627 T=   812. E= -.22188918E+03 F= -.23917057E+03 E0= -.23917057E+03  EK= 0.66106E+01 SP= 0.11E+02 SK= 0.72E-01 mag=      0.000
       N       E                     dE             d eps       ncg     rms          rms(c)
DAV:   1    -0.239113190744E+03    0.56284E-01   -0.62784E-02  6000   0.205E+00    0.201E+00
RMM:   2    -0.239115646983E+03   -0.24562E-02   -0.50235E-02  4814   0.458E-01    0.951E-01
RMM:   3    -0.239116336201E+03   -0.68922E-03   -0.15083E-02  3771   0.235E-01
   1628 T=   825. E= -.22187809E+03 F= -.23911634E+03 E0= -.23911634E+03  EK= 0.67214E+01 SP= 0.10E+02 SK= 0.68E-01 mag=     -0.000
       N       E                     dE             d eps       ncg     rms          rms(c)
DAV:   1    -0.239076240389E+03    0.39407E-01   -0.69913E-02  6112   0.205E+00    0.406E-01
RMM:   2    -0.239079863718E+03   -0.36233E-02   -0.50142E-02  4586   0.486E-01    0.391E-01
RMM:   3    -0.239080846191E+03   -0.98247E-03   -0.13015E-02  3890   0.240E-01
   1629 T=   841. E= -.22186506E+03 F= -.23908085E+03 E0= -.23908085E+03  EK= 0.68503E+01 SP= 0.10E+02 SK= 0.62E-01 mag=     -0.000
       N       E                     dE             d eps       ncg     rms          rms(c)
DAV:   1    -0.239061078922E+03    0.18785E-01   -0.58879E-02  5904   0.208E+00    0.106E+00
RMM:   2    -0.239066467327E+03   -0.53884E-02   -0.52323E-02  4959   0.485E-01    0.890E-01
RMM:   3    -0.239067449000E+03   -0.98167E-03   -0.12680E-02  3502   0.231E-01
   1630 T=   859. E= -.22185429E+03 F= -.23906745E+03 E0= -.23906745E+03  EK= 0.69933E+01 SP= 0.10E+02 SK= 0.54E-01 mag=     -0.000
       N       E                     dE             d eps       ncg     rms          rms(c)
DAV:   1    -0.239076512482E+03   -0.10045E-01   -0.59606E-02  6000   0.215E+00    0.207E+00
RMM:   2    -0.239078902460E+03   -0.23900E-02   -0.48867E-02  4804   0.482E-01    0.102E+00
RMM:   3    -0.239079473625E+03   -0.57116E-03   -0.18803E-02  4223   0.270E-01
   1631 T=   878. E= -.22184247E+03 F= -.23907947E+03 E0= -.23907947E+03  EK= 0.71531E+01 SP= 0.10E+02 SK= 0.43E-01 mag=      0.000
       N       E                     dE             d eps       ncg     rms          rms(c)
DAV:   1    -0.239111668523E+03   -0.32766E-01   -0.67081E-02  6112   0.218E+00    0.418E-01
RMM:   2    -0.239115593522E+03   -0.39250E-02   -0.55467E-02  4534   0.544E-01    0.405E-01
RMM:   3    -0.239116815005E+03   -0.12215E-02   -0.15919E-02  4365   0.273E-01
   1632 T=   900. E= -.22182859E+03 F= -.23911682E+03 E0= -.23911682E+03  EK= 0.73260E+01 SP= 0.99E+01 SK= 0.31E-01 mag=      0.000
       N       E                     dE             d eps       ncg     rms          rms(c)
DAV:   1    -0.239169469077E+03   -0.53876E-01   -0.70148E-02  6104   0.221E+00    0.108E+00
RMM:   2    -0.239175092537E+03   -0.56235E-02   -0.54588E-02  4674   0.525E-01    0.879E-01
RMM:   3    -0.239175891916E+03   -0.79938E-03   -0.18269E-02  4192   0.306E-01
   1633 T=   921. E= -.22181572E+03 F= -.23917589E+03 E0= -.23917589E+03  EK= 0.74997E+01 SP= 0.98E+01 SK= 0.19E-01 mag=      0.000
       N       E                     dE             d eps       ncg     rms          rms(c)
DAV:   1    -0.239249999280E+03   -0.74907E-01   -0.73107E-02  6008   0.228E+00    0.204E+00
RMM:   2    -0.239252367048E+03   -0.23678E-02   -0.58355E-02  4491   0.546E-01    0.949E-01
RMM:   3    -0.239252549591E+03   -0.18254E-03   -0.25363E-02  4521   0.373E-01
   1634 T=   941. E= -.22180189E+03 F= -.23925255E+03 E0= -.23925255E+03  EK= 0.76660E+01 SP= 0.98E+01 SK= 0.81E-02 mag=      0.000
       N       E                     dE             d eps       ncg     rms          rms(c)
DAV:   1    -0.239333104161E+03   -0.80737E-01   -0.10638E-01  6000   0.241E+00    0.460E-01
RMM:   2    -0.239338518236E+03   -0.54141E-02   -0.75339E-02  4550   0.667E-01    0.351E-01
RMM:   3    -0.239340605202E+03   -0.20870E-02   -0.24864E-02  4832   0.350E-01
   1635 T=   959. E= -.22178823E+03 F= -.23934061E+03 E0= -.23934061E+03  EK= 0.78113E+01 SP= 0.97E+01 SK= 0.14E-02 mag=     -0.000
       N       E                     dE             d eps       ncg     rms          rms(c)
DAV:   1    -0.239419012063E+03   -0.80494E-01   -0.90735E-02  5992   0.237E+00    0.109E+00
RMM:   2    -0.239425733853E+03   -0.67218E-02   -0.67960E-02  4799   0.601E-01    0.934E-01
RMM:   3    -0.239427312406E+03   -0.15786E-02   -0.24484E-02  4496   0.358E-01
   1636 T=   972. E= -.22177297E+03 F= -.23942731E+03 E0= -.23942731E+03  EK= 0.79190E+01 SP= 0.97E+01 SK= 0.48E-03 mag=     -0.000
       N       E                     dE             d eps       ncg     rms          rms(c)
DAV:   1    -0.239504664378E+03   -0.78931E-01   -0.80543E-02  5960   0.238E+00    0.239E+00
RMM:   2    -0.239506559432E+03   -0.18951E-02   -0.65470E-02  4532   0.577E-01    0.112E+00
RMM:   3    -0.239506508014E+03    0.51419E-04   -0.32021E-02  4524   0.425E-01    0.393E-01
RMM:   4    -0.239508385788E+03   -0.18778E-02   -0.82723E-03  3493   0.218E-01
   1637 T=   979. E= -.22176345E+03 F= -.23950839E+03 E0= -.23950839E+03  EK= 0.79733E+01 SP= 0.98E+01 SK= 0.71E-02 mag=      0.000
       N       E                     dE             d eps       ncg     rms          rms(c)
DAV:   1    -0.239564429382E+03   -0.57921E-01   -0.77317E-02  6200   0.241E+00    0.520E-01
RMM:   2    -0.239569869236E+03   -0.54399E-02   -0.57640E-02  4495   0.518E-01    0.488E-01
RMM:   3    -0.239572013358E+03   -0.21441E-02   -0.17844E-02  4747   0.295E-01
   1638 T=   978. E= -.22175197E+03 F= -.23957201E+03 E0= -.23957201E+03  EK= 0.79680E+01 SP= 0.98E+01 SK= 0.22E-01 mag=      0.000
       N       E                     dE             d eps       ncg     rms          rms(c)
DAV:   1    -0.239604387796E+03   -0.34519E-01   -0.87242E-02  6040   0.232E+00    0.114E+00
RMM:   2    -0.239611290384E+03   -0.69026E-02   -0.57141E-02  4790   0.536E-01    0.914E-01
RMM:   3    -0.239611009663E+03    0.28072E-03   -0.22462E-02  3971   0.416E-01
   1639 T=   971. E= -.22172864E+03 F= -.23961101E+03 E0= -.23961101E+03  EK= 0.79067E+01 SP= 0.99E+01 SK= 0.44E-01 mag=     -0.000
       N       E                     dE             d eps       ncg     rms          rms(c)
DAV:   1    -0.239623846253E+03   -0.12556E-01   -0.85671E-02  6104   0.237E+00    0.233E+00
RMM:   2    -0.239628456404E+03   -0.46102E-02   -0.71128E-02  4876   0.586E-01    0.978E-01
RMM:   3    -0.239627949009E+03    0.50739E-03   -0.23074E-02  4150   0.411E-01
   1640 T=   956. E= -.22170752E+03 F= -.23962795E+03 E0= -.23962795E+03  EK= 0.77813E+01 SP= 0.10E+02 SK= 0.72E-01 mag=     -0.000
       N       E                     dE             d eps       ncg     rms          rms(c)
DAV:   1    -0.239607042768E+03    0.21414E-01   -0.11553E-01  5544   0.247E+00    0.441E-01
RMM:   2    -0.239615628129E+03   -0.85854E-02   -0.83366E-02  4547   0.663E-01    0.408E-01
RMM:   3    -0.239618739053E+03   -0.31109E-02   -0.28783E-02  5013   0.370E-01
   1641 T=   932. E= -.22169297E+03 F= -.23961874E+03 E0= -.23961874E+03  EK= 0.75897E+01 SP= 0.10E+02 SK= 0.10E+00 mag=      0.000
       N       E                     dE             d eps       ncg     rms          rms(c)
DAV:   1    -0.239575601076E+03    0.40027E-01   -0.10596E-01  6112   0.235E+00    0.153E+00
RMM:   2    -0.239579742207E+03   -0.41411E-02   -0.64627E-02  4651   0.561E-01    0.116E+00
RMM:   3    -0.239578234384E+03    0.15078E-02   -0.35654E-02  4198   0.503E-01    0.377E-01
RMM:   4    -0.239582480151E+03   -0.42458E-02   -0.13974E-02  4239   0.300E-01    0.146E-01
RMM:   5    -0.239582047626E+03    0.43252E-03   -0.19730E-03  2542   0.119E-01
   1642 T=   902. E= -.22168180E+03 F= -.23958205E+03 E0= -.23958205E+03  EK= 0.73425E+01 SP= 0.10E+02 SK= 0.13E+00 mag=      0.000
       N       E                     dE             d eps       ncg     rms          rms(c)
DAV:   1    -0.239522800818E+03    0.59679E-01   -0.44608E-02  5936   0.214E+00    0.220E+00
RMM:   2    -0.239524389009E+03   -0.15882E-02   -0.57681E-02  4774   0.493E-01    0.107E+00
RMM:   3    -0.239524695463E+03   -0.30645E-03   -0.18784E-02  4261   0.279E-01
   1643 T=   867. E= -.22167219E+03 F= -.23952470E+03 E0= -.23952470E+03  EK= 0.70585E+01 SP= 0.11E+02 SK= 0.15E+00 mag=     -0.000
       N       E                     dE             d eps       ncg     rms          rms(c)
DAV:   1    -0.239444298569E+03    0.80090E-01   -0.62549E-02  6080   0.221E+00    0.256E-01
RMM:   2    -0.239448578979E+03   -0.42804E-02   -0.50805E-02  4669   0.512E-01    0.264E-01
RMM:   3    -0.239450003777E+03   -0.14248E-02   -0.15186E-02  4086   0.266E-01
   1644 T=   830. E= -.22165495E+03 F= -.23945000E+03 E0= -.23945000E+03  EK= 0.67600E+01 SP= 0.11E+02 SK= 0.17E+00 mag=     -0.000
       N       E                     dE             d eps       ncg     rms          rms(c)
DAV:   1    -0.239355486988E+03    0.93092E-01   -0.44821E-02  5968   0.213E+00    0.924E-01
RMM:   2    -0.239360373136E+03   -0.48861E-02   -0.44429E-02  4678   0.501E-01    0.742E-01
RMM:   3    -0.239360798094E+03   -0.42496E-03   -0.14087E-02  3746   0.308E-01
   1645 T=   793. E= -.22163277E+03 F= -.23936080E+03 E0= -.23936080E+03  EK= 0.64563E+01 SP= 0.11E+02 SK= 0.17E+00 mag=      0.000
       N       E                     dE             d eps       ncg     rms          rms(c)
DAV:   1    -0.239259361393E+03    0.10101E+00   -0.54436E-02  6016   0.210E+00    0.156E+00
RMM:   2    -0.239263587125E+03   -0.42257E-02   -0.46426E-02  4839   0.521E-01    0.658E-01
RMM:   3    -0.239264178503E+03   -0.59138E-03   -0.15317E-02  3938   0.334E-01
   1646 T=   756. E= -.22161497E+03 F= -.23926418E+03 E0= -.23926418E+03  EK= 0.61529E+01 SP= 0.11E+02 SK= 0.16E+00 mag=     -0.000
       N       E                     dE             d eps       ncg     rms          rms(c)
DAV:   1    -0.239157252166E+03    0.10633E+00   -0.54589E-02  5928   0.213E+00    0.299E-01
RMM:   2    -0.239162623896E+03   -0.53717E-02   -0.48454E-02  4481   0.554E-01    0.248E-01
RMM:   3    -0.239164509632E+03   -0.18857E-02   -0.16450E-02  4457   0.293E-01
   1647 T=   720. E= -.22160147E+03 F= -.23916451E+03 E0= -.23916451E+03  EK= 0.58610E+01 SP= 0.12E+02 SK= 0.14E+00 mag=     -0.000
       N       E                     dE             d eps       ncg     rms          rms(c)
DAV:   1    -0.239058145135E+03    0.10448E+00   -0.49575E-02  6048   0.201E+00    0.843E-01
RMM:   2    -0.239061828056E+03   -0.36829E-02   -0.37578E-02  4666   0.470E-01    0.669E-01
RMM:   3    -0.239062493319E+03   -0.66526E-03   -0.15495E-02  3878   0.324E-01
   1648 T=   687. E= -.22158506E+03 F= -.23906249E+03 E0= -.23906249E+03  EK= 0.55932E+01 SP= 0.12E+02 SK= 0.12E+00 mag=     -0.000
       N       E                     dE             d eps       ncg     rms          rms(c)
DAV:   1    -0.238963731196E+03    0.98097E-01   -0.48220E-02  6256   0.191E+00    0.171E+00
RMM:   2    -0.238964806882E+03   -0.10757E-02   -0.44633E-02  4825   0.493E-01    0.695E-01
RMM:   3    -0.238964376511E+03    0.43037E-03   -0.15488E-02  3923   0.303E-01
   1649 T=   657. E= -.22157169E+03 F= -.23896438E+03 E0= -.23896438E+03  EK= 0.53535E+01 SP= 0.12E+02 SK= 0.90E-01 mag=      0.000
       N       E                     dE             d eps       ncg     rms          rms(c)
DAV:   1    -0.238867479051E+03    0.97328E-01   -0.76921E-02  6136   0.201E+00    0.353E-01
RMM:   2    -0.238871378831E+03   -0.38998E-02   -0.51287E-02  4440   0.563E-01    0.287E-01
RMM:   3    -0.238872814664E+03   -0.14358E-02   -0.17306E-02  4526   0.296E-01
   1650 T=   632. E= -.22156306E+03 F= -.23887281E+03 E0= -.23887281E+03  EK= 0.51450E+01 SP= 0.12E+02 SK= 0.60E-01 mag=      0.000
       N       E                     dE             d eps       ncg     rms          rms(c)
DAV:   1    -0.238784154586E+03    0.87224E-01   -0.48068E-02  6104   0.190E+00    0.974E-01
RMM:   2    -0.238786689089E+03   -0.25345E-02   -0.44836E-02  4879   0.482E-01    0.798E-01
RMM:   3    -0.238787141892E+03   -0.45280E-03   -0.15349E-02  3739   0.291E-01
   1651 T=   611. E= -.22154972E+03 F= -.23878714E+03 E0= -.23878714E+03  EK= 0.49778E+01 SP= 0.12E+02 SK= 0.33E-01 mag=     -0.000
       N       E                     dE             d eps       ncg     rms          rms(c)
DAV:   1    -0.238713209842E+03    0.73479E-01   -0.47581E-02  5896   0.185E+00    0.178E+00
RMM:   2    -0.238711264704E+03    0.19451E-02   -0.39734E-02  4461   0.445E-01    0.810E-01
RMM:   3    -0.238710380025E+03    0.88468E-03   -0.22599E-02  4096   0.370E-01
   1652 T=   595. E= -.22153999E+03 F= -.23871038E+03 E0= -.23871038E+03  EK= 0.48473E+01 SP= 0.12E+02 SK= 0.12E-01 mag=      0.000
       N       E                     dE             d eps       ncg     rms          rms(c)
DAV:   1    -0.238641840290E+03    0.69424E-01   -0.90107E-02  6176   0.200E+00    0.542E-01
RMM:   2    -0.238644134350E+03   -0.22941E-02   -0.58928E-02  4558   0.591E-01    0.367E-01
RMM:   3    -0.238645550892E+03   -0.14165E-02   -0.21260E-02  4688   0.329E-01
   1653 T=   584. E= -.22153645E+03 F= -.23864555E+03 E0= -.23864555E+03  EK= 0.47545E+01 SP= 0.12E+02 SK= 0.14E-02 mag=      0.000
       N       E                     dE             d eps       ncg     rms          rms(c)
DAV:   1    -0.238583735788E+03    0.60399E-01   -0.94675E-02  6200   0.188E+00    0.104E+00
RMM:   2    -0.238586980853E+03   -0.32451E-02   -0.45781E-02  4673   0.514E-01    0.839E-01
RMM:   3    -0.238587937511E+03   -0.95666E-03   -0.19937E-02  4317   0.329E-01
   1654 T=   578. E= -.22152541E+03 F= -.23858794E+03 E0= -.23858794E+03  EK= 0.47085E+01 SP= 0.12E+02 SK= 0.17E-02 mag=     -0.000
       N       E                     dE             d eps       ncg     rms          rms(c)
DAV:   1    -0.238543635259E+03    0.43346E-01   -0.44466E-02  5768   0.181E+00    0.199E+00
RMM:   2    -0.238540797246E+03    0.28380E-02   -0.47987E-02  4505   0.482E-01    0.912E-01
RMM:   3    -0.238540486112E+03    0.31113E-03   -0.28319E-02  4410   0.357E-01
   1655 T=   577. E= -.22151914E+03 F= -.23854049E+03 E0= -.23854049E+03  EK= 0.47001E+01 SP= 0.12E+02 SK= 0.14E-01 mag=      0.000
       N       E                     dE             d eps       ncg     rms          rms(c)
DAV:   1    -0.238501543866E+03    0.39253E-01   -0.75708E-02  5984   0.198E+00    0.592E-01
RMM:   2    -0.238502556439E+03   -0.10126E-02   -0.59445E-02  4337   0.596E-01    0.367E-01
RMM:   3    -0.238503248164E+03   -0.69172E-03   -0.18126E-02  4674   0.312E-01
   1656 T=   581. E= -.22151755E+03 F= -.23850325E+03 E0= -.23850325E+03  EK= 0.47299E+01 SP= 0.12E+02 SK= 0.39E-01 mag=      0.000
       N       E                     dE             d eps       ncg     rms          rms(c)
DAV:   1    -0.238465614814E+03    0.36942E-01   -0.83866E-02  6224   0.185E+00    0.870E-01
RMM:   2    -0.238469814447E+03   -0.41996E-02   -0.49658E-02  4526   0.530E-01    0.773E-01
RMM:   3    -0.238471177777E+03   -0.13633E-02   -0.15946E-02  4529   0.275E-01
   1657 T=   590. E= -.22151016E+03 F= -.23847118E+03 E0= -.23847118E+03  EK= 0.48038E+01 SP= 0.12E+02 SK= 0.75E-01 mag=      0.000
       N       E                     dE             d eps       ncg     rms          rms(c)
DAV:   1    -0.238442945193E+03    0.26869E-01   -0.46665E-02  5904   0.178E+00    0.112E+00
RMM:   2    -0.238443779960E+03   -0.83477E-03   -0.39303E-02  4467   0.442E-01    0.483E-01
RMM:   3    -0.238444690207E+03   -0.91025E-03   -0.16578E-02  4397   0.268E-01
   1658 T=   603. E= -.22150588E+03 F= -.23844469E+03 E0= -.23844469E+03  EK= 0.49135E+01 SP= 0.12E+02 SK= 0.12E+00 mag=     -0.000
       N       E                     dE             d eps       ncg     rms          rms(c)
DAV:   1    -0.238416821387E+03    0.26959E-01   -0.38057E-02  5784   0.187E+00    0.733E-01
RMM:   2    -0.238420026351E+03   -0.32050E-02   -0.41893E-02  4260   0.497E-01    0.286E-01
RMM:   3    -0.238420997148E+03   -0.97080E-03   -0.11824E-02  4158   0.250E-01
   1659 T=   621. E= -.22150292E+03 F= -.23842100E+03 E0= -.23842100E+03  EK= 0.50585E+01 SP= 0.12E+02 SK= 0.17E+00 mag=     -0.000
       N       E                     dE             d eps       ncg     rms          rms(c)
DAV:   1    -0.238393161607E+03    0.26865E-01   -0.50416E-02  6000   0.185E+00    0.301E-01
RMM:   2    -0.238397148976E+03   -0.39874E-02   -0.40245E-02  4429   0.510E-01    0.276E-01
RMM:   3    -0.238398344379E+03   -0.11954E-02   -0.12500E-02  4305   0.236E-01
   1660 T=   644. E= -.22149783E+03 F= -.23839834E+03 E0= -.23839834E+03  EK= 0.52405E+01 SP= 0.11E+02 SK= 0.22E+00 mag=      0.000
       N       E                     dE             d eps       ncg     rms          rms(c)
DAV:   1    -0.238370112581E+03    0.27036E-01   -0.38842E-02  5784   0.185E+00    0.662E-01
RMM:   2    -0.238372704981E+03   -0.25924E-02   -0.31728E-02  4621   0.441E-01
   1661 T=   670. E= -.22148590E+03 F= -.23837270E+03 E0= -.23837270E+03  EK= 0.54598E+01 SP= 0.11E+02 SK= 0.27E+00 mag=     -0.000
       N       E                     dE             d eps       ncg     rms          rms(c)
DAV:   1    -0.238335012855E+03    0.35100E-01   -0.11387E-01  6304   0.217E+00    0.147E+00
RMM:   2    -0.238343388046E+03   -0.83752E-02   -0.86351E-02  5246   0.628E-01    0.376E-01
RMM:   3    -0.238344204889E+03   -0.81684E-03   -0.18495E-02  4158   0.355E-01
   1662 T=   701. E= -.22147337E+03 F= -.23834420E+03 E0= -.23834420E+03  EK= 0.57094E+01 SP= 0.11E+02 SK= 0.32E+00 mag=     -0.000
       N       E                     dE             d eps       ncg     rms          rms(c)
DAV:   1    -0.238298250787E+03    0.45137E-01   -0.14609E-01  5864   0.207E+00    0.605E-01
RMM:   2    -0.238306061751E+03   -0.78110E-02   -0.56779E-02  4853   0.536E-01    0.257E-01
RMM:   3    -0.238308670520E+03   -0.26088E-02   -0.18749E-02  4305   0.305E-01
   1663 T=   734. E= -.22146765E+03 F= -.23830867E+03 E0= -.23830867E+03  EK= 0.59751E+01 SP= 0.11E+02 SK= 0.35E+00 mag=      0.000
       N       E                     dE             d eps       ncg     rms          rms(c)
DAV:   1    -0.238257623802E+03    0.48438E-01   -0.52304E-02  5952   0.205E+00    0.427E-01
RMM:   2    -0.238262001812E+03   -0.43780E-02   -0.65736E-02  4803   0.522E-01    0.513E-01
RMM:   3    -0.238263842295E+03   -0.18405E-02   -0.15443E-02  4076   0.266E-01
   1664 T=   768. E= -.22146607E+03 F= -.23826384E+03 E0= -.23826384E+03  EK= 0.62535E+01 SP= 0.10E+02 SK= 0.37E+00 mag=      0.000
       N       E                     dE             d eps       ncg     rms          rms(c)
DAV:   1    -0.238203256270E+03    0.58746E-01   -0.56482E-02  6048   0.209E+00    0.600E-01
RMM:   2    -0.238207121712E+03   -0.38654E-02   -0.44542E-02  4640   0.466E-01    0.540E-01
RMM:   3    -0.238208412833E+03   -0.12911E-02   -0.12728E-02  3934   0.273E-01
   1665 T=   804. E= -.22145989E+03 F= -.23820841E+03 E0= -.23820841E+03  EK= 0.65473E+01 SP= 0.98E+01 SK= 0.38E+00 mag=     -0.000
       N       E                     dE             d eps       ncg     rms          rms(c)
DAV:   1    -0.238131360942E+03    0.75761E-01   -0.70705E-02  6224   0.214E+00    0.148E+00
RMM:   2    -0.238139361938E+03   -0.80010E-02   -0.55597E-02  5093   0.512E-01    0.550E-01
RMM:   3    -0.238140580658E+03   -0.12187E-02   -0.14969E-02  3687   0.374E-01
   1666 T=   841. E= -.22145008E+03 F= -.23814058E+03 E0= -.23814058E+03  EK= 0.68472E+01 SP= 0.95E+01 SK= 0.37E+00 mag=     -0.000
       N       E                     dE             d eps       ncg     rms          rms(c)
DAV:   1    -0.238051776904E+03    0.87585E-01   -0.86889E-02  6120   0.222E+00    0.558E-01
RMM:   2    -0.238059474157E+03   -0.76973E-02   -0.64765E-02  4926   0.560E-01    0.259E-01
RMM:   3    -0.238061523559E+03   -0.20494E-02   -0.15391E-02  4080   0.297E-01
   1667 T=   877. E= -.22144382E+03 F= -.23806152E+03 E0= -.23806152E+03  EK= 0.71394E+01 SP= 0.91E+01 SK= 0.34E+00 mag=      0.000
       N       E                     dE             d eps       ncg     rms          rms(c)
DAV:   1    -0.237962871755E+03    0.96602E-01   -0.72349E-02  6160   0.224E+00    0.541E-01
RMM:   2    -0.237967589828E+03   -0.47181E-02   -0.51575E-02  4643   0.549E-01    0.528E-01
RMM:   3    -0.237969252446E+03   -0.16626E-02   -0.16839E-02  4455   0.279E-01
   1668 T=   911. E= -.22143470E+03 F= -.23796925E+03 E0= -.23796925E+03  EK= 0.74189E+01 SP= 0.88E+01 SK= 0.31E+00 mag=      0.000
       N       E                     dE             d eps       ncg     rms          rms(c)
DAV:   1    -0.237859650825E+03    0.10794E+00   -0.60556E-02  6200   0.221E+00    0.515E-01
RMM:   2    -0.237864431096E+03   -0.47803E-02   -0.51071E-02  4771   0.521E-01    0.505E-01
RMM:   3    -0.237865694938E+03   -0.12638E-02   -0.13171E-02  4041   0.252E-01
   1669 T=   943. E= -.22142260E+03 F= -.23786569E+03 E0= -.23786569E+03  EK= 0.76777E+01 SP= 0.85E+01 SK= 0.26E+00 mag=     -0.000
       N       E                     dE             d eps       ncg     rms          rms(c)
DAV:   1    -0.237740264467E+03    0.12417E+00   -0.65907E-02  6160   0.230E+00    0.143E+00
RMM:   2    -0.237750372620E+03   -0.10108E-01   -0.52847E-02  4781   0.520E-01    0.565E-01
RMM:   3    -0.237751772406E+03   -0.13998E-02   -0.20892E-02  3797   0.452E-01
   1670 T=   971. E= -.22140870E+03 F= -.23775177E+03 E0= -.23775177E+03  EK= 0.79050E+01 SP= 0.82E+01 SK= 0.21E+00 mag=     -0.000
       N       E                     dE             d eps       ncg     rms          rms(c)
DAV:   1    -0.237623511687E+03    0.12686E+00   -0.96967E-02  6032   0.241E+00    0.603E-01
RMM:   2    -0.237634130417E+03   -0.10619E-01   -0.72576E-02  5004   0.572E-01    0.293E-01
RMM:   3    -0.237637574600E+03   -0.34442E-02   -0.18316E-02  4211   0.355E-01    0.325E-01
RMM:   4    -0.237637713357E+03   -0.13876E-03   -0.21742E-03  2621   0.133E-01
   1671 T=   994. E= -.22140127E+03 F= -.23763771E+03 E0= -.23763771E+03  EK= 0.80923E+01 SP= 0.80E+01 SK= 0.15E+00 mag=     -0.000
       N       E                     dE             d eps       ncg     rms          rms(c)
DAV:   1    -0.237512695522E+03    0.12488E+00   -0.74440E-02  6264   0.237E+00    0.483E-01
RMM:   2    -0.237519635156E+03   -0.69396E-02   -0.51406E-02  5035   0.486E-01    0.553E-01
RMM:   3    -0.237521191052E+03   -0.15559E-02   -0.10585E-02  3601   0.226E-01
   1672 T=  1012. E= -.22139014E+03 F= -.23752119E+03 E0= -.23752119E+03  EK= 0.82383E+01 SP= 0.78E+01 SK= 0.10E+00 mag=      0.000
       N       E                     dE             d eps       ncg     rms          rms(c)
DAV:   1    -0.237399941482E+03    0.11969E+00   -0.72966E-02  6120   0.228E+00    0.120E+00
RMM:   2    -0.237407885979E+03   -0.79445E-02   -0.61210E-02  4593   0.615E-01    0.922E-01
RMM:   3    -0.237407337285E+03    0.54869E-03   -0.20759E-02  4198   0.406E-01
   1673 T=  1024. E= -.22137321E+03 F= -.23740734E+03 E0= -.23740734E+03  EK= 0.83426E+01 SP= 0.76E+01 SK= 0.57E-01 mag=     -0.000
       N       E                     dE             d eps       ncg     rms          rms(c)
DAV:   1    -0.237300144068E+03    0.10774E+00   -0.92604E-02  6216   0.241E+00    0.288E+00
RMM:   2    -0.237307279765E+03   -0.71357E-02   -0.76410E-02  5257   0.570E-01    0.120E+00
RMM:   3    -0.237306747778E+03    0.53199E-03   -0.18856E-02  3874   0.411E-01
   1674 T=  1032. E= -.22135581E+03 F= -.23730675E+03 E0= -.23730675E+03  EK= 0.84048E+01 SP= 0.75E+01 SK= 0.25E-01 mag=      0.000
       N       E                     dE             d eps       ncg     rms          rms(c)
DAV:   1    -0.237211049897E+03    0.96230E-01   -0.12597E-01  5880   0.251E+00    0.443E-01
RMM:   2    -0.237218531139E+03   -0.74812E-02   -0.86100E-02  4659   0.777E-01    0.386E-01
RMM:   3    -0.237220994043E+03   -0.24629E-02   -0.27234E-02  5094   0.392E-01
   1675 T=  1034. E= -.22133892E+03 F= -.23722099E+03 E0= -.23722099E+03  EK= 0.84218E+01 SP= 0.75E+01 SK= 0.58E-02 mag=      0.000
       N       E                     dE             d eps       ncg     rms          rms(c)
DAV:   1    -0.237142379995E+03    0.76151E-01   -0.88722E-02  5960   0.244E+00    0.160E+00
RMM:   2    -0.237147962153E+03   -0.55822E-02   -0.73796E-02  4476   0.647E-01    0.125E+00
RMM:   3    -0.237146859321E+03    0.11028E-02   -0.38958E-02  4442   0.530E-01    0.276E-01
RMM:   4    -0.237150400241E+03   -0.35409E-02   -0.11349E-02  3772   0.344E-01    0.131E-01
RMM:   5    -0.237150497308E+03   -0.97067E-04   -0.23690E-03  2493   0.127E-01
   1676 T=  1030. E= -.22132809E+03 F= -.23715050E+03 E0= -.23715050E+03  EK= 0.83874E+01 SP= 0.74E+01 SK= 0.40E-04 mag=     -0.000
       N       E                     dE             d eps       ncg     rms          rms(c)
DAV:   1    -0.237094568725E+03    0.55832E-01   -0.62877E-02  6216   0.228E+00    0.224E+00
RMM:   2    -0.237098782654E+03   -0.42139E-02   -0.70869E-02  5081   0.521E-01    0.103E+00
RMM:   3    -0.237099421440E+03   -0.63879E-03   -0.15882E-02  3898   0.271E-01
   1677 T=  1021. E= -.22131849E+03 F= -.23709942E+03 E0= -.23709942E+03  EK= 0.83119E+01 SP= 0.75E+01 SK= 0.74E-02 mag=     -0.000
       N       E                     dE             d eps       ncg     rms          rms(c)
DAV:   1    -0.237059210160E+03    0.39572E-01   -0.89760E-02  6168   0.234E+00    0.268E-01
RMM:   2    -0.237065680148E+03   -0.64700E-02   -0.63813E-02  4988   0.560E-01    0.276E-01
RMM:   3    -0.237067615671E+03   -0.19355E-02   -0.16194E-02  4065   0.283E-01
   1678 T=  1008. E= -.22130385E+03 F= -.23706762E+03 E0= -.23706762E+03  EK= 0.82049E+01 SP= 0.75E+01 SK= 0.26E-01 mag=      0.000
       N       E                     dE             d eps       ncg     rms          rms(c)
DAV:   1    -0.237044182276E+03    0.21498E-01   -0.64310E-02  6144   0.230E+00    0.882E-01
RMM:   2    -0.237050902199E+03   -0.67199E-02   -0.55084E-02  4938   0.502E-01    0.833E-01
RMM:   3    -0.237052424217E+03   -0.15220E-02   -0.12611E-02  3556   0.292E-01
   1679 T=   990. E= -.22128922E+03 F= -.23705242E+03 E0= -.23705242E+03  EK= 0.80638E+01 SP= 0.76E+01 SK= 0.54E-01 mag=     -0.000
       N       E                     dE             d eps       ncg     rms          rms(c)
DAV:   1    -0.237040934148E+03    0.99681E-02   -0.43689E-02  5960   0.227E+00    0.229E+00
RMM:   2    -0.237047290192E+03   -0.63560E-02   -0.47317E-02  4940   0.475E-01    0.106E+00
RMM:   3    -0.237046992681E+03    0.29751E-03   -0.16855E-02  3741   0.416E-01
   1680 T=   969. E= -.22127378E+03 F= -.23704699E+03 E0= -.23704699E+03  EK= 0.78894E+01 SP= 0.78E+01 SK= 0.88E-01 mag=     -0.000
       N       E                     dE             d eps       ncg     rms          rms(c)
DAV:   1    -0.237041561071E+03    0.57291E-02   -0.70152E-02  6048   0.236E+00    0.506E-01
RMM:   2    -0.237049188454E+03   -0.76274E-02   -0.66159E-02  4698   0.610E-01    0.574E-01
RMM:   3    -0.237051564224E+03   -0.23758E-02   -0.19070E-02  4627   0.310E-01
   1681 T=   944. E= -.22126353E+03 F= -.23705156E+03 E0= -.23705156E+03  EK= 0.76836E+01 SP= 0.80E+01 SK= 0.12E+00 mag=      0.000
       N       E                     dE             d eps       ncg     rms          rms(c)
DAV:   1    -0.237050447292E+03   -0.12588E-02   -0.56754E-02  5864   0.229E+00    0.228E+00
RMM:   2    -0.237053740282E+03   -0.32930E-02   -0.45880E-02  4696   0.507E-01    0.157E+00
RMM:   3    -0.237049105438E+03    0.46348E-02   -0.34207E-02  3878   0.569E-01    0.370E-01
RMM:   4    -0.237055348373E+03   -0.62429E-02   -0.94883E-03  3697   0.325E-01    0.106E-01
RMM:   5    -0.237055340145E+03    0.82274E-05   -0.25551E-03  2485   0.140E-01
   1682 T=   915. E= -.22125479E+03 F= -.23705534E+03 E0= -.23705534E+03  EK= 0.74483E+01 SP= 0.82E+01 SK= 0.16E+00 mag=     -0.000
       N       E                     dE             d eps       ncg     rms          rms(c)
DAV:   1    -0.237053465329E+03    0.18830E-02   -0.50812E-02  5984   0.210E+00    0.305E+00
RMM:   2    -0.237055544560E+03   -0.20792E-02   -0.47904E-02  5015   0.457E-01    0.155E+00
RMM:   3    -0.237055004615E+03    0.53995E-03   -0.14064E-02  3880   0.287E-01
   1683 T=   883. E= -.22124777E+03 F= -.23705500E+03 E0= -.23705500E+03  EK= 0.71895E+01 SP= 0.84E+01 SK= 0.19E+00 mag=     -0.000
       N       E                     dE             d eps       ncg     rms          rms(c)
DAV:   1    -0.237043227072E+03    0.12317E-01   -0.57254E-02  6056   0.216E+00    0.340E-01
RMM:   2    -0.237047856446E+03   -0.46294E-02   -0.53130E-02  4805   0.555E-01    0.406E-01
RMM:   3    -0.237049323322E+03   -0.14669E-02   -0.15092E-02  4224   0.267E-01
   1684 T=   850. E= -.22123950E+03 F= -.23704932E+03 E0= -.23704932E+03  EK= 0.69181E+01 SP= 0.87E+01 SK= 0.21E+00 mag=      0.000
       N       E                     dE             d eps       ncg     rms          rms(c)
DAV:   1    -0.237031455693E+03    0.16401E-01   -0.67588E-02  6072   0.208E+00    0.164E+00
RMM:   2    -0.237035675436E+03   -0.42197E-02   -0.46555E-02  4642   0.510E-01    0.121E+00
RMM:   3    -0.237035368118E+03    0.30732E-03   -0.16344E-02  4136   0.345E-01
   1685 T=   816. E= -.22122449E+03 F= -.23703537E+03 E0= -.23703537E+03  EK= 0.66453E+01 SP= 0.89E+01 SK= 0.22E+00 mag=     -0.000
       N       E                     dE             d eps       ncg     rms          rms(c)
DAV:   1    -0.237016609700E+03    0.19066E-01   -0.57186E-02  5960   0.205E+00    0.255E+00
RMM:   2    -0.237019341245E+03   -0.27315E-02   -0.58923E-02  4729   0.546E-01    0.117E+00
RMM:   3    -0.237019293103E+03    0.48142E-04   -0.19857E-02  4291   0.347E-01
   1686 T=   783. E= -.22121400E+03 F= -.23701929E+03 E0= -.23701929E+03  EK= 0.63737E+01 SP= 0.92E+01 SK= 0.22E+00 mag=     -0.000
       N       E                     dE             d eps       ncg     rms          rms(c)
DAV:   1    -0.236997772767E+03    0.21568E-01   -0.84745E-02  5752   0.214E+00    0.444E-01
RMM:   2    -0.237002631876E+03   -0.48591E-02   -0.64694E-02  4427   0.626E-01    0.406E-01
RMM:   3    -0.237004364931E+03   -0.17331E-02   -0.19684E-02  4739   0.314E-01
   1687 T=   751. E= -.22120867E+03 F= -.23700436E+03 E0= -.23700436E+03  EK= 0.61121E+01 SP= 0.95E+01 SK= 0.21E+00 mag=      0.000
       N       E                     dE             d eps       ncg     rms          rms(c)
DAV:   1    -0.236989737009E+03    0.12895E-01   -0.61990E-02  5888   0.200E+00    0.139E+00
RMM:   2    -0.236993596301E+03   -0.38593E-02   -0.51273E-02  4665   0.517E-01    0.109E+00
RMM:   3    -0.236993504354E+03    0.91947E-04   -0.19962E-02  4219   0.370E-01
   1688 T=   722. E= -.22119519E+03 F= -.23699350E+03 E0= -.23699350E+03  EK= 0.58819E+01 SP= 0.97E+01 SK= 0.19E+00 mag=     -0.000
       N       E                     dE             d eps       ncg     rms          rms(c)
DAV:   1    -0.237000218941E+03   -0.66226E-02   -0.79227E-02  5992   0.195E+00    0.262E+00
RMM:   2    -0.236998849980E+03    0.13690E-02   -0.61850E-02  4560   0.536E-01    0.116E+00
RMM:   3    -0.236997552850E+03    0.12971E-02   -0.27968E-02  4263   0.406E-01
   1689 T=   698. E= -.22118622E+03 F= -.23699755E+03 E0= -.23699755E+03  EK= 0.56841E+01 SP= 0.10E+02 SK= 0.16E+00 mag=     -0.000
       N       E                     dE             d eps       ncg     rms          rms(c)
DAV:   1    -0.237018573355E+03   -0.19723E-01   -0.11239E-01  5800   0.213E+00    0.558E-01
RMM:   2    -0.237021561261E+03   -0.29879E-02   -0.78488E-02  4520   0.664E-01    0.491E-01
RMM:   3    -0.237023268950E+03   -0.17077E-02   -0.26348E-02  4872   0.358E-01
   1690 T=   678. E= -.22118515E+03 F= -.23702327E+03 E0= -.23702327E+03  EK= 0.55242E+01 SP= 0.10E+02 SK= 0.13E+00 mag=      0.000
       N       E                     dE             d eps       ncg     rms          rms(c)
DAV:   1    -0.237066588312E+03   -0.45027E-01   -0.10637E-01  6032   0.197E+00    0.163E+00
RMM:   2    -0.237070498417E+03   -0.39101E-02   -0.68408E-02  4798   0.547E-01    0.131E+00
RMM:   3    -0.237070306253E+03    0.19216E-03   -0.25159E-02  4373   0.393E-01
   1691 T=   666. E= -.22117207E+03 F= -.23707031E+03 E0= -.23707031E+03  EK= 0.54225E+01 SP= 0.10E+02 SK= 0.99E-01 mag=     -0.000
       N       E                     dE             d eps       ncg     rms          rms(c)
DAV:   1    -0.237157624388E+03   -0.87126E-01   -0.84226E-02  5600   0.196E+00    0.304E+00
RMM:   2    -0.237151805918E+03    0.58185E-02   -0.74483E-02  4477   0.539E-01    0.139E+00
RMM:   3    -0.237149869469E+03    0.19364E-02   -0.44338E-02  4370   0.465E-01    0.486E-01
RMM:   4    -0.237152196307E+03   -0.23268E-02   -0.99064E-03  3778   0.245E-01
   1692 T=   660. E= -.22116647E+03 F= -.23715220E+03 E0= -.23715220E+03  EK= 0.53729E+01 SP= 0.11E+02 SK= 0.71E-01 mag=     -0.000
       N       E                     dE             d eps       ncg     rms          rms(c)
DAV:   1    -0.237261630475E+03   -0.11176E+00   -0.85601E-02  6008   0.207E+00    0.648E-01
RMM:   2    -0.237263596695E+03   -0.19662E-02   -0.59781E-02  4222   0.485E-01    0.600E-01
RMM:   3    -0.237265284662E+03   -0.16880E-02   -0.17488E-02  4697   0.303E-01
   1693 T=   660. E= -.22116407E+03 F= -.23726528E+03 E0= -.23726528E+03  EK= 0.53751E+01 SP= 0.11E+02 SK= 0.47E-01 mag=      0.000
       N       E                     dE             d eps       ncg     rms          rms(c)
DAV:   1    -0.237404405075E+03   -0.14081E+00   -0.58269E-02  6024   0.182E+00    0.129E+00
RMM:   2    -0.237409455256E+03   -0.50502E-02   -0.47399E-02  4688   0.478E-01    0.103E+00
RMM:   3    -0.237409181558E+03    0.27370E-03   -0.17594E-02  3830   0.398E-01
   1694 T=   668. E= -.22115190E+03 F= -.23740918E+03 E0= -.23740918E+03  EK= 0.54406E+01 SP= 0.11E+02 SK= 0.29E-01 mag=     -0.000
       N       E                     dE             d eps       ncg     rms          rms(c)
DAV:   1    -0.237588728251E+03   -0.17927E+00   -0.80780E-02  6008   0.188E+00    0.245E+00
RMM:   2    -0.237588926151E+03   -0.19790E-03   -0.55063E-02  4908   0.487E-01    0.108E+00
RMM:   3    -0.237587106159E+03    0.18200E-02   -0.21241E-02  3936   0.406E-01
   1695 T=   682. E= -.22114639E+03 F= -.23758711E+03 E0= -.23758711E+03  EK= 0.55545E+01 SP= 0.11E+02 SK= 0.16E-01 mag=      0.000
       N       E                     dE             d eps       ncg     rms          rms(c)
DAV:   1    -0.237788639168E+03   -0.19971E+00   -0.10535E-01  5416   0.214E+00    0.578E-01
RMM:   2    -0.237793962816E+03   -0.53236E-02   -0.75301E-02  4539   0.625E-01    0.475E-01
RMM:   3    -0.237796098558E+03   -0.21357E-02   -0.24524E-02  4902   0.357E-01
   1696 T=   701. E= -.22114984E+03 F= -.23779610E+03 E0= -.23779610E+03  EK= 0.57092E+01 SP= 0.11E+02 SK= 0.74E-02 mag=      0.000
       N       E                     dE             d eps       ncg     rms          rms(c)
DAV:   1    -0.238021734970E+03   -0.22777E+00   -0.93895E-02  5928   0.203E+00    0.160E+00
RMM:   2    -0.238024143298E+03   -0.24083E-02   -0.64755E-02  4602   0.522E-01    0.124E+00
RMM:   3    -0.238024338763E+03   -0.19547E-03   -0.26245E-02  4532   0.396E-01
   1697 T=   726. E= -.22114145E+03 F= -.23802434E+03 E0= -.23802434E+03  EK= 0.59112E+01 SP= 0.11E+02 SK= 0.31E-02 mag=      0.000
       N       E                     dE             d eps       ncg     rms          rms(c)
DAV:   1    -0.238280973742E+03   -0.25683E+00   -0.72331E-02  5872   0.203E+00    0.273E+00
RMM:   2    -0.238274606768E+03    0.63670E-02   -0.69737E-02  4501   0.546E-01    0.126E+00
RMM:   3    -0.238271950315E+03    0.26565E-02   -0.38438E-02  4236   0.449E-01    0.495E-01
RMM:   4    -0.238274105493E+03   -0.21552E-02   -0.10103E-02  3891   0.236E-01
   1698 T=   754. E= -.22113848E+03 F= -.23827411E+03 E0= -.23827411E+03  EK= 0.61417E+01 SP= 0.11E+02 SK= 0.12E-02 mag=     -0.000
       N       E                     dE             d eps       ncg     rms          rms(c)
DAV:   1    -0.238531014440E+03   -0.25906E+00   -0.83773E-02  6120   0.216E+00    0.617E-01
RMM:   2    -0.238533395469E+03   -0.23810E-02   -0.57027E-02  4339   0.500E-01    0.519E-01
RMM:   3    -0.238535037517E+03   -0.16420E-02   -0.16907E-02  4640   0.309E-01
   1699 T=   785. E= -.22113821E+03 F= -.23853504E+03 E0= -.23853504E+03  EK= 0.63886E+01 SP= 0.11E+02 SK= 0.55E-03 mag=     -0.000
       N       E                     dE             d eps       ncg     rms          rms(c)
DAV:   1    -0.238794698264E+03   -0.26130E+00   -0.71253E-02  6056   0.202E+00    0.115E+00
RMM:   2    -0.238799603461E+03   -0.49052E-02   -0.54306E-02  4796   0.497E-01    0.920E-01
RMM:   3    -0.238799846367E+03   -0.24291E-03   -0.17496E-02  4132   0.366E-01
   1700 T=   817. E= -.22112846E+03 F= -.23879985E+03 E0= -.23879985E+03  EK= 0.66514E+01 SP= 0.11E+02 SK= 0.57E-03 mag=     -0.000
       N       E                     dE             d eps       ncg     rms          rms(c)
DAV:   1    -0.239064572755E+03   -0.26497E+00   -0.85180E-02  6152   0.210E+00    0.204E+00
RMM:   2    -0.239066431880E+03   -0.18591E-02   -0.61255E-02  4965   0.509E-01    0.884E-01
RMM:   3    -0.239065072777E+03    0.13591E-02   -0.21358E-02  3904   0.427E-01
   1701 T=   848. E= -.22112242E+03 F= -.23906507E+03 E0= -.23906507E+03  EK= 0.69068E+01 SP= 0.11E+02 SK= 0.12E-02 mag=      0.000
       N       E                     dE             d eps       ncg     rms          rms(c)
DAV:   1    -0.239314628671E+03   -0.24820E+00   -0.12854E-01  5712   0.234E+00    0.741E-01
RMM:   2    -0.239322966213E+03   -0.83375E-02   -0.85873E-02  4700   0.629E-01    0.413E-01
RMM:   3    -0.239325862830E+03   -0.28966E-02   -0.26505E-02  4877   0.385E-01
   1702 T=   877. E= -.22112319E+03 F= -.23932586E+03 E0= -.23932586E+03  EK= 0.71399E+01 SP= 0.11E+02 SK= 0.33E-02 mag=      0.000
       N       E                     dE             d eps       ncg     rms          rms(c)
DAV:   1    -0.239563299520E+03   -0.24033E+00   -0.10682E-01  6064   0.226E+00    0.119E+00
RMM:   2    -0.239568114587E+03   -0.48151E-02   -0.76015E-02  4559   0.576E-01    0.994E-01
RMM:   3    -0.239570330269E+03   -0.22157E-02   -0.26491E-02  4743   0.363E-01
   1703 T=   902. E= -.22111364E+03 F= -.23957033E+03 E0= -.23957033E+03  EK= 0.73490E+01 SP= 0.11E+02 SK= 0.80E-02 mag=      0.000
       N       E                     dE             d eps       ncg     rms          rms(c)
DAV:   1    -0.239797073432E+03   -0.22896E+00   -0.72080E-02  5984   0.221E+00    0.180E+00
RMM:   2    -0.239797921771E+03   -0.84834E-03   -0.66614E-02  4379   0.555E-01    0.777E-01
RMM:   3    -0.239798300225E+03   -0.37845E-03   -0.25589E-02  4477   0.390E-01
   1704 T=   923. E= -.22110396E+03 F= -.23979830E+03 E0= -.23979830E+03  EK= 0.75171E+01 SP= 0.11E+02 SK= 0.17E-01 mag=      0.000
       N       E                     dE             d eps       ncg     rms          rms(c)
DAV:   1    -0.239999155192E+03   -0.20123E+00   -0.99557E-02  6208   0.231E+00    0.842E-01
RMM:   2    -0.240005737619E+03   -0.65824E-02   -0.80880E-02  4585   0.678E-01    0.341E-01
RMM:   3    -0.240007997016E+03   -0.22594E-02   -0.25928E-02  4941   0.375E-01
   1705 T=   937. E= -.22109751E+03 F= -.24000800E+03 E0= -.24000800E+03  EK= 0.76336E+01 SP= 0.11E+02 SK= 0.31E-01 mag=      0.000
       N       E                     dE             d eps       ncg     rms          rms(c)
DAV:   1    -0.240184544149E+03   -0.17881E+00   -0.90148E-02  6328   0.227E+00    0.721E-01
RMM:   2    -0.240190540022E+03   -0.59959E-02   -0.68991E-02  4683   0.627E-01    0.674E-01
RMM:   3    -0.240192609911E+03   -0.20699E-02   -0.20871E-02  4507   0.304E-01
   1706 T=   945. E= -.22108481E+03 F= -.24019261E+03 E0= -.24019261E+03  EK= 0.76977E+01 SP= 0.11E+02 SK= 0.51E-01 mag=      0.000
       N       E                     dE             d eps       ncg     rms          rms(c)
DAV:   1    -0.240346597627E+03   -0.15606E+00   -0.56211E-02  6016   0.217E+00    0.472E-01
RMM:   2    -0.240349592723E+03   -0.29951E-02   -0.54341E-02  4525   0.545E-01    0.417E-01
RMM:   3    -0.240351136657E+03   -0.15439E-02   -0.18502E-02  4547   0.286E-01
   1707 T=   946. E= -.22107175E+03 F= -.24035114E+03 E0= -.24035114E+03  EK= 0.77010E+01 SP= 0.12E+02 SK= 0.77E-01 mag=      0.000
       N       E                     dE             d eps       ncg     rms          rms(c)
DAV:   1    -0.240475363269E+03   -0.12577E+00   -0.51483E-02  5984   0.221E+00    0.827E-01
RMM:   2    -0.240480706670E+03   -0.53434E-02   -0.47239E-02  4626   0.504E-01    0.280E-01
RMM:   3    -0.240482145878E+03   -0.14392E-02   -0.14643E-02  4158   0.294E-01
   1708 T=   938. E= -.22105935E+03 F= -.24048215E+03 E0= -.24048215E+03  EK= 0.76424E+01 SP= 0.12E+02 SK= 0.11E+00 mag=     -0.000
       N       E                     dE             d eps       ncg     rms          rms(c)
DAV:   1    -0.240578686835E+03   -0.97980E-01   -0.51165E-02  5992   0.221E+00    0.676E-01
RMM:   2    -0.240584194819E+03   -0.55080E-02   -0.48688E-02  4715   0.533E-01    0.201E-01
RMM:   3    -0.240585788431E+03   -0.15936E-02   -0.15232E-02  4247   0.287E-01
   1709 T=   924. E= -.22104487E+03 F= -.24058579E+03 E0= -.24058579E+03  EK= 0.75284E+01 SP= 0.12E+02 SK= 0.14E+00 mag=      0.000
       N       E                     dE             d eps       ncg     rms          rms(c)
DAV:   1    -0.240657297182E+03   -0.73102E-01   -0.53255E-02  5952   0.219E+00    0.217E-01
RMM:   2    -0.240662259314E+03   -0.49621E-02   -0.44833E-02  4387   0.553E-01    0.211E-01
RMM:   3    -0.240663719819E+03   -0.14605E-02   -0.14005E-02  4241   0.262E-01
   1710 T=   904. E= -.22102961E+03 F= -.24066372E+03 E0= -.24066372E+03  EK= 0.73653E+01 SP= 0.12E+02 SK= 0.17E+00 mag=     -0.000
       N       E                     dE             d eps       ncg     rms          rms(c)
DAV:   1    -0.240710180372E+03   -0.47921E-01   -0.42103E-02  5984   0.214E+00    0.511E-01
RMM:   2    -0.240715086935E+03   -0.49066E-02   -0.41876E-02  4724   0.500E-01    0.501E-01
RMM:   3    -0.240716518083E+03   -0.14311E-02   -0.13166E-02  3922   0.242E-01
   1711 T=   879. E= -.22101479E+03 F= -.24071652E+03 E0= -.24071652E+03  EK= 0.71595E+01 SP= 0.12E+02 SK= 0.20E+00 mag=      0.000
       N       E                     dE             d eps       ncg     rms          rms(c)
DAV:   1    -0.240741340862E+03   -0.26254E-01   -0.57329E-02  6048   0.208E+00    0.369E-01
RMM:   2    -0.240746899073E+03   -0.55582E-02   -0.40610E-02  4864   0.457E-01    0.166E-01
RMM:   3    -0.240748500053E+03   -0.16010E-02   -0.11679E-02  3688   0.239E-01
   1712 T=   850. E= -.22100079E+03 F= -.24074850E+03 E0= -.24074850E+03  EK= 0.69233E+01 SP= 0.13E+02 SK= 0.22E+00 mag=      0.000
       N       E                     dE             d eps       ncg     rms          rms(c)
DAV:   1    -0.240755575808E+03   -0.86767E-02   -0.50631E-02  5984   0.206E+00    0.554E-01
RMM:   2    -0.240761317337E+03   -0.57415E-02   -0.43498E-02  5010   0.448E-01    0.165E-01
RMM:   3    -0.240762595173E+03   -0.12778E-02   -0.10330E-02  3307   0.250E-01
   1713 T=   819. E= -.22098564E+03 F= -.24076260E+03 E0= -.24076260E+03  EK= 0.66696E+01 SP= 0.13E+02 SK= 0.23E+00 mag=      0.000
       N       E                     dE             d eps       ncg     rms          rms(c)
DAV:   1    -0.240755671489E+03    0.56458E-02   -0.61011E-02  5976   0.202E+00    0.415E-01
RMM:   2    -0.240760810328E+03   -0.51388E-02   -0.43244E-02  4859   0.457E-01    0.103E-01
RMM:   3    -0.240762110582E+03   -0.13003E-02   -0.11316E-02  3709   0.238E-01
   1714 T=   787. E= -.22097101E+03 F= -.24076211E+03 E0= -.24076211E+03  EK= 0.64077E+01 SP= 0.13E+02 SK= 0.23E+00 mag=     -0.000
       N       E                     dE             d eps       ncg     rms          rms(c)
DAV:   1    -0.240744661281E+03    0.16149E-01   -0.52415E-02  6096   0.200E+00    0.166E-01
RMM:   2    -0.240749774401E+03   -0.51131E-02   -0.45324E-02  4819   0.479E-01    0.250E-01
RMM:   3    -0.240750908979E+03   -0.11346E-02   -0.10638E-02  3552   0.218E-01
   1715 T=   755. E= -.22095724E+03 F= -.24075091E+03 E0= -.24075091E+03  EK= 0.61477E+01 SP= 0.13E+02 SK= 0.22E+00 mag=     -0.000
       N       E                     dE             d eps       ncg     rms          rms(c)
DAV:   1    -0.240726955956E+03    0.22818E-01   -0.54849E-02  6016   0.194E+00    0.457E-01
RMM:   2    -0.240731743382E+03   -0.47874E-02   -0.41143E-02  4923   0.436E-01    0.481E-01
RMM:   3    -0.240732709564E+03   -0.96618E-03   -0.93454E-03  3276   0.198E-01
   1716 T=   724. E= -.22094396E+03 F= -.24073271E+03 E0= -.24073271E+03  EK= 0.58991E+01 SP= 0.14E+02 SK= 0.20E+00 mag=     -0.000
       N       E                     dE             d eps       ncg     rms          rms(c)
DAV:   1    -0.240706852038E+03    0.24891E-01   -0.40082E-02  5840   0.194E+00    0.628E-01
RMM:   2    -0.240710891409E+03   -0.40394E-02   -0.36531E-02  4946   0.447E-01    0.560E-01
RMM:   3    -0.240711853922E+03   -0.96251E-03   -0.93309E-03  3258   0.209E-01
   1717 T=   696. E= -.22093110E+03 F= -.24071185E+03 E0= -.24071185E+03  EK= 0.56706E+01 SP= 0.14E+02 SK= 0.18E+00 mag=      0.000
       N       E                     dE             d eps       ncg     rms          rms(c)
DAV:   1    -0.240689950760E+03    0.20941E-01   -0.54113E-02  5920   0.196E+00    0.290E+00
RMM:   2    -0.240692405418E+03   -0.24547E-02   -0.37056E-02  4888   0.461E-01    0.151E+00
RMM:   3    -0.240692592572E+03   -0.18715E-03   -0.11545E-02  3669   0.242E-01
   1718 T=   671. E= -.22091967E+03 F= -.24069259E+03 E0= -.24069259E+03  EK= 0.54681E+01 SP= 0.14E+02 SK= 0.14E+00 mag=     -0.000
       N       E                     dE             d eps       ncg     rms          rms(c)
DAV:   1    -0.240673157628E+03    0.19248E-01   -0.38465E-02  5880   0.192E+00    0.129E+00
RMM:   2    -0.240676625997E+03   -0.34684E-02   -0.41986E-02  4880   0.508E-01    0.957E-01
RMM:   3    -0.240676977162E+03   -0.35117E-03   -0.10663E-02  3554   0.238E-01
   1719 T=   650. E= -.22090864E+03 F= -.24067698E+03 E0= -.24067698E+03  EK= 0.52968E+01 SP= 0.14E+02 SK= 0.11E+00 mag=      0.000
       N       E                     dE             d eps       ncg     rms          rms(c)
DAV:   1    -0.240664312779E+03    0.12313E-01   -0.61659E-02  6104   0.181E+00    0.101E+00
RMM:   2    -0.240666064103E+03   -0.17513E-02   -0.37094E-02  4480   0.484E-01    0.408E-01
RMM:   3    -0.240666685082E+03   -0.62098E-03   -0.13388E-02  4254   0.235E-01
   1720 T=   633. E= -.22089922E+03 F= -.24066669E+03 E0= -.24066669E+03  EK= 0.51581E+01 SP= 0.15E+02 SK= 0.74E-01 mag=      0.000
       N       E                     dE             d eps       ncg     rms          rms(c)
DAV:   1    -0.240658972523E+03    0.70916E-02   -0.42148E-02  5960   0.181E+00    0.213E-01
RMM:   2    -0.240661993027E+03   -0.30205E-02   -0.37693E-02  4595   0.459E-01    0.260E-01
RMM:   3    -0.240662755624E+03   -0.76260E-03   -0.94717E-03  3589   0.208E-01
   1721 T=   621. E= -.22089187E+03 F= -.24066276E+03 E0= -.24066276E+03  EK= 0.50531E+01 SP= 0.15E+02 SK= 0.45E-01 mag=     -0.000
       N       E                     dE             d eps       ncg     rms          rms(c)
DAV:   1    -0.240662070838E+03   -0.77811E-04   -0.47203E-02  5944   0.177E+00    0.658E-01
RMM:   2    -0.240664406672E+03   -0.23358E-02   -0.35402E-02  4775   0.421E-01    0.573E-01
RMM:   3    -0.240665050446E+03   -0.64377E-03   -0.11494E-02  3647   0.206E-01
   1722 T=   612. E= -.22088193E+03 F= -.24066505E+03 E0= -.24066505E+03  EK= 0.49867E+01 SP= 0.15E+02 SK= 0.21E-01 mag=     -0.000
       N       E                     dE             d eps       ncg     rms          rms(c)
DAV:   1    -0.240674383017E+03   -0.99763E-02   -0.42332E-02  5912   0.172E+00    0.143E+00
RMM:   2    -0.240673112883E+03    0.12701E-02   -0.31767E-02  4667   0.394E-01
   1723 T=   609. E= -.22086755E+03 F= -.24067311E+03 E0= -.24067311E+03  EK= 0.49600E+01 SP= 0.15E+02 SK= 0.63E-02 mag=     -0.000
       N       E                     dE             d eps       ncg     rms          rms(c)
DAV:   1    -0.240674904618E+03   -0.52160E-03   -0.13378E-01  6720   0.199E+00    0.900E-01
RMM:   2    -0.240683336255E+03   -0.84316E-02   -0.86449E-02  5027   0.572E-01    0.374E-01
RMM:   3    -0.240684139961E+03   -0.80371E-03   -0.14920E-02  3760   0.279E-01
   1724 T=   609. E= -.22085557E+03 F= -.24068414E+03 E0= -.24068414E+03  EK= 0.49633E+01 SP= 0.15E+02 SK= 0.14E-03 mag=     -0.000
       N       E                     dE             d eps       ncg     rms          rms(c)
DAV:   1    -0.240687131444E+03   -0.37952E-02   -0.13737E-01  5920   0.182E+00    0.968E-01
RMM:   2    -0.240693129411E+03   -0.59980E-02   -0.65324E-02  4656   0.503E-01    0.766E-01
RMM:   3    -0.240695574336E+03   -0.24449E-02   -0.20821E-02  4428   0.273E-01
   1725 T=   613. E= -.22085010E+03 F= -.24069557E+03 E0= -.24069557E+03  EK= 0.49898E+01 SP= 0.15E+02 SK= 0.30E-02 mag=     -0.000
       N       E                     dE             d eps       ncg     rms          rms(c)
DAV:   1    -0.240704792527E+03   -0.11663E-01   -0.37441E-02  5808   0.174E+00    0.805E-01
RMM:   2    -0.240704527937E+03    0.26459E-03   -0.62271E-02  4574   0.455E-01    0.644E-01
RMM:   3    -0.240705806970E+03   -0.12790E-02   -0.18811E-02  4294   0.273E-01
   1726 T=   619. E= -.22084880E+03 F= -.24070581E+03 E0= -.24070581E+03  EK= 0.50400E+01 SP= 0.15E+02 SK= 0.14E-01 mag=      0.000
       N       E                     dE             d eps       ncg     rms          rms(c)
DAV:   1    -0.240708961691E+03   -0.44338E-02   -0.51886E-02  6016   0.183E+00    0.151E+00
RMM:   2    -0.240710277205E+03   -0.13155E-02   -0.43871E-02  4350   0.454E-01    0.659E-01
RMM:   3    -0.240710300147E+03   -0.22942E-04   -0.12921E-02  3992   0.252E-01
   1727 T=   628. E= -.22084473E+03 F= -.24071030E+03 E0= -.24071030E+03  EK= 0.51162E+01 SP= 0.15E+02 SK= 0.33E-01 mag=     -0.000
       N       E                     dE             d eps       ncg     rms          rms(c)
DAV:   1    -0.240701777453E+03    0.84998E-02   -0.79020E-02  6176   0.180E+00    0.491E-01
RMM:   2    -0.240705651077E+03   -0.38736E-02   -0.49974E-02  4548   0.521E-01    0.207E-01
RMM:   3    -0.240706720577E+03   -0.10695E-02   -0.13634E-02  4252   0.252E-01
   1728 T=   640. E= -.22083889E+03 F= -.24070672E+03 E0= -.24070672E+03  EK= 0.52146E+01 SP= 0.15E+02 SK= 0.58E-01 mag=     -0.000
       N       E                     dE             d eps       ncg     rms          rms(c)
DAV:   1    -0.240687255570E+03    0.18396E-01   -0.63477E-02  6024   0.182E+00    0.575E-01
RMM:   2    -0.240691416805E+03   -0.41612E-02   -0.41565E-02  4558   0.477E-01    0.538E-01
RMM:   3    -0.240692547200E+03   -0.11304E-02   -0.11658E-02  4078   0.228E-01
   1729 T=   654. E= -.22083608E+03 F= -.24069255E+03 E0= -.24069255E+03  EK= 0.53274E+01 SP= 0.14E+02 SK= 0.87E-01 mag=      0.000
       N       E                     dE             d eps       ncg     rms          rms(c)
DAV:   1    -0.240663251414E+03    0.28165E-01   -0.44369E-02  5816   0.183E+00    0.106E+00
RMM:   2    -0.240666635915E+03   -0.33845E-02   -0.36596E-02  4629   0.423E-01    0.423E-01
RMM:   3    -0.240667522400E+03   -0.88649E-03   -0.10384E-02  3886   0.221E-01
   1730 T=   670. E= -.22083227E+03 F= -.24066752E+03 E0= -.24066752E+03  EK= 0.54574E+01 SP= 0.14E+02 SK= 0.12E+00 mag=      0.000
       N       E                     dE             d eps       ncg     rms          rms(c)
DAV:   1    -0.240626057612E+03    0.40578E-01   -0.45405E-02  5736   0.186E+00    0.362E-01
RMM:   2    -0.240630343204E+03   -0.42856E-02   -0.41583E-02  4608   0.461E-01    0.197E-01
RMM:   3    -0.240631430229E+03   -0.10870E-02   -0.10870E-02  3885   0.218E-01
   1731 T=   688. E= -.22082693E+03 F= -.24063143E+03 E0= -.24063143E+03  EK= 0.56038E+01 SP= 0.14E+02 SK= 0.15E+00 mag=     -0.000
       N       E                     dE             d eps       ncg     rms          rms(c)
DAV:   1    -0.240579623480E+03    0.50720E-01   -0.47872E-02  5976   0.186E+00    0.313E-01
RMM:   2    -0.240584147928E+03   -0.45244E-02   -0.41802E-02  4745   0.449E-01    0.397E-01
RMM:   3    -0.240585137381E+03   -0.98945E-03   -0.10372E-02  3709   0.208E-01
   1732 T=   708. E= -.22082169E+03 F= -.24058514E+03 E0= -.24058514E+03  EK= 0.57645E+01 SP= 0.14E+02 SK= 0.18E+00 mag=     -0.000
       N       E                     dE             d eps       ncg     rms          rms(c)
DAV:   1    -0.240527652229E+03    0.56496E-01   -0.70130E-02  6040   0.191E+00    0.476E-01
RMM:   2    -0.240531870215E+03   -0.42180E-02   -0.40742E-02  4862   0.433E-01    0.497E-01
RMM:   3    -0.240532762825E+03   -0.89261E-03   -0.94675E-03  3485   0.198E-01
   1733 T=   730. E= -.22081534E+03 F= -.24053276E+03 E0= -.24053276E+03  EK= 0.59428E+01 SP= 0.14E+02 SK= 0.20E+00 mag=     -0.000
       N       E                     dE             d eps       ncg     rms          rms(c)
DAV:   1    -0.240472716952E+03    0.59153E-01   -0.60333E-02  5984   0.196E+00    0.137E+00
RMM:   2    -0.240477128538E+03   -0.44116E-02   -0.45863E-02  4994   0.467E-01    0.104E+00
RMM:   3    -0.240477829466E+03   -0.70093E-03   -0.10550E-02  3453   0.222E-01
   1734 T=   754. E= -.22080712E+03 F= -.24047783E+03 E0= -.24047783E+03  EK= 0.61407E+01 SP= 0.13E+02 SK= 0.22E+00 mag=     -0.000
       N       E                     dE             d eps       ncg     rms          rms(c)
DAV:   1    -0.240422681033E+03    0.54448E-01   -0.75214E-02  6176   0.200E+00    0.346E+00
RMM:   2    -0.240424239742E+03   -0.15587E-02   -0.49510E-02  4865   0.479E-01    0.178E+00
RMM:   3    -0.240424339534E+03   -0.99792E-04   -0.16314E-02  3996   0.247E-01
   1735 T=   781. E= -.22080004E+03 F= -.24042434E+03 E0= -.24042434E+03  EK= 0.63561E+01 SP= 0.13E+02 SK= 0.24E+00 mag=      0.000
       N       E                     dE             d eps       ncg     rms          rms(c)
DAV:   1    -0.240373022679E+03    0.51217E-01   -0.73345E-02  6160   0.207E+00    0.996E-01
RMM:   2    -0.240376166712E+03   -0.31440E-02   -0.56570E-02  4648   0.558E-01    0.829E-01
RMM:   3    -0.240376505646E+03   -0.33893E-03   -0.14837E-02  4176   0.257E-01
   1736 T=   809. E= -.22079188E+03 F= -.24037651E+03 E0= -.24037651E+03  EK= 0.65914E+01 SP= 0.13E+02 SK= 0.24E+00 mag=     -0.000
       N       E                     dE             d eps       ncg     rms          rms(c)
DAV:   1    -0.240340265600E+03    0.35901E-01   -0.12331E-01  6448   0.204E+00    0.110E+00
RMM:   2    -0.240339154895E+03    0.11107E-02   -0.56726E-02  4612   0.535E-01    0.358E-01
RMM:   3    -0.240338284289E+03    0.87061E-03   -0.17988E-02  4418   0.255E-01
   1737 T=   841. E= -.22078355E+03 F= -.24033828E+03 E0= -.24033828E+03  EK= 0.68449E+01 SP= 0.12E+02 SK= 0.23E+00 mag=     -0.000
       N       E                     dE             d eps       ncg     rms          rms(c)
DAV:   1    -0.240304894076E+03    0.34261E-01   -0.12335E-01  6304   0.214E+00    0.405E-01
RMM:   2    -0.240309947693E+03   -0.50536E-02   -0.67231E-02  4642   0.533E-01    0.444E-01
RMM:   3    -0.240310483563E+03   -0.53587E-03   -0.13315E-02  4029   0.248E-01
   1738 T=   873. E= -.22077674E+03 F= -.24031048E+03 E0= -.24031048E+03  EK= 0.71095E+01 SP= 0.12E+02 SK= 0.21E+00 mag=     -0.000
       N       E                     dE             d eps       ncg     rms          rms(c)
DAV:   1    -0.240287961392E+03    0.21986E-01   -0.64874E-02  6176   0.211E+00    0.946E-01
RMM:   2    -0.240288203941E+03   -0.24255E-03   -0.74442E-02  4768   0.505E-01    0.792E-01
RMM:   3    -0.240289118169E+03   -0.91423E-03   -0.18496E-02  4093   0.255E-01
   1739 T=   906. E= -.22076567E+03 F= -.24028912E+03 E0= -.24028912E+03  EK= 0.73794E+01 SP= 0.12E+02 SK= 0.18E+00 mag=     -0.000
       N       E                     dE             d eps       ncg     rms          rms(c)
DAV:   1    -0.240279745641E+03    0.84583E-02   -0.66486E-02  6128   0.210E+00    0.171E+00
RMM:   2    -0.240273069043E+03    0.66766E-02   -0.57202E-02  4682   0.472E-01    0.759E-01
RMM:   3    -0.240271977717E+03    0.10913E-02   -0.22617E-02  4327   0.266E-01
   1740 T=   938. E= -.22075622E+03 F= -.24027198E+03 E0= -.24027198E+03  EK= 0.76375E+01 SP= 0.12E+02 SK= 0.15E+00 mag=      0.000
       N       E                     dE             d eps       ncg     rms          rms(c)
DAV:   1    -0.240250662263E+03    0.22407E-01   -0.10401E-01  6520   0.225E+00    0.644E-01
RMM:   2    -0.240253039864E+03   -0.23776E-02   -0.66341E-02  4691   0.532E-01    0.333E-01
RMM:   3    -0.240253112282E+03   -0.72418E-04   -0.14673E-02  4026   0.258E-01
   1741 T=   966. E= -.22074642E+03 F= -.24025311E+03 E0= -.24025311E+03  EK= 0.78699E+01 SP= 0.12E+02 SK= 0.11E+00 mag=     -0.000
       N       E                     dE             d eps       ncg     rms          rms(c)
DAV:   1    -0.240213791705E+03    0.39248E-01   -0.12091E-01  6456   0.221E+00    0.454E-01
RMM:   2    -0.240221359742E+03   -0.75680E-02   -0.72636E-02  4829   0.537E-01    0.557E-01
RMM:   3    -0.240222580839E+03   -0.12211E-02   -0.12612E-02  3739   0.243E-01
   1742 T=   990. E= -.22073020E+03 F= -.24022258E+03 E0= -.24022258E+03  EK= 0.80629E+01 SP= 0.11E+02 SK= 0.71E-01 mag=     -0.000
       N       E                     dE             d eps       ncg     rms          rms(c)
DAV:   1    -0.240171111832E+03    0.50248E-01   -0.67336E-02  6008   0.219E+00    0.969E-01
RMM:   2    -0.240173597003E+03   -0.24852E-02   -0.70508E-02  4833   0.504E-01    0.822E-01
RMM:   3    -0.240174570768E+03   -0.97377E-03   -0.16285E-02  3876   0.253E-01
   1743 T=  1006. E= -.22071753E+03 F= -.24017457E+03 E0= -.24017457E+03  EK= 0.81916E+01 SP= 0.11E+02 SK= 0.38E-01 mag=     -0.000
       N       E                     dE             d eps       ncg     rms          rms(c)
DAV:   1    -0.240101806943E+03    0.71790E-01   -0.65602E-02  6048   0.226E+00    0.208E+00
RMM:   2    -0.240103292672E+03   -0.14857E-02   -0.54183E-02  4784   0.483E-01    0.958E-01
RMM:   3    -0.240102983743E+03    0.30893E-03   -0.14774E-02  3895   0.239E-01
   1744 T=  1013. E= -.22070543E+03 F= -.24010298E+03 E0= -.24010298E+03  EK= 0.82458E+01 SP= 0.11E+02 SK= 0.15E-01 mag=     -0.000
       N       E                     dE             d eps       ncg     rms          rms(c)
DAV:   1    -0.239999116492E+03    0.10418E+00   -0.10610E-01  6264   0.227E+00    0.492E-01
RMM:   2    -0.240004092540E+03   -0.49760E-02   -0.65250E-02  4877   0.517E-01    0.410E-01
RMM:   3    -0.240004671106E+03   -0.57857E-03   -0.11756E-02  3631   0.235E-01
   1745 T=  1010. E= -.22068957E+03 F= -.24000467E+03 E0= -.24000467E+03  EK= 0.82235E+01 SP= 0.11E+02 SK= 0.22E-02 mag=      0.000
       N       E                     dE             d eps       ncg     rms          rms(c)
DAV:   1    -0.239870912528E+03    0.13318E+00   -0.77820E-02  6080   0.221E+00    0.893E-01
RMM:   2    -0.239876651414E+03   -0.57389E-02   -0.68969E-02  4932   0.509E-01    0.833E-01
RMM:   3    -0.239877749849E+03   -0.10984E-02   -0.12186E-02  3568   0.235E-01
   1746 T=   997. E= -.22067392E+03 F= -.23987775E+03 E0= -.23987775E+03  EK= 0.81192E+01 SP= 0.11E+02 SK= 0.65E-03 mag=      0.000
       N       E                     dE             d eps       ncg     rms          rms(c)
DAV:   1    -0.239724346345E+03    0.15231E+00   -0.64974E-02  6008   0.220E+00    0.179E+00
RMM:   2    -0.239726645182E+03   -0.22988E-02   -0.55085E-02  4871   0.476E-01    0.796E-01
RMM:   3    -0.239727205847E+03   -0.56066E-03   -0.13645E-02  3642   0.235E-01
   1747 T=   975. E= -.22065973E+03 F= -.23972721E+03 E0= -.23972721E+03  EK= 0.79410E+01 SP= 0.11E+02 SK= 0.84E-02 mag=      0.000
       N       E                     dE             d eps       ncg     rms          rms(c)
DAV:   1    -0.239551989018E+03    0.17466E+00   -0.77611E-02  6128   0.220E+00    0.497E-01
RMM:   2    -0.239557225081E+03   -0.52361E-02   -0.58643E-02  4893   0.497E-01    0.395E-01
RMM:   3    -0.239557951021E+03   -0.72594E-03   -0.10402E-02  3462   0.221E-01
   1748 T=   946. E= -.22064362E+03 F= -.23955795E+03 E0= -.23955795E+03  EK= 0.77048E+01 SP= 0.11E+02 SK= 0.22E-01 mag=     -0.000
       N       E                     dE             d eps       ncg     rms          rms(c)
DAV:   1    -0.239372979115E+03    0.18425E+00   -0.66388E-02  6064   0.213E+00    0.855E-01
RMM:   2    -0.239378154437E+03   -0.51753E-02   -0.63704E-02  4987   0.491E-01    0.795E-01
RMM:   3    -0.239379189107E+03   -0.10347E-02   -0.12338E-02  3486   0.228E-01
   1749 T=   912. E= -.22062748E+03 F= -.23937919E+03 E0= -.23937919E+03  EK= 0.74279E+01 SP= 0.11E+02 SK= 0.38E-01 mag=     -0.000
       N       E                     dE             d eps       ncg     rms          rms(c)
DAV:   1    -0.239199719336E+03    0.17844E+00   -0.67210E-02  6088   0.210E+00    0.196E+00
RMM:   2    -0.239201499581E+03   -0.17802E-02   -0.52255E-02  4968   0.464E-01    0.897E-01
RMM:   3    -0.239201588222E+03   -0.88641E-04   -0.14831E-02  3734   0.235E-01
   1750 T=   876. E= -.22061261E+03 F= -.23920159E+03 E0= -.23920159E+03  EK= 0.71299E+01 SP= 0.11E+02 SK= 0.52E-01 mag=      0.000
       N       E                     dE             d eps       ncg     rms          rms(c)
DAV:   1    -0.239029512011E+03    0.17199E+00   -0.81338E-02  6152   0.208E+00    0.459E-01
RMM:   2    -0.239034135108E+03   -0.46231E-02   -0.59402E-02  4955   0.493E-01    0.470E-01
RMM:   3    -0.239034704686E+03   -0.56958E-03   -0.10248E-02  3445   0.219E-01
   1751 T=   839. E= -.22059790E+03 F= -.23903470E+03 E0= -.23903470E+03  EK= 0.68318E+01 SP= 0.12E+02 SK= 0.61E-01 mag=      0.000
       N       E                     dE             d eps       ncg     rms          rms(c)
DAV:   1    -0.238884042370E+03    0.15009E+00   -0.70931E-02  5936   0.201E+00    0.124E+00
RMM:   2    -0.238886604261E+03   -0.25619E-02   -0.56212E-02  5015   0.478E-01    0.100E+00
RMM:   3    -0.238887177124E+03   -0.57286E-03   -0.13458E-02  3492   0.230E-01
   1752 T=   804. E= -.22058296E+03 F= -.23888718E+03 E0= -.23888718E+03  EK= 0.65512E+01 SP= 0.12E+02 SK= 0.65E-01 mag=     -0.000
       N       E                     dE             d eps       ncg     rms          rms(c)
DAV:   1    -0.238774274525E+03    0.11233E+00   -0.48202E-02  6072   0.196E+00    0.222E+00
RMM:   2    -0.238768747723E+03    0.55268E-02   -0.45202E-02  4908   0.438E-01    0.108E+00
RMM:   3    -0.238767107098E+03    0.16406E-02   -0.19921E-02  4073   0.252E-01
   1753 T=   774. E= -.22057100E+03 F= -.23876711E+03 E0= -.23876711E+03  EK= 0.63000E+01 SP= 0.12E+02 SK= 0.63E-01 mag=      0.000
       N       E                     dE             d eps       ncg     rms          rms(c)
DAV:   1    -0.238680380728E+03    0.88367E-01   -0.95819E-02  6288   0.200E+00    0.547E-01
RMM:   2    -0.238678422069E+03    0.19587E-02   -0.55744E-02  4709   0.520E-01    0.445E-01
RMM:   3    -0.238678138749E+03    0.28332E-03   -0.16210E-02  4188   0.260E-01
   1754 T=   748. E= -.22056094E+03 F= -.23867814E+03 E0= -.23867814E+03  EK= 0.60881E+01 SP= 0.12E+02 SK= 0.56E-01 mag=      0.000
       N       E                     dE             d eps       ncg     rms          rms(c)
DAV:   1    -0.238613253251E+03    0.65169E-01   -0.99289E-02  6464   0.193E+00    0.768E-01
RMM:   2    -0.238618529021E+03   -0.52758E-02   -0.54761E-02  4986   0.494E-01    0.733E-01
RMM:   3    -0.238619266906E+03   -0.73789E-03   -0.86254E-03  3329   0.207E-01
   1755 T=   727. E= -.22054952E+03 F= -.23861927E+03 E0= -.23861927E+03  EK= 0.59214E+01 SP= 0.12E+02 SK= 0.46E-01 mag=      0.000
       N       E                     dE             d eps       ncg     rms          rms(c)
DAV:   1    -0.238585897555E+03    0.32631E-01   -0.67068E-02  6080   0.188E+00    0.146E+00
RMM:   2    -0.238589911942E+03   -0.40144E-02   -0.54438E-02  4893   0.453E-01    0.610E-01
RMM:   3    -0.238590696040E+03   -0.78410E-03   -0.10006E-02  3475   0.226E-01
   1756 T=   712. E= -.22054080E+03 F= -.23859070E+03 E0= -.23859070E+03  EK= 0.57984E+01 SP= 0.12E+02 SK= 0.35E-01 mag=     -0.000
       N       E                     dE             d eps       ncg     rms          rms(c)
DAV:   1    -0.238585127169E+03    0.47848E-02   -0.31943E-02  5720   0.190E+00    0.538E-01
RMM:   2    -0.238589206425E+03   -0.40793E-02   -0.43631E-02  4787   0.443E-01    0.313E-01
RMM:   3    -0.238590079996E+03   -0.87357E-03   -0.85065E-03  3216   0.204E-01
   1757 T=   703. E= -.22053165E+03 F= -.23859008E+03 E0= -.23859008E+03  EK= 0.57212E+01 SP= 0.12E+02 SK= 0.24E-01 mag=     -0.000
       N       E                     dE             d eps       ncg     rms          rms(c)
DAV:   1    -0.238608877932E+03   -0.19672E-01   -0.52816E-02  5952   0.188E+00    0.387E-01
RMM:   2    -0.238612349466E+03   -0.34715E-02   -0.36360E-02  4866   0.441E-01    0.383E-01
RMM:   3    -0.238613330832E+03   -0.98137E-03   -0.10127E-02  3552   0.204E-01
   1758 T=   698. E= -.22052032E+03 F= -.23861333E+03 E0= -.23861333E+03  EK= 0.56880E+01 SP= 0.12E+02 SK= 0.14E-01 mag=     -0.000
       N       E                     dE             d eps       ncg     rms          rms(c)
DAV:   1    -0.238652464193E+03   -0.40115E-01   -0.32054E-02  5568   0.188E+00    0.775E-01
RMM:   2    -0.238656212511E+03   -0.37483E-02   -0.37080E-02  5041   0.418E-01    0.619E-01
RMM:   3    -0.238656903976E+03   -0.69146E-03   -0.91497E-03  3151   0.202E-01
   1759 T=   699. E= -.22051079E+03 F= -.23865690E+03 E0= -.23865690E+03  EK= 0.56913E+01 SP= 0.12E+02 SK= 0.68E-02 mag=     -0.000
       N       E                     dE             d eps       ncg     rms          rms(c)
DAV:   1    -0.238715024509E+03   -0.58812E-01   -0.54821E-02  5992   0.191E+00    0.170E+00
RMM:   2    -0.238718190516E+03   -0.31660E-02   -0.38023E-02  4868   0.419E-01    0.822E-01
RMM:   3    -0.238718707316E+03   -0.51680E-03   -0.10508E-02  3496   0.237E-01
   1760 T=   704. E= -.22050153E+03 F= -.23871871E+03 E0= -.23871871E+03  EK= 0.57303E+01 SP= 0.12E+02 SK= 0.23E-02 mag=      0.000
       N       E                     dE             d eps       ncg     rms          rms(c)
DAV:   1    -0.238791674612E+03   -0.73484E-01   -0.48304E-02  5856   0.193E+00    0.286E-01
RMM:   2    -0.238795667021E+03   -0.39924E-02   -0.39864E-02  4611   0.486E-01    0.294E-01
RMM:   3    -0.238796929139E+03   -0.12621E-02   -0.12203E-02  4027   0.241E-01
   1761 T=   713. E= -.22049178E+03 F= -.23879693E+03 E0= -.23879693E+03  EK= 0.58031E+01 SP= 0.13E+02 SK= 0.22E-03 mag=      0.000
       N       E                     dE             d eps       ncg     rms          rms(c)
DAV:   1    -0.238884551200E+03   -0.88884E-01   -0.51727E-02  5960   0.193E+00    0.106E+00
RMM:   2    -0.238888266011E+03   -0.37148E-02   -0.37283E-02  4804   0.439E-01    0.813E-01
RMM:   3    -0.238888188756E+03    0.77255E-04   -0.12155E-02  3484   0.299E-01
   1762 T=   725. E= -.22048090E+03 F= -.23888819E+03 E0= -.23888819E+03  EK= 0.59055E+01 SP= 0.13E+02 SK= 0.19E-03 mag=     -0.000
       N       E                     dE             d eps       ncg     rms          rms(c)
DAV:   1    -0.238990671174E+03   -0.10241E+00   -0.51262E-02  6088   0.198E+00    0.187E+00
RMM:   2    -0.238993737021E+03   -0.30658E-02   -0.48361E-02  4805   0.509E-01    0.842E-01
RMM:   3    -0.238993988023E+03   -0.25100E-03   -0.16132E-02  3978   0.326E-01
   1763 T=   741. E= -.22047000E+03 F= -.23899399E+03 E0= -.23899399E+03  EK= 0.60364E+01 SP= 0.12E+02 SK= 0.14E-02 mag=     -0.000
       N       E                     dE             d eps       ncg     rms          rms(c)
DAV:   1    -0.239105066637E+03   -0.11133E+00   -0.83899E-02  5864   0.210E+00    0.362E-01
RMM:   2    -0.239110008425E+03   -0.49418E-02   -0.55293E-02  4451   0.583E-01    0.312E-01
RMM:   3    -0.239111761708E+03   -0.17533E-02   -0.17813E-02  4676   0.305E-01
   1764 T=   760. E= -.22046047E+03 F= -.23911176E+03 E0= -.23911176E+03  EK= 0.61892E+01 SP= 0.12E+02 SK= 0.30E-02 mag=      0.000
       N       E                     dE             d eps       ncg     rms          rms(c)
DAV:   1    -0.239231860426E+03   -0.12185E+00   -0.50704E-02  5888   0.202E+00    0.109E+00
RMM:   2    -0.239235813651E+03   -0.39532E-02   -0.43529E-02  4694   0.497E-01    0.850E-01
RMM:   3    -0.239235533660E+03    0.27999E-03   -0.18533E-02  3952   0.379E-01
   1765 T=   781. E= -.22044848E+03 F= -.23923553E+03 E0= -.23923553E+03  EK= 0.63589E+01 SP= 0.12E+02 SK= 0.43E-02 mag=     -0.000
       N       E                     dE             d eps       ncg     rms          rms(c)
DAV:   1    -0.239364537171E+03   -0.12872E+00   -0.79822E-02  5864   0.209E+00    0.211E+00
RMM:   2    -0.239366587407E+03   -0.20502E-02   -0.60426E-02  4709   0.543E-01    0.896E-01
RMM:   3    -0.239366255591E+03    0.33182E-03   -0.25200E-02  4214   0.422E-01
   1766 T=   803. E= -.22043604E+03 F= -.23936626E+03 E0= -.23936626E+03  EK= 0.65407E+01 SP= 0.12E+02 SK= 0.47E-02 mag=     -0.000
       N       E                     dE             d eps       ncg     rms          rms(c)
DAV:   1    -0.239491000093E+03   -0.12441E+00   -0.11484E-01  5720   0.225E+00    0.472E-01
RMM:   2    -0.239497073795E+03   -0.60737E-02   -0.79011E-02  4606   0.635E-01    0.422E-01
RMM:   3    -0.239499438593E+03   -0.23648E-02   -0.24968E-02  4750   0.350E-01
   1767 T=   826. E= -.22042629E+03 F= -.23949944E+03 E0= -.23949944E+03  EK= 0.67227E+01 SP= 0.12E+02 SK= 0.40E-02 mag=      0.000
       N       E                     dE             d eps       ncg     rms          rms(c)
DAV:   1    -0.239620668996E+03   -0.12360E+00   -0.10785E-01  5904   0.216E+00    0.136E+00
RMM:   2    -0.239625442081E+03   -0.47731E-02   -0.64652E-02  4798   0.548E-01    0.110E+00
RMM:   3    -0.239625563600E+03   -0.12152E-03   -0.24354E-02  4275   0.407E-01
   1768 T=   847. E= -.22041230E+03 F= -.23962556E+03 E0= -.23962556E+03  EK= 0.68975E+01 SP= 0.12E+02 SK= 0.25E-02 mag=      0.000
       N       E                     dE             d eps       ncg     rms          rms(c)
DAV:   1    -0.239748257165E+03   -0.12282E+00   -0.74465E-02  5784   0.220E+00    0.271E+00
RMM:   2    -0.239746808128E+03    0.14490E-02   -0.72137E-02  4643   0.565E-01    0.119E+00
RMM:   3    -0.239745380930E+03    0.14272E-02   -0.37400E-02  4231   0.488E-01    0.425E-01
RMM:   4    -0.239748131865E+03   -0.27509E-02   -0.10720E-02  3868   0.242E-01
   1769 T=   866. E= -.22040608E+03 F= -.23974813E+03 E0= -.23974813E+03  EK= 0.70517E+01 SP= 0.12E+02 SK= 0.92E-03 mag=     -0.000
       N       E                     dE             d eps       ncg     rms          rms(c)
DAV:   1    -0.239849225157E+03   -0.10384E+00   -0.85141E-02  6000   0.230E+00    0.546E-01
RMM:   2    -0.239852732730E+03   -0.35076E-02   -0.56613E-02  4437   0.514E-01    0.495E-01
RMM:   3    -0.239854799212E+03   -0.20665E-02   -0.17866E-02  4675   0.319E-01
   1770 T=   881. E= -.22039848E+03 F= -.23985480E+03 E0= -.23985480E+03  EK= 0.71775E+01 SP= 0.12E+02 SK= 0.18E-04 mag=     -0.000
       N       E                     dE             d eps       ncg     rms          rms(c)
DAV:   1    -0.239935879731E+03   -0.83147E-01   -0.76069E-02  6136   0.210E+00    0.106E+00
RMM:   2    -0.239942318096E+03   -0.64384E-02   -0.57450E-02  4809   0.510E-01    0.923E-01
RMM:   3    -0.239943251263E+03   -0.93317E-03   -0.18423E-02  4026   0.364E-01
   1771 T=   893. E= -.22038408E+03 F= -.23994325E+03 E0= -.23994325E+03  EK= 0.72739E+01 SP= 0.12E+02 SK= 0.71E-03 mag=      0.000
       N       E                     dE             d eps       ncg     rms          rms(c)
DAV:   1    -0.240007863392E+03   -0.65545E-01   -0.82082E-02  6184   0.216E+00    0.227E+00
RMM:   2    -0.240011824719E+03   -0.39613E-02   -0.60364E-02  4760   0.511E-01    0.970E-01
RMM:   3    -0.240010785619E+03    0.10391E-02   -0.23842E-02  3932   0.455E-01
   1772 T=   900. E= -.22037034E+03 F= -.24001079E+03 E0= -.24001079E+03  EK= 0.73276E+01 SP= 0.12E+02 SK= 0.37E-02 mag=      0.000
       N       E                     dE             d eps       ncg     rms          rms(c)
DAV:   1    -0.240047897015E+03   -0.36072E-01   -0.12246E-01  5688   0.236E+00    0.572E-01
RMM:   2    -0.240056045698E+03   -0.81487E-02   -0.83921E-02  4599   0.648E-01    0.441E-01
RMM:   3    -0.240059104879E+03   -0.30592E-02   -0.27583E-02  4937   0.380E-01
   1773 T=   900. E= -.22036308E+03 F= -.24005910E+03 E0= -.24005910E+03  EK= 0.73331E+01 SP= 0.12E+02 SK= 0.93E-02 mag=      0.000
       N       E                     dE             d eps       ncg     rms          rms(c)
DAV:   1    -0.240073866821E+03   -0.17821E-01   -0.94490E-02  6088   0.223E+00    0.151E+00
RMM:   2    -0.240077857355E+03   -0.39905E-02   -0.69643E-02  4607   0.567E-01    0.118E+00
RMM:   3    -0.240077740805E+03    0.11655E-03   -0.33330E-02  4572   0.470E-01    0.466E-01
RMM:   4    -0.240080419444E+03   -0.26786E-02   -0.99117E-03  3654   0.285E-01
   1774 T=   895. E= -.22035316E+03 F= -.24008042E+03 E0= -.24008042E+03  EK= 0.72917E+01 SP= 0.12E+02 SK= 0.17E-01 mag=      0.000
       N       E                     dE             d eps       ncg     rms          rms(c)
DAV:   1    -0.240076817125E+03    0.92368E-03   -0.53324E-02  6184   0.206E+00    0.207E+00
RMM:   2    -0.240076633087E+03    0.18404E-03   -0.69528E-02  4222   0.496E-01    0.967E-01
RMM:   3    -0.240076057272E+03    0.57582E-03   -0.33221E-02  4323   0.418E-01    0.195E-01
RMM:   4    -0.240078317541E+03   -0.22603E-02   -0.80276E-03  3569   0.259E-01
   1775 T=   884. E= -.22034749E+03 F= -.24007832E+03 E0= -.24007832E+03  EK= 0.72020E+01 SP= 0.13E+02 SK= 0.27E-01 mag=     -0.000
       N       E                     dE             d eps       ncg     rms          rms(c)
DAV:   1    -0.240046960498E+03    0.29097E-01   -0.64061E-02  6288   0.210E+00    0.392E-01
RMM:   2    -0.240051838213E+03   -0.48777E-02   -0.61393E-02  4344   0.554E-01    0.221E-01
RMM:   3    -0.240053454735E+03   -0.16165E-02   -0.18518E-02  4834   0.281E-01
   1776 T=   869. E= -.22034043E+03 F= -.24005345E+03 E0= -.24005345E+03  EK= 0.70737E+01 SP= 0.13E+02 SK= 0.36E-01 mag=     -0.000
       N       E                     dE             d eps       ncg     rms          rms(c)
DAV:   1    -0.240000312066E+03    0.51526E-01   -0.73196E-02  5984   0.207E+00    0.413E-01
RMM:   2    -0.240006735876E+03   -0.64238E-02   -0.49925E-02  4539   0.495E-01    0.443E-01
RMM:   3    -0.240008760115E+03   -0.20242E-02   -0.16198E-02  4602   0.259E-01
   1777 T=   849. E= -.22032898E+03 F= -.24000876E+03 E0= -.24000876E+03  EK= 0.69175E+01 SP= 0.13E+02 SK= 0.45E-01 mag=      0.000
       N       E                     dE             d eps       ncg     rms          rms(c)
DAV:   1    -0.239941947947E+03    0.64788E-01   -0.49953E-02  5944   0.207E+00    0.122E+00
RMM:   2    -0.239945961618E+03   -0.40137E-02   -0.40173E-02  4470   0.439E-01    0.919E-01
RMM:   3    -0.239946037214E+03   -0.75596E-04   -0.14679E-02  4358   0.321E-01
   1778 T=   827. E= -.22031655E+03 F= -.23994604E+03 E0= -.23994604E+03  EK= 0.67367E+01 SP= 0.13E+02 SK= 0.50E-01 mag=      0.000
       N       E                     dE             d eps       ncg     rms          rms(c)
DAV:   1    -0.239867293888E+03    0.78668E-01   -0.55087E-02  5880   0.214E+00    0.263E+00
RMM:   2    -0.239871639490E+03   -0.43456E-02   -0.53217E-02  4662   0.482E-01    0.119E+00
RMM:   3    -0.239871340239E+03    0.29925E-03   -0.20947E-02  3853   0.470E-01
   1779 T=   803. E= -.22030373E+03 F= -.23987134E+03 E0= -.23987134E+03  EK= 0.65423E+01 SP= 0.13E+02 SK= 0.53E-01 mag=     -0.000
       N       E                     dE             d eps       ncg     rms          rms(c)
DAV:   1    -0.239786494093E+03    0.85145E-01   -0.88059E-02  5584   0.222E+00    0.428E-01
RMM:   2    -0.239792091308E+03   -0.55972E-02   -0.68177E-02  4465   0.665E-01    0.440E-01
RMM:   3    -0.239794299265E+03   -0.22080E-02   -0.21477E-02  4843   0.337E-01
   1780 T=   779. E= -.22029432E+03 F= -.23979430E+03 E0= -.23979430E+03  EK= 0.63454E+01 SP= 0.13E+02 SK= 0.51E-01 mag=     -0.000
       N       E                     dE             d eps       ncg     rms          rms(c)
DAV:   1    -0.239709245388E+03    0.82846E-01   -0.68343E-02  5776   0.208E+00    0.171E+00
RMM:   2    -0.239713532547E+03   -0.42872E-02   -0.46103E-02  4496   0.549E-01    0.123E+00
RMM:   3    -0.239712088270E+03    0.14443E-02   -0.24805E-02  3957   0.475E-01
   1781 T=   756. E= -.22027713E+03 F= -.23971209E+03 E0= -.23971209E+03  EK= 0.61589E+01 SP= 0.13E+02 SK= 0.46E-01 mag=      0.000
       N       E                     dE             d eps       ncg     rms          rms(c)
DAV:   1    -0.239635078089E+03    0.78454E-01   -0.85980E-02  5648   0.209E+00    0.271E+00
RMM:   2    -0.239639070674E+03   -0.39926E-02   -0.68320E-02  4734   0.578E-01    0.120E+00
RMM:   3    -0.239638878148E+03    0.19253E-03   -0.32016E-02  4211   0.513E-01    0.327E-01
RMM:   4    -0.239641652820E+03   -0.27747E-02   -0.10461E-02  4057   0.242E-01
   1782 T=   735. E= -.22026835E+03 F= -.23964165E+03 E0= -.23964165E+03  EK= 0.59874E+01 SP= 0.13E+02 SK= 0.38E-01 mag=     -0.000
       N       E                     dE             d eps       ncg     rms          rms(c)
DAV:   1    -0.239570114442E+03    0.68764E-01   -0.89723E-02  5840   0.216E+00    0.472E-01
RMM:   2    -0.239576617158E+03   -0.65027E-02   -0.49185E-02  4763   0.474E-01    0.386E-01
RMM:   3    -0.239579284075E+03   -0.26669E-02   -0.15732E-02  4236   0.312E-01
   1783 T=   717. E= -.22026127E+03 F= -.23957928E+03 E0= -.23957928E+03  EK= 0.58369E+01 SP= 0.13E+02 SK= 0.29E-01 mag=     -0.000
       N       E                     dE             d eps       ncg     rms          rms(c)
DAV:   1    -0.239521959764E+03    0.54657E-01   -0.63418E-02  6120   0.191E+00    0.711E-01
RMM:   2    -0.239529628400E+03   -0.76686E-02   -0.46500E-02  4810   0.485E-01    0.660E-01
RMM:   3    -0.239532042203E+03   -0.24138E-02   -0.13657E-02  3811   0.292E-01
   1784 T=   703. E= -.22025143E+03 F= -.23953204E+03 E0= -.23953204E+03  EK= 0.57214E+01 SP= 0.14E+02 SK= 0.19E-01 mag=      0.000
       N       E                     dE             d eps       ncg     rms          rms(c)
DAV:   1    -0.239486970570E+03    0.42658E-01   -0.64074E-02  5960   0.195E+00    0.101E+00
RMM:   2    -0.239498647755E+03   -0.11677E-01   -0.47414E-02  4324   0.579E-01    0.400E-01
RMM:   3    -0.239501698518E+03   -0.30508E-02   -0.16114E-02  3923   0.383E-01
   1785 T=   693. E= -.22023863E+03 F= -.23950170E+03 E0= -.23950170E+03  EK= 0.56441E+01 SP= 0.14E+02 SK= 0.10E-01 mag=     -0.000
       N       E                     dE             d eps       ncg     rms          rms(c)
DAV:   1    -0.239479719011E+03    0.18929E-01   -0.54495E-02  6088   0.197E+00    0.684E-01
RMM:   2    -0.239489440305E+03   -0.97213E-02   -0.59492E-02  5074   0.490E-01    0.374E-01
RMM:   3    -0.239492049767E+03   -0.26095E-02   -0.11261E-02  3391   0.290E-01
   1786 T=   688. E= -.22022943E+03 F= -.23949205E+03 E0= -.23949205E+03  EK= 0.56030E+01 SP= 0.14E+02 SK= 0.40E-02 mag=     -0.000
       N       E                     dE             d eps       ncg     rms          rms(c)
DAV:   1    -0.239493062186E+03   -0.36219E-02   -0.71471E-02  5960   0.195E+00    0.359E-01
RMM:   2    -0.239497314526E+03   -0.42523E-02   -0.34752E-02  4699   0.433E-01    0.335E-01
RMM:   3    -0.239498982253E+03   -0.16677E-02   -0.12374E-02  4018   0.232E-01
   1787 T=   687. E= -.22022054E+03 F= -.23949898E+03 E0= -.23949898E+03  EK= 0.55978E+01 SP= 0.14E+02 SK= 0.54E-03 mag=      0.000
       N       E                     dE             d eps       ncg     rms          rms(c)
DAV:   1    -0.239515765822E+03   -0.18451E-01   -0.35422E-02  5656   0.186E+00    0.431E-01
RMM:   2    -0.239519293377E+03   -0.35276E-02   -0.36278E-02  4911   0.423E-01    0.436E-01
RMM:   3    -0.239520242421E+03   -0.94904E-03   -0.81414E-03  3239   0.199E-01
   1788 T=   691. E= -.22021161E+03 F= -.23952024E+03 E0= -.23952024E+03  EK= 0.56265E+01 SP= 0.14E+02 SK= 0.26E-03 mag=      0.000
       N       E                     dE             d eps       ncg     rms          rms(c)
DAV:   1    -0.239538997444E+03   -0.19704E-01   -0.50365E-02  5888   0.191E+00    0.102E+00
RMM:   2    -0.239548046088E+03   -0.90486E-02   -0.39095E-02  4482   0.512E-01    0.416E-01
RMM:   3    -0.239549665838E+03   -0.16198E-02   -0.15449E-02  3896   0.384E-01
   1789 T=   698. E= -.22020173E+03 F= -.23954967E+03 E0= -.23954967E+03  EK= 0.56833E+01 SP= 0.14E+02 SK= 0.29E-02 mag=     -0.000
       N       E                     dE             d eps       ncg     rms          rms(c)
DAV:   1    -0.239574809576E+03   -0.26763E-01   -0.64181E-02  6104   0.201E+00    0.500E-01
RMM:   2    -0.239583364967E+03   -0.85554E-02   -0.56631E-02  5010   0.475E-01    0.306E-01
RMM:   3    -0.239585747862E+03   -0.23829E-02   -0.10689E-02  3396   0.278E-01
   1790 T=   708. E= -.22019428E+03 F= -.23958575E+03 E0= -.23958575E+03  EK= 0.57626E+01 SP= 0.14E+02 SK= 0.77E-02 mag=      0.000
       N       E                     dE             d eps       ncg     rms          rms(c)
DAV:   1    -0.239610542641E+03   -0.27178E-01   -0.66786E-02  6048   0.199E+00    0.482E-01
RMM:   2    -0.239614921566E+03   -0.43789E-02   -0.34846E-02  4600   0.455E-01    0.450E-01
RMM:   3    -0.239616625318E+03   -0.17038E-02   -0.13342E-02  4205   0.266E-01
   1791 T=   719. E= -.22018429E+03 F= -.23961663E+03 E0= -.23961663E+03  EK= 0.58563E+01 SP= 0.14E+02 SK= 0.14E-01 mag=     -0.000
       N       E                     dE             d eps       ncg     rms          rms(c)
DAV:   1    -0.239632627353E+03   -0.17706E-01   -0.40235E-02  5840   0.192E+00    0.446E-01
RMM:   2    -0.239636683747E+03   -0.40564E-02   -0.40417E-02  4928   0.442E-01    0.918E-02
RMM:   3    -0.239637464296E+03   -0.78055E-03   -0.80922E-03  3275   0.192E-01
   1792 T=   731. E= -.22017535E+03 F= -.23963746E+03 E0= -.23963746E+03  EK= 0.59546E+01 SP= 0.13E+02 SK= 0.21E-01 mag=     -0.000
       N       E                     dE             d eps       ncg     rms          rms(c)
DAV:   1    -0.239638069744E+03   -0.13860E-02   -0.50041E-02  5864   0.196E+00    0.519E-01
RMM:   2    -0.239642232937E+03   -0.41632E-02   -0.38270E-02  4771   0.432E-01    0.135E-01
RMM:   3    -0.239643178219E+03   -0.94528E-03   -0.98305E-03  3632   0.207E-01
   1793 T=   743. E= -.22016770E+03 F= -.23964318E+03 E0= -.23964318E+03  EK= 0.60502E+01 SP= 0.13E+02 SK= 0.28E-01 mag=      0.000
       N       E                     dE             d eps       ncg     rms          rms(c)
DAV:   1    -0.239625135404E+03    0.17098E-01   -0.40676E-02  5912   0.198E+00    0.167E-01
RMM:   2    -0.239628994492E+03   -0.38591E-02   -0.35188E-02  4898   0.431E-01    0.143E-01
RMM:   3    -0.239629873633E+03   -0.87914E-03   -0.85264E-03  3306   0.194E-01
   1794 T=   754. E= -.22015828E+03 F= -.23962987E+03 E0= -.23962987E+03  EK= 0.61406E+01 SP= 0.13E+02 SK= 0.35E-01 mag=      0.000
       N       E                     dE             d eps       ncg     rms          rms(c)
DAV:   1    -0.239590346625E+03    0.38648E-01   -0.44118E-02  5800   0.198E+00    0.269E-01
RMM:   2    -0.239594401766E+03   -0.40551E-02   -0.36338E-02  4890   0.417E-01    0.339E-01
RMM:   3    -0.239595242610E+03   -0.84084E-03   -0.88284E-03  3318   0.190E-01
   1795 T=   764. E= -.22014656E+03 F= -.23959524E+03 E0= -.23959524E+03  EK= 0.62221E+01 SP= 0.13E+02 SK= 0.40E-01 mag=      0.000
       N       E                     dE             d eps       ncg     rms          rms(c)
DAV:   1    -0.239534442573E+03    0.59959E-01   -0.43778E-02  5928   0.202E+00    0.168E-01
RMM:   2    -0.239538615292E+03   -0.41727E-02   -0.38170E-02  4973   0.438E-01    0.230E-01
RMM:   3    -0.239539532873E+03   -0.91758E-03   -0.91089E-03  3313   0.196E-01
   1796 T=   772. E= -.22013529E+03 F= -.23953953E+03 E0= -.23953953E+03  EK= 0.62902E+01 SP= 0.13E+02 SK= 0.45E-01 mag=     -0.000
       N       E                     dE             d eps       ncg     rms          rms(c)
DAV:   1    -0.239459670808E+03    0.78944E-01   -0.48310E-02  5968   0.204E+00    0.260E-01
RMM:   2    -0.239463878707E+03   -0.42079E-02   -0.39526E-02  4978   0.430E-01    0.294E-01
RMM:   3    -0.239464779922E+03   -0.90122E-03   -0.89149E-03  3323   0.194E-01
   1797 T=   779. E= -.22012382E+03 F= -.23946478E+03 E0= -.23946478E+03  EK= 0.63460E+01 SP= 0.13E+02 SK= 0.48E-01 mag=     -0.000
       N       E                     dE             d eps       ncg     rms          rms(c)
DAV:   1    -0.239368754826E+03    0.95124E-01   -0.54587E-02  6072   0.203E+00    0.276E-01
RMM:   2    -0.239372959299E+03   -0.42045E-02   -0.38148E-02  4997   0.423E-01    0.330E-01
RMM:   3    -0.239373821996E+03   -0.86270E-03   -0.85710E-03  3219   0.191E-01
   1798 T=   785. E= -.22011054E+03 F= -.23937382E+03 E0= -.23937382E+03  EK= 0.63924E+01 SP= 0.13E+02 SK= 0.51E-01 mag=      0.000
       N       E                     dE             d eps       ncg     rms          rms(c)
DAV:   1    -0.239266552857E+03    0.10641E+00   -0.41522E-02  5856   0.201E+00    0.477E-01
RMM:   2    -0.239270795011E+03   -0.42422E-02   -0.38910E-02  5018   0.431E-01    0.455E-01
RMM:   3    -0.239271667298E+03   -0.87229E-03   -0.89626E-03  3172   0.195E-01
   1799 T=   790. E= -.22009731E+03 F= -.23927167E+03 E0= -.23927167E+03  EK= 0.64313E+01 SP= 0.13E+02 SK= 0.53E-01 mag=     -0.000
       N       E                     dE             d eps       ncg     rms          rms(c)
DAV:   1    -0.239161650159E+03    0.10914E+00   -0.55061E-02  6024   0.205E+00    0.216E+00
RMM:   2    -0.239164799107E+03   -0.31489E-02   -0.41067E-02  5050   0.432E-01    0.106E+00
RMM:   3    -0.239165082796E+03   -0.28369E-03   -0.10969E-02  3308   0.214E-01
   1800 T=   794. E= -.22008390E+03 F= -.23916508E+03 E0= -.23916508E+03  EK= 0.64688E+01 SP= 0.13E+02 SK= 0.55E-01 mag=     -0.000
       N       E                     dE             d eps       ncg     rms          rms(c)
DAV:   1    -0.239054724125E+03    0.11007E+00   -0.48638E-02  5704   0.206E+00    0.773E-01
RMM:   2    -0.239059306272E+03   -0.45821E-02   -0.48741E-02  5082   0.462E-01    0.675E-01
RMM:   3    -0.239059774262E+03   -0.46799E-03   -0.95014E-03  3184   0.212E-01
   1801 T=   800. E= -.22006832E+03 F= -.23905977E+03 E0= -.23905977E+03  EK= 0.65117E+01 SP= 0.12E+02 SK= 0.55E-01 mag=      0.000
       N       E                     dE             d eps       ncg     rms          rms(c)
DAV:   1    -0.238960962243E+03    0.98344E-01   -0.93971E-02  6248   0.209E+00    0.134E+00
RMM:   2    -0.238961872922E+03   -0.91068E-03   -0.47965E-02  4945   0.479E-01    0.507E-01
RMM:   3    -0.238961356286E+03    0.51664E-03   -0.14722E-02  3888   0.236E-01
   1802 T=   806. E= -.22005373E+03 F= -.23896136E+03 E0= -.23896136E+03  EK= 0.65615E+01 SP= 0.12E+02 SK= 0.55E-01 mag=     -0.000
       N       E                     dE             d eps       ncg     rms          rms(c)
DAV:   1    -0.238870870971E+03    0.91002E-01   -0.95211E-02  6400   0.211E+00    0.466E-01
RMM:   2    -0.238874656388E+03   -0.37854E-02   -0.60171E-02  4967   0.504E-01    0.528E-01
RMM:   3    -0.238874869790E+03   -0.21340E-03   -0.10291E-02  3480   0.224E-01
   1803 T=   813. E= -.22004122E+03 F= -.23887487E+03 E0= -.23887487E+03  EK= 0.66211E+01 SP= 0.12E+02 SK= 0.53E-01 mag=     -0.000
       N       E                     dE             d eps       ncg     rms          rms(c)
DAV:   1    -0.238797572761E+03    0.77084E-01   -0.80149E-02  6272   0.209E+00    0.901E-01
RMM:   2    -0.238800474136E+03   -0.29014E-02   -0.66817E-02  4903   0.497E-01    0.753E-01
RMM:   3    -0.238801479178E+03   -0.10050E-02   -0.13230E-02  3663   0.239E-01
   1804 T=   822. E= -.22002480E+03 F= -.23880148E+03 E0= -.23880148E+03  EK= 0.66964E+01 SP= 0.12E+02 SK= 0.50E-01 mag=      0.000
       N       E                     dE             d eps       ncg     rms          rms(c)
DAV:   1    -0.238747929973E+03    0.52544E-01   -0.44961E-02  5960   0.205E+00    0.159E+00
RMM:   2    -0.238744903837E+03    0.30261E-02   -0.55774E-02  4847   0.461E-01    0.733E-01
RMM:   3    -0.238744942704E+03   -0.38867E-04   -0.16183E-02  3813   0.238E-01
   1805 T=   833. E= -.22001018E+03 F= -.23874494E+03 E0= -.23874494E+03  EK= 0.67837E+01 SP= 0.12E+02 SK= 0.46E-01 mag=      0.000
       N       E                     dE             d eps       ncg     rms          rms(c)
DAV:   1    -0.238700949223E+03    0.43955E-01   -0.74946E-02  6368   0.212E+00    0.562E-01
RMM:   2    -0.238704040801E+03   -0.30916E-02   -0.54981E-02  4846   0.495E-01    0.286E-01
RMM:   3    -0.238704281233E+03   -0.24043E-03   -0.10798E-02  3540   0.226E-01
   1806 T=   845. E= -.21999815E+03 F= -.23870428E+03 E0= -.23870428E+03  EK= 0.68791E+01 SP= 0.12E+02 SK= 0.40E-01 mag=     -0.000
       N       E                     dE             d eps       ncg     rms          rms(c)
DAV:   1    -0.238670889038E+03    0.33152E-01   -0.84568E-02  6368   0.210E+00    0.412E-01
RMM:   2    -0.238676919835E+03   -0.60308E-02   -0.58523E-02  5027   0.493E-01    0.460E-01
RMM:   3    -0.238677901221E+03   -0.98139E-03   -0.10457E-02  3467   0.222E-01
   1807 T=   858. E= -.21998358E+03 F= -.23867790E+03 E0= -.23867790E+03  EK= 0.69835E+01 SP= 0.12E+02 SK= 0.33E-01 mag=     -0.000
       N       E                     dE             d eps       ncg     rms          rms(c)
DAV:   1    -0.238658962125E+03    0.17958E-01   -0.72566E-02  6144   0.210E+00    0.595E-01
RMM:   2    -0.238662740432E+03   -0.37783E-02   -0.61171E-02  4970   0.484E-01    0.539E-01
RMM:   3    -0.238663805910E+03   -0.10655E-02   -0.12325E-02  3548   0.230E-01
   1808 T=   870. E= -.21997034E+03 F= -.23866381E+03 E0= -.23866381E+03  EK= 0.70882E+01 SP= 0.12E+02 SK= 0.26E-01 mag=      0.000
       N       E                     dE             d eps       ncg     rms          rms(c)
DAV:   1    -0.238653706930E+03    0.90335E-02   -0.60209E-02  6088   0.214E+00    0.112E+00
RMM:   2    -0.238657582545E+03   -0.38756E-02   -0.46838E-02  4928   0.474E-01    0.481E-01
RMM:   3    -0.238658335052E+03   -0.75251E-03   -0.10911E-02  3445   0.217E-01
   1809 T=   882. E= -.21995927E+03 F= -.23865834E+03 E0= -.23865834E+03  EK= 0.71853E+01 SP= 0.11E+02 SK= 0.18E-01 mag=      0.000
       N       E                     dE             d eps       ncg     rms          rms(c)
DAV:   1    -0.238650591971E+03    0.69906E-02   -0.61149E-02  6160   0.212E+00    0.551E-01
RMM:   2    -0.238656395090E+03   -0.58031E-02   -0.53815E-02  5105   0.475E-01    0.233E-01
RMM:   3    -0.238657240919E+03   -0.84583E-03   -0.96263E-03  3235   0.209E-01
   1810 T=   893. E= -.21994652E+03 F= -.23865724E+03 E0= -.23865724E+03  EK= 0.72713E+01 SP= 0.11E+02 SK= 0.10E-01 mag=     -0.000
       N       E                     dE             d eps       ncg     rms          rms(c)
DAV:   1    -0.238649893425E+03    0.65017E-02   -0.62198E-02  5944   0.213E+00    0.250E-01
RMM:   2    -0.238655190979E+03   -0.52976E-02   -0.50897E-02  5057   0.464E-01    0.326E-01
RMM:   3    -0.238656241094E+03   -0.10501E-02   -0.10466E-02  3346   0.212E-01
   1811 T=   901. E= -.21993358E+03 F= -.23865624E+03 E0= -.23865624E+03  EK= 0.73375E+01 SP= 0.11E+02 SK= 0.46E-02 mag=     -0.000
       N       E                     dE             d eps       ncg     rms          rms(c)
DAV:   1    -0.238646425490E+03    0.87655E-02   -0.45374E-02  5912   0.214E+00    0.608E-01
RMM:   2    -0.238650796742E+03   -0.43713E-02   -0.45639E-02  5079   0.451E-01    0.548E-01
RMM:   3    -0.238651631085E+03   -0.83434E-03   -0.96796E-03  3262   0.205E-01
   1812 T=   906. E= -.21992050E+03 F= -.23865163E+03 E0= -.23865163E+03  EK= 0.73776E+01 SP= 0.11E+02 SK= 0.95E-03 mag=      0.000
       N       E                     dE             d eps       ncg     rms          rms(c)
DAV:   1    -0.238634669827E+03    0.16127E-01   -0.59921E-02  5992   0.214E+00    0.143E+00
RMM:   2    -0.238639402212E+03   -0.47324E-02   -0.49232E-02  5121   0.465E-01    0.612E-01
RMM:   3    -0.238640048514E+03   -0.64630E-03   -0.10080E-02  3301   0.212E-01
   1813 T=   907. E= -.21990731E+03 F= -.23864005E+03 E0= -.23864005E+03  EK= 0.73870E+01 SP= 0.11E+02 SK= 0.48E-04 mag=      0.000
       N       E                     dE             d eps       ncg     rms          rms(c)
DAV:   1    -0.238612517020E+03    0.26885E-01   -0.76199E-02  6032   0.218E+00    0.338E-01
RMM:   2    -0.238618367067E+03   -0.58500E-02   -0.54504E-02  5098   0.479E-01    0.273E-01
RMM:   3    -0.238619230720E+03   -0.86365E-03   -0.10040E-02  3342   0.214E-01
   1814 T=   904. E= -.21989451E+03 F= -.23861923E+03 E0= -.23861923E+03  EK= 0.73623E+01 SP= 0.11E+02 SK= 0.20E-02 mag=     -0.000
       N       E                     dE             d eps       ncg     rms          rms(c)
DAV:   1    -0.238583281498E+03    0.35086E-01   -0.57659E-02  5960   0.215E+00    0.658E-01
RMM:   2    -0.238587686612E+03   -0.44051E-02   -0.50409E-02  5086   0.461E-01    0.626E-01
RMM:   3    -0.238588538399E+03   -0.85179E-03   -0.98809E-03  3247   0.209E-01
   1815 T=   897. E= -.21987980E+03 F= -.23858854E+03 E0= -.23858854E+03  EK= 0.73063E+01 SP= 0.11E+02 SK= 0.64E-02 mag=      0.000
       N       E                     dE             d eps       ncg     rms          rms(c)
DAV:   1    -0.238546431129E+03    0.41255E-01   -0.62966E-02  6168   0.211E+00    0.148E+00
RMM:   2    -0.238549149712E+03   -0.27186E-02   -0.45277E-02  5041   0.454E-01    0.627E-01
RMM:   3    -0.238549482777E+03   -0.33307E-03   -0.11148E-02  3361   0.214E-01
   1816 T=   886. E= -.21986747E+03 F= -.23854948E+03 E0= -.23854948E+03  EK= 0.72182E+01 SP= 0.11E+02 SK= 0.13E-01 mag=     -0.000
       N       E                     dE             d eps       ncg     rms          rms(c)
DAV:   1    -0.238498715951E+03    0.50434E-01   -0.62464E-02  6128   0.213E+00    0.356E-01
RMM:   2    -0.238503823386E+03   -0.51074E-02   -0.53534E-02  5065   0.475E-01    0.345E-01
RMM:   3    -0.238504443121E+03   -0.61974E-03   -0.90086E-03  3236   0.206E-01
   1817 T=   872. E= -.21985658E+03 F= -.23850444E+03 E0= -.23850444E+03  EK= 0.71045E+01 SP= 0.12E+02 SK= 0.20E-01 mag=     -0.000
       N       E                     dE             d eps       ncg     rms          rms(c)
DAV:   1    -0.238451216370E+03    0.52607E-01   -0.67150E-02  6008   0.208E+00    0.840E-01
RMM:   2    -0.238454329062E+03   -0.31127E-02   -0.52617E-02  5030   0.458E-01    0.739E-01
RMM:   3    -0.238455004491E+03   -0.67543E-03   -0.10732E-02  3339   0.212E-01
   1818 T=   857. E= -.21984141E+03 F= -.23845500E+03 E0= -.23845500E+03  EK= 0.69762E+01 SP= 0.12E+02 SK= 0.27E-01 mag=      0.000
       N       E                     dE             d eps       ncg     rms          rms(c)
DAV:   1    -0.238407043651E+03    0.47285E-01   -0.49278E-02  6088   0.200E+00    0.179E+00
RMM:   2    -0.238405646782E+03    0.13969E-02   -0.46235E-02  5020   0.444E-01    0.800E-01
RMM:   3    -0.238404858068E+03    0.78871E-03   -0.14553E-02  3859   0.227E-01
   1819 T=   839. E= -.21983076E+03 F= -.23840486E+03 E0= -.23840486E+03  EK= 0.68325E+01 SP= 0.12E+02 SK= 0.33E-01 mag=      0.000
       N       E                     dE             d eps       ncg     rms          rms(c)
DAV:   1    -0.238354397781E+03    0.51249E-01   -0.93259E-02  6224   0.209E+00    0.432E-01
RMM:   2    -0.238357376053E+03   -0.29783E-02   -0.60671E-02  4930   0.490E-01    0.420E-01
RMM:   3    -0.238357408743E+03   -0.32690E-04   -0.98281E-03  3423   0.217E-01
   1820 T=   821. E= -.21982290E+03 F= -.23835741E+03 E0= -.23835741E+03  EK= 0.66827E+01 SP= 0.12E+02 SK= 0.37E-01 mag=     -0.000
       N       E                     dE             d eps       ncg     rms          rms(c)
DAV:   1    -0.238308342991E+03    0.49033E-01   -0.80364E-02  6296   0.201E+00    0.827E-01
RMM:   2    -0.238312740737E+03   -0.43977E-02   -0.62800E-02  4929   0.478E-01    0.765E-01
RMM:   3    -0.238313537069E+03   -0.79633E-03   -0.98637E-03  3388   0.213E-01
   1821 T=   803. E= -.21980946E+03 F= -.23831354E+03 E0= -.23831354E+03  EK= 0.65403E+01 SP= 0.12E+02 SK= 0.38E-01 mag=     -0.000
       N       E                     dE             d eps       ncg     rms          rms(c)
DAV:   1    -0.238277581796E+03    0.35159E-01   -0.52854E-02  5984   0.194E+00    0.162E+00
RMM:   2    -0.238277591612E+03   -0.98162E-05   -0.52240E-02  4872   0.447E-01    0.735E-01
RMM:   3    -0.238277869552E+03   -0.27794E-03   -0.12107E-02  3467   0.218E-01
   1822 T=   786. E= -.21980123E+03 F= -.23827787E+03 E0= -.23827787E+03  EK= 0.64026E+01 SP= 0.12E+02 SK= 0.37E-01 mag=      0.000
       N       E                     dE             d eps       ncg     rms          rms(c)
DAV:   1    -0.238246899993E+03    0.30692E-01   -0.54612E-02  6032   0.203E+00    0.492E-01
RMM:   2    -0.238250695348E+03   -0.37954E-02   -0.51266E-02  4920   0.469E-01    0.347E-01
RMM:   3    -0.238251105407E+03   -0.41006E-03   -0.87304E-03  3333   0.204E-01
   1823 T=   771. E= -.21979524E+03 F= -.23825111E+03 E0= -.23825111E+03  EK= 0.62765E+01 SP= 0.12E+02 SK= 0.34E-01 mag=     -0.000
       N       E                     dE             d eps       ncg     rms          rms(c)
DAV:   1    -0.238229754517E+03    0.20941E-01   -0.61137E-02  6264   0.196E+00    0.650E-01
RMM:   2    -0.238233917780E+03   -0.41633E-02   -0.53291E-02  4996   0.450E-01    0.625E-01
RMM:   3    -0.238234637457E+03   -0.71968E-03   -0.85266E-03  3204   0.199E-01
   1824 T=   758. E= -.21978445E+03 F= -.23823464E+03 E0= -.23823464E+03  EK= 0.61730E+01 SP= 0.12E+02 SK= 0.30E-01 mag=     -0.000
       N       E                     dE             d eps       ncg     rms          rms(c)
DAV:   1    -0.238228017446E+03    0.59003E-02   -0.50845E-02  5936   0.192E+00    0.122E+00
RMM:   2    -0.238229934900E+03   -0.19175E-02   -0.43255E-02  4952   0.434E-01    0.533E-01
RMM:   3    -0.238230398323E+03   -0.46342E-03   -0.10056E-02  3327   0.204E-01
   1825 T=   748. E= -.21977619E+03 F= -.23823040E+03 E0= -.23823040E+03  EK= 0.60885E+01 SP= 0.12E+02 SK= 0.24E-01 mag=     -0.000
       N       E                     dE             d eps       ncg     rms          rms(c)
DAV:   1    -0.238234712151E+03   -0.47773E-02   -0.49077E-02  5808   0.200E+00    0.452E-01
RMM:   2    -0.238239165567E+03   -0.44534E-02   -0.47624E-02  5013   0.455E-01    0.290E-01
RMM:   3    -0.238239778007E+03   -0.61244E-03   -0.85266E-03  3241   0.197E-01
   1826 T=   740. E= -.21977005E+03 F= -.23823978E+03 E0= -.23823978E+03  EK= 0.60265E+01 SP= 0.12E+02 SK= 0.19E-01 mag=     -0.000
       N       E                     dE             d eps       ncg     rms          rms(c)
DAV:   1    -0.238259854996E+03   -0.20689E-01   -0.48659E-02  5984   0.197E+00    0.487E-01
RMM:   2    -0.238263309369E+03   -0.34544E-02   -0.44193E-02  4977   0.431E-01    0.483E-01
RMM:   3    -0.238264001041E+03   -0.69167E-03   -0.80068E-03  3114   0.192E-01
   1827 T=   736. E= -.21975950E+03 F= -.23826400E+03 E0= -.23826400E+03  EK= 0.59954E+01 SP= 0.12E+02 SK= 0.13E-01 mag=     -0.000
       N       E                     dE             d eps       ncg     rms          rms(c)
DAV:   1    -0.238301640110E+03   -0.38331E-01   -0.45969E-02  5832   0.193E+00    0.718E-01
RMM:   2    -0.238304291026E+03   -0.26509E-02   -0.39036E-02  4972   0.420E-01    0.261E-01
RMM:   3    -0.238304892275E+03   -0.60125E-03   -0.89942E-03  3234   0.194E-01
   1828 T=   736. E= -.21974983E+03 F= -.23830489E+03 E0= -.23830489E+03  EK= 0.59921E+01 SP= 0.13E+02 SK= 0.84E-02 mag=      0.000
       N       E                     dE             d eps       ncg     rms          rms(c)
DAV:   1    -0.238357106632E+03   -0.52816E-01   -0.44816E-02  5632   0.197E+00    0.471E-01
RMM:   2    -0.238361439838E+03   -0.43332E-02   -0.42817E-02  5062   0.435E-01    0.204E-01
RMM:   3    -0.238362082333E+03   -0.64249E-03   -0.75959E-03  3067   0.185E-01
   1829 T=   739. E= -.21974166E+03 F= -.23836208E+03 E0= -.23836208E+03  EK= 0.60154E+01 SP= 0.13E+02 SK= 0.48E-02 mag=     -0.000
       N       E                     dE             d eps       ncg     rms          rms(c)
DAV:   1    -0.238431275964E+03   -0.69836E-01   -0.41854E-02  5840   0.195E+00    0.202E-01
RMM:   2    -0.238434942944E+03   -0.36670E-02   -0.39196E-02  5036   0.412E-01    0.237E-01
RMM:   3    -0.238435680054E+03   -0.73711E-03   -0.75560E-03  3053   0.183E-01
   1830 T=   745. E= -.21973134E+03 F= -.23843568E+03 E0= -.23843568E+03  EK= 0.60684E+01 SP= 0.13E+02 SK= 0.24E-02 mag=     -0.000
       N       E                     dE             d eps       ncg     rms          rms(c)
DAV:   1    -0.238519105189E+03   -0.84162E-01   -0.39516E-02  5712   0.194E+00    0.346E-01
RMM:   2    -0.238522592775E+03   -0.34876E-02   -0.36939E-02  5028   0.412E-01    0.365E-01
RMM:   3    -0.238523349751E+03   -0.75698E-03   -0.80219E-03  3110   0.183E-01
   1831 T=   755. E= -.21972094E+03 F= -.23852335E+03 E0= -.23852335E+03  EK= 0.61456E+01 SP= 0.13E+02 SK= 0.98E-03 mag=     -0.000
       N       E                     dE             d eps       ncg     rms          rms(c)
DAV:   1    -0.238616802136E+03   -0.94209E-01   -0.42984E-02  5560   0.199E+00    0.160E-01
RMM:   2    -0.238620825033E+03   -0.40229E-02   -0.37747E-02  5057   0.417E-01    0.242E-01
RMM:   3    -0.238621617431E+03   -0.79240E-03   -0.79922E-03  3109   0.183E-01
   1832 T=   766. E= -.21971193E+03 F= -.23862162E+03 E0= -.23862162E+03  EK= 0.62404E+01 SP= 0.13E+02 SK= 0.30E-03 mag=      0.000
       N       E                     dE             d eps       ncg     rms          rms(c)
DAV:   1    -0.238720990262E+03   -0.10017E+00   -0.49577E-02  5568   0.203E+00    0.223E-01
RMM:   2    -0.238725151178E+03   -0.41609E-02   -0.42278E-02  5009   0.419E-01    0.220E-01
RMM:   3    -0.238725934956E+03   -0.78378E-03   -0.83580E-03  3127   0.188E-01
   1833 T=   780. E= -.21970039E+03 F= -.23872593E+03 E0= -.23872593E+03  EK= 0.63500E+01 SP= 0.13E+02 SK= 0.60E-04 mag=      0.000
       N       E                     dE             d eps       ncg     rms          rms(c)
DAV:   1    -0.238828075760E+03   -0.10292E+00   -0.54013E-02  5832   0.201E+00    0.367E-01
RMM:   2    -0.238832462425E+03   -0.43867E-02   -0.40559E-02  5042   0.422E-01    0.180E-01
RMM:   3    -0.238833354057E+03   -0.89163E-03   -0.89546E-03  3183   0.190E-01
   1834 T=   794. E= -.21968856E+03 F= -.23883335E+03 E0= -.23883335E+03  EK= 0.64670E+01 SP= 0.13E+02 SK= 0.98E-05 mag=      0.000
       N       E                     dE             d eps       ncg     rms          rms(c)
DAV:   1    -0.238934164077E+03   -0.10170E+00   -0.49888E-02  5800   0.203E+00    0.344E-01
RMM:   2    -0.238938300219E+03   -0.41361E-02   -0.39751E-02  5038   0.416E-01    0.930E-02
RMM:   3    -0.238939076814E+03   -0.77660E-03   -0.79883E-03  3106   0.184E-01
   1835 T=   808. E= -.21967712E+03 F= -.23893908E+03 E0= -.23893908E+03  EK= 0.65829E+01 SP= 0.13E+02 SK= 0.13E-04 mag=     -0.000
       N       E                     dE             d eps       ncg     rms          rms(c)
DAV:   1    -0.239033794344E+03   -0.95494E-01   -0.44522E-02  5712   0.203E+00    0.254E-01
RMM:   2    -0.239038196455E+03   -0.44021E-02   -0.40263E-02  5040   0.416E-01    0.161E-01
RMM:   3    -0.239039044672E+03   -0.84822E-03   -0.84489E-03  3097   0.186E-01
   1836 T=   822. E= -.21966414E+03 F= -.23903904E+03 E0= -.23903904E+03  EK= 0.66929E+01 SP= 0.13E+02 SK= 0.80E-04 mag=     -0.000
       N       E                     dE             d eps       ncg     rms          rms(c)
DAV:   1    -0.239123755413E+03   -0.85559E-01   -0.52269E-02  5944   0.205E+00    0.200E-01
RMM:   2    -0.239128291939E+03   -0.45365E-02   -0.41384E-02  5039   0.423E-01    0.202E-01
RMM:   3    -0.239129188241E+03   -0.89630E-03   -0.88678E-03  3172   0.190E-01
   1837 T=   834. E= -.21964892E+03 F= -.23912919E+03 E0= -.23912919E+03  EK= 0.67908E+01 SP= 0.13E+02 SK= 0.35E-03 mag=      0.000
       N       E                     dE             d eps       ncg     rms          rms(c)
DAV:   1    -0.239201919444E+03   -0.73628E-01   -0.53852E-02  6000   0.205E+00    0.177E-01
RMM:   2    -0.239206555120E+03   -0.46357E-02   -0.41905E-02  5048   0.420E-01    0.273E-01
RMM:   3    -0.239207450458E+03   -0.89534E-03   -0.87976E-03  3135   0.186E-01
   1838 T=   844. E= -.21963393E+03 F= -.23920745E+03 E0= -.23920745E+03  EK= 0.68693E+01 SP= 0.13E+02 SK= 0.11E-02 mag=      0.000
       N       E                     dE             d eps       ncg     rms          rms(c)
DAV:   1    -0.239265655965E+03   -0.59101E-01   -0.52227E-02  5880   0.207E+00    0.358E-01
RMM:   2    -0.239270770839E+03   -0.51149E-02   -0.46213E-02  5060   0.430E-01    0.412E-01
RMM:   3    -0.239271680764E+03   -0.90992E-03   -0.89837E-03  3155   0.190E-01
   1839 T=   850. E= -.21961911E+03 F= -.23927168E+03 E0= -.23927168E+03  EK= 0.69241E+01 SP= 0.13E+02 SK= 0.24E-02 mag=     -0.000
       N       E                     dE             d eps       ncg     rms          rms(c)
DAV:   1    -0.239313424673E+03   -0.42654E-01   -0.53847E-02  5632   0.211E+00    0.111E+00
RMM:   2    -0.239318267435E+03   -0.48428E-02   -0.47132E-02  5055   0.446E-01    0.866E-01
RMM:   3    -0.239319074834E+03   -0.80740E-03   -0.10065E-02  3236   0.203E-01
   1840 T=   854. E= -.21960278E+03 F= -.23931907E+03 E0= -.23931907E+03  EK= 0.69528E+01 SP= 0.13E+02 SK= 0.46E-02 mag=      0.000
       N       E                     dE             d eps       ncg     rms          rms(c)
DAV:   1    -0.239344171188E+03   -0.25904E-01   -0.59749E-02  5984   0.215E+00    0.278E+00
RMM:   2    -0.239347196894E+03   -0.30257E-02   -0.45046E-02  5020   0.437E-01    0.141E+00
RMM:   3    -0.239347615907E+03   -0.41901E-03   -0.11966E-02  3316   0.215E-01
   1841 T=   853. E= -.21958796E+03 F= -.23934762E+03 E0= -.23934762E+03  EK= 0.69495E+01 SP= 0.13E+02 SK= 0.75E-02 mag=     -0.000
       N       E                     dE             d eps       ncg     rms          rms(c)
DAV:   1    -0.239350535120E+03   -0.33382E-02   -0.58061E-02  5864   0.212E+00    0.803E-01
RMM:   2    -0.239354623586E+03   -0.40885E-02   -0.48521E-02  5027   0.470E-01    0.690E-01
RMM:   3    -0.239355065684E+03   -0.44210E-03   -0.10304E-02  3314   0.207E-01
   1842 T=   849. E= -.21957387E+03 F= -.23935507E+03 E0= -.23935507E+03  EK= 0.69131E+01 SP= 0.13E+02 SK= 0.11E-01 mag=      0.000
       N       E                     dE             d eps       ncg     rms          rms(c)
DAV:   1    -0.239338633476E+03    0.15990E-01   -0.82028E-02  6328   0.208E+00    0.100E+00
RMM:   2    -0.239339954736E+03   -0.13213E-02   -0.45778E-02  4927   0.452E-01    0.334E-01
RMM:   3    -0.239339679294E+03    0.27544E-03   -0.11738E-02  3418   0.209E-01
   1843 T=   840. E= -.21956171E+03 F= -.23933968E+03 E0= -.23933968E+03  EK= 0.68420E+01 SP= 0.13E+02 SK= 0.15E-01 mag=      0.000
       N       E                     dE             d eps       ncg     rms          rms(c)
DAV:   1    -0.239296097847E+03    0.43857E-01   -0.81381E-02  6112   0.211E+00    0.347E-01
RMM:   2    -0.239301719517E+03   -0.56217E-02   -0.63015E-02  5066   0.483E-01    0.439E-01
RMM:   3    -0.239302158513E+03   -0.43900E-03   -0.93094E-03  3210   0.204E-01
   1844 T=   828. E= -.21955176E+03 F= -.23930216E+03 E0= -.23930216E+03  EK= 0.67391E+01 SP= 0.13E+02 SK= 0.18E-01 mag=     -0.000
       N       E                     dE             d eps       ncg     rms          rms(c)
DAV:   1    -0.239240041635E+03    0.61678E-01   -0.80584E-02  6216   0.210E+00    0.866E-01
RMM:   2    -0.239241154631E+03   -0.11130E-02   -0.67621E-02  4925   0.474E-01    0.739E-01
RMM:   3    -0.239241875266E+03   -0.72063E-03   -0.13090E-02  3538   0.226E-01
   1845 T=   812. E= -.21953557E+03 F= -.23924188E+03 E0= -.23924188E+03  EK= 0.66152E+01 SP= 0.13E+02 SK= 0.19E-01 mag=      0.000
       N       E                     dE             d eps       ncg     rms          rms(c)
DAV:   1    -0.239170720948E+03    0.70434E-01   -0.60999E-02  6144   0.203E+00    0.161E+00
RMM:   2    -0.239165765479E+03    0.49555E-02   -0.51163E-02  4901   0.454E-01    0.707E-01
RMM:   3    -0.239164814896E+03    0.95058E-03   -0.17103E-02  4026   0.236E-01
   1846 T=   795. E= -.21952252E+03 F= -.23916481E+03 E0= -.23916481E+03  EK= 0.64705E+01 SP= 0.13E+02 SK= 0.20E-01 mag=      0.000
       N       E                     dE             d eps       ncg     rms          rms(c)
DAV:   1    -0.239072707214E+03    0.93058E-01   -0.11102E-01  6288   0.210E+00    0.609E-01
RMM:   2    -0.239075915038E+03   -0.32078E-02   -0.63582E-02  4847   0.499E-01    0.324E-01
RMM:   3    -0.239075669077E+03    0.24596E-03   -0.10466E-02  3397   0.219E-01
   1847 T=   775. E= -.21951126E+03 F= -.23907567E+03 E0= -.23907567E+03  EK= 0.63148E+01 SP= 0.13E+02 SK= 0.18E-01 mag=     -0.000
       N       E                     dE             d eps       ncg     rms          rms(c)
DAV:   1    -0.238971444564E+03    0.10447E+00   -0.10865E-01  6392   0.201E+00    0.428E-01
RMM:   2    -0.238978112528E+03   -0.66680E-02   -0.67628E-02  4970   0.491E-01    0.545E-01
RMM:   3    -0.238979112194E+03   -0.99967E-03   -0.10454E-02  3354   0.217E-01
   1848 T=   757. E= -.21949354E+03 F= -.23897911E+03 E0= -.23897911E+03  EK= 0.61647E+01 SP= 0.13E+02 SK= 0.15E-01 mag=     -0.000
       N       E                     dE             d eps       ncg     rms          rms(c)
DAV:   1    -0.238884058593E+03    0.94054E-01   -0.62784E-02  6032   0.194E+00    0.977E-01
RMM:   2    -0.238885257790E+03   -0.11992E-02   -0.62520E-02  4896   0.469E-01    0.786E-01
RMM:   3    -0.238886049814E+03   -0.79202E-03   -0.13359E-02  3504   0.227E-01
   1849 T=   740. E= -.21948114E+03 F= -.23888605E+03 E0= -.23888605E+03  EK= 0.60226E+01 SP= 0.13E+02 SK= 0.11E-01 mag=     -0.000
       N       E                     dE             d eps       ncg     rms          rms(c)
DAV:   1    -0.238806371253E+03    0.78887E-01   -0.54987E-02  6056   0.200E+00    0.196E+00
RMM:   2    -0.238806444239E+03   -0.72986E-04   -0.44062E-02  4918   0.453E-01    0.940E-01
RMM:   3    -0.238806013807E+03    0.43043E-03   -0.12323E-02  3540   0.214E-01
   1850 T=   725. E= -.21946983E+03 F= -.23880601E+03 E0= -.23880601E+03  EK= 0.59047E+01 SP= 0.13E+02 SK= 0.66E-02 mag=     -0.000
       N       E                     dE             d eps       ncg     rms          rms(c)
DAV:   1    -0.238749222236E+03    0.57222E-01   -0.99516E-02  6280   0.190E+00    0.466E-01
RMM:   2    -0.238751528576E+03   -0.23063E-02   -0.49041E-02  4926   0.458E-01    0.387E-01
RMM:   3    -0.238751703048E+03   -0.17447E-03   -0.88572E-03  3234   0.204E-01
   1851 T=   716. E= -.21945729E+03 F= -.23875170E+03 E0= -.23875170E+03  EK= 0.58283E+01 SP= 0.13E+02 SK= 0.28E-02 mag=     -0.000
       N       E                     dE             d eps       ncg     rms          rms(c)
DAV:   1    -0.238725321153E+03    0.26207E-01   -0.57873E-02  6056   0.191E+00    0.805E-01
RMM:   2    -0.238730282856E+03   -0.49617E-02   -0.54197E-02  5017   0.456E-01    0.720E-01
RMM:   3    -0.238731050000E+03   -0.76714E-03   -0.84770E-03  3152   0.200E-01
   1852 T=   712. E= -.21944795E+03 F= -.23873105E+03 E0= -.23873105E+03  EK= 0.57977E+01 SP= 0.13E+02 SK= 0.50E-03 mag=      0.000
       N       E                     dE             d eps       ncg     rms          rms(c)
DAV:   1    -0.238747122671E+03   -0.16840E-01   -0.45027E-02  5816   0.189E+00    0.154E+00
RMM:   2    -0.238750098199E+03   -0.29755E-02   -0.47920E-02  4940   0.430E-01    0.701E-01
RMM:   3    -0.238750767363E+03   -0.66916E-03   -0.89522E-03  3231   0.198E-01
   1853 T=   715. E= -.21943793E+03 F= -.23875077E+03 E0= -.23875077E+03  EK= 0.58240E+01 SP= 0.13E+02 SK= 0.68E-04 mag=     -0.000
       N       E                     dE             d eps       ncg     rms          rms(c)
DAV:   1    -0.238808370428E+03   -0.58272E-01   -0.38977E-02  5544   0.188E+00    0.396E-01
RMM:   2    -0.238812549509E+03   -0.41791E-02   -0.42637E-02  4948   0.428E-01    0.321E-01
RMM:   3    -0.238813252299E+03   -0.70279E-03   -0.78353E-03  3066   0.189E-01
   1854 T=   726. E= -.21942700E+03 F= -.23881325E+03 E0= -.23881325E+03  EK= 0.59094E+01 SP= 0.13E+02 SK= 0.13E-02 mag=     -0.000
       N       E                     dE             d eps       ncg     rms          rms(c)
DAV:   1    -0.238910956422E+03   -0.98407E-01   -0.43352E-02  5808   0.189E+00    0.746E-01
RMM:   2    -0.238914635316E+03   -0.36789E-02   -0.38403E-02  4973   0.419E-01    0.612E-01
RMM:   3    -0.238915325692E+03   -0.69038E-03   -0.84004E-03  3086   0.186E-01
   1855 T=   742. E= -.21941918E+03 F= -.23891533E+03 E0= -.23891533E+03  EK= 0.60451E+01 SP= 0.13E+02 SK= 0.36E-02 mag=      0.000
       N       E                     dE             d eps       ncg     rms          rms(c)
DAV:   1    -0.239045423276E+03   -0.13079E+00   -0.51003E-02  5904   0.192E+00    0.138E+00
RMM:   2    -0.239047985817E+03   -0.25625E-02   -0.37265E-02  5035   0.410E-01    0.634E-01
RMM:   3    -0.239048269274E+03   -0.28346E-03   -0.90867E-03  3160   0.191E-01
   1856 T=   764. E= -.21941222E+03 F= -.23904827E+03 E0= -.23904827E+03  EK= 0.62225E+01 SP= 0.13E+02 SK= 0.58E-02 mag=      0.000
       N       E                     dE             d eps       ncg     rms          rms(c)
DAV:   1    -0.239195795650E+03   -0.14781E+00   -0.48196E-02  5944   0.197E+00    0.269E-01
RMM:   2    -0.239199891847E+03   -0.40962E-02   -0.41993E-02  5073   0.422E-01    0.297E-01
RMM:   3    -0.239200471074E+03   -0.57923E-03   -0.75214E-03  3035   0.185E-01
   1857 T=   789. E= -.21940423E+03 F= -.23920047E+03 E0= -.23920047E+03  EK= 0.64283E+01 SP= 0.13E+02 SK= 0.72E-02 mag=     -0.000
       N       E                     dE             d eps       ncg     rms          rms(c)
DAV:   1    -0.239353738808E+03   -0.15385E+00   -0.43067E-02  5840   0.201E+00    0.720E-01
RMM:   2    -0.239356899941E+03   -0.31611E-02   -0.41111E-02  5026   0.423E-01    0.594E-01
RMM:   3    -0.239357537751E+03   -0.63781E-03   -0.90293E-03  3179   0.193E-01
   1858 T=   816. E= -.21939684E+03 F= -.23935754E+03 E0= -.23935754E+03  EK= 0.66420E+01 SP= 0.13E+02 SK= 0.70E-02 mag=      0.000
       N       E                     dE             d eps       ncg     rms          rms(c)
DAV:   1    -0.239505719305E+03   -0.14882E+00   -0.29210E-02  5584   0.203E+00    0.124E+00
RMM:   2    -0.239506775891E+03   -0.10566E-02   -0.37782E-02  5022   0.416E-01    0.569E-01
RMM:   3    -0.239506716103E+03    0.59788E-04   -0.10086E-02  3198   0.201E-01
   1859 T=   841. E= -.21939011E+03 F= -.23950672E+03 E0= -.23950672E+03  EK= 0.68454E+01 SP= 0.13E+02 SK= 0.55E-02 mag=      0.000
       N       E                     dE             d eps       ncg     rms          rms(c)
DAV:   1    -0.239632358409E+03   -0.12558E+00   -0.65470E-02  6048   0.213E+00    0.354E-01
RMM:   2    -0.239636688993E+03   -0.43306E-02   -0.49111E-02  5028   0.457E-01    0.266E-01
RMM:   3    -0.239637115692E+03   -0.42670E-03   -0.86402E-03  3220   0.203E-01
   1860 T=   863. E= -.21938129E+03 F= -.23963712E+03 E0= -.23963712E+03  EK= 0.70247E+01 SP= 0.13E+02 SK= 0.31E-02 mag=     -0.000
       N       E                     dE             d eps       ncg     rms          rms(c)
DAV:   1    -0.239735643831E+03   -0.98955E-01   -0.51873E-02  6104   0.211E+00    0.494E-01
RMM:   2    -0.239740004478E+03   -0.43606E-02   -0.53449E-02  4992   0.457E-01    0.499E-01
RMM:   3    -0.239740918673E+03   -0.91420E-03   -0.99096E-03  3297   0.209E-01
   1861 T=   880. E= -.21937003E+03 F= -.23974092E+03 E0= -.23974092E+03  EK= 0.71672E+01 SP= 0.13E+02 SK= 0.92E-03 mag=     -0.000
       N       E                     dE             d eps       ncg     rms          rms(c)
DAV:   1    -0.239810353812E+03   -0.70349E-01   -0.47932E-02  5888   0.210E+00    0.599E-01
RMM:   2    -0.239813520964E+03   -0.31672E-02   -0.45809E-02  4940   0.441E-01    0.241E-01
RMM:   3    -0.239814292307E+03   -0.77134E-03   -0.96936E-03  3313   0.203E-01
   1862 T=   892. E= -.21935926E+03 F= -.23981429E+03 E0= -.23981429E+03  EK= 0.72613E+01 SP= 0.13E+02 SK= 0.36E-07 mag=     -0.000
       N       E                     dE             d eps       ncg     rms          rms(c)
DAV:   1    -0.239850524922E+03   -0.37004E-01   -0.57873E-02  6064   0.215E+00    0.596E-01
RMM:   2    -0.239855514019E+03   -0.49891E-02   -0.46758E-02  5016   0.459E-01    0.225E-01
RMM:   3    -0.239856300756E+03   -0.78674E-03   -0.85992E-03  3180   0.197E-01
   1863 T=   897. E= -.21934752E+03 F= -.23985630E+03 E0= -.23985630E+03  EK= 0.73046E+01 SP= 0.13E+02 SK= 0.11E-02 mag=      0.000
       N       E                     dE             d eps       ncg     rms          rms(c)
DAV:   1    -0.239864695325E+03   -0.91813E-02   -0.52141E-02  6048   0.212E+00    0.242E-01
RMM:   2    -0.239869701558E+03   -0.50062E-02   -0.47682E-02  5015   0.450E-01    0.193E-01
RMM:   3    -0.239870656814E+03   -0.95526E-03   -0.95387E-03  3206   0.202E-01
   1864 T=   897. E= -.21933282E+03 F= -.23987066E+03 E0= -.23987066E+03  EK= 0.73014E+01 SP= 0.13E+02 SK= 0.46E-02 mag=      0.000
       N       E                     dE             d eps       ncg     rms          rms(c)
DAV:   1    -0.239855687603E+03    0.14014E-01   -0.47275E-02  5888   0.209E+00    0.292E-01
RMM:   2    -0.239860696979E+03   -0.50094E-02   -0.47473E-02  5018   0.439E-01    0.373E-01
RMM:   3    -0.239861640019E+03   -0.94304E-03   -0.92200E-03  3220   0.197E-01
   1865 T=   891. E= -.21931708E+03 F= -.23986164E+03 E0= -.23986164E+03  EK= 0.72543E+01 SP= 0.13E+02 SK= 0.10E-01 mag=     -0.000
       N       E                     dE             d eps       ncg     rms          rms(c)
DAV:   1    -0.239828798781E+03    0.31898E-01   -0.52183E-02  6000   0.213E+00    0.368E-01
RMM:   2    -0.239833687103E+03   -0.48883E-02   -0.45564E-02  5017   0.450E-01    0.414E-01
RMM:   3    -0.239834575814E+03   -0.88871E-03   -0.90990E-03  3211   0.197E-01
   1866 T=   880. E= -.21930188E+03 F= -.23983458E+03 E0= -.23983458E+03  EK= 0.71689E+01 SP= 0.13E+02 SK= 0.17E-01 mag=     -0.000
       N       E                     dE             d eps       ncg     rms          rms(c)
DAV:   1    -0.239792336605E+03    0.41350E-01   -0.61406E-02  5928   0.208E+00    0.819E-01
RMM:   2    -0.239796168049E+03   -0.38314E-02   -0.49452E-02  5015   0.466E-01    0.705E-01
RMM:   3    -0.239796855862E+03   -0.68781E-03   -0.10501E-02  3373   0.209E-01
   1867 T=   867. E= -.21928478E+03 F= -.23979686E+03 E0= -.23979686E+03  EK= 0.70582E+01 SP= 0.13E+02 SK= 0.25E-01 mag=      0.000
       N       E                     dE             d eps       ncg     rms          rms(c)
DAV:   1    -0.239755279788E+03    0.40888E-01   -0.74976E-02  6176   0.214E+00    0.264E+00
RMM:   2    -0.239755406869E+03   -0.12708E-03   -0.50875E-02  5024   0.480E-01    0.126E+00
RMM:   3    -0.239754539067E+03    0.86780E-03   -0.15449E-02  3931   0.244E-01
   1868 T=   851. E= -.21927001E+03 F= -.23975454E+03 E0= -.23975454E+03  EK= 0.69277E+01 SP= 0.14E+02 SK= 0.32E-01 mag=      0.000
       N       E                     dE             d eps       ncg     rms          rms(c)
DAV:   1    -0.239710252693E+03    0.45154E-01   -0.95233E-02  6192   0.213E+00    0.673E-01
RMM:   2    -0.239712940227E+03   -0.26875E-02   -0.62423E-02  4948   0.511E-01    0.677E-01
RMM:   3    -0.239712909954E+03    0.30273E-04   -0.10659E-02  3468   0.223E-01
   1869 T=   833. E= -.21925783E+03 F= -.23971291E+03 E0= -.23971291E+03  EK= 0.67866E+01 SP= 0.14E+02 SK= 0.37E-01 mag=     -0.000
       N       E                     dE             d eps       ncg     rms          rms(c)
DAV:   1    -0.239668253008E+03    0.44687E-01   -0.13120E-01  6408   0.203E+00    0.560E-01
RMM:   2    -0.239674124493E+03   -0.58715E-02   -0.61934E-02  4854   0.489E-01    0.599E-01
RMM:   3    -0.239674708064E+03   -0.58357E-03   -0.10056E-02  3451   0.215E-01
   1870 T=   816. E= -.21924243E+03 F= -.23967471E+03 E0= -.23967471E+03  EK= 0.66474E+01 SP= 0.14E+02 SK= 0.41E-01 mag=     -0.000
       N       E                     dE             d eps       ncg     rms          rms(c)
DAV:   1    -0.239640859527E+03    0.33265E-01   -0.80479E-02  6008   0.201E+00    0.954E-01
RMM:   2    -0.239642968446E+03   -0.21089E-02   -0.86158E-02  4825   0.518E-01    0.785E-01
RMM:   3    -0.239644288506E+03   -0.13201E-02   -0.17033E-02  3913   0.260E-01
   1871 T=   800. E= -.21923103E+03 F= -.23964429E+03 E0= -.23964429E+03  EK= 0.65111E+01 SP= 0.14E+02 SK= 0.42E-01 mag=     -0.000
       N       E                     dE             d eps       ncg     rms          rms(c)
DAV:   1    -0.239626140692E+03    0.16828E-01   -0.52457E-02  5944   0.206E+00    0.161E+00
RMM:   2    -0.239624167138E+03    0.19736E-02   -0.49903E-02  4704   0.471E-01    0.750E-01
RMM:   3    -0.239623998785E+03    0.16835E-03   -0.17447E-02  4145   0.239E-01
   1872 T=   785. E= -.21921817E+03 F= -.23962400E+03 E0= -.23962400E+03  EK= 0.63888E+01 SP= 0.14E+02 SK= 0.41E-01 mag=      0.000
       N       E                     dE             d eps       ncg     rms          rms(c)
DAV:   1    -0.239612623281E+03    0.11544E-01   -0.93765E-02  6312   0.195E+00    0.626E-01
RMM:   2    -0.239615025379E+03   -0.24021E-02   -0.52127E-02  4685   0.474E-01    0.241E-01
RMM:   3    -0.239615257474E+03   -0.23210E-03   -0.11167E-02  3778   0.223E-01
   1873 T=   772. E= -.21920446E+03 F= -.23961526E+03 E0= -.23961526E+03  EK= 0.62839E+01 SP= 0.14E+02 SK= 0.38E-01 mag=      0.000
       N       E                     dE             d eps       ncg     rms          rms(c)
DAV:   1    -0.239611419963E+03    0.36054E-02   -0.63531E-02  6136   0.198E+00    0.454E-01
RMM:   2    -0.239617402092E+03   -0.59821E-02   -0.57273E-02  4926   0.477E-01    0.501E-01
RMM:   3    -0.239618287058E+03   -0.88497E-03   -0.95975E-03  3442   0.213E-01
   1874 T=   761. E= -.21919405E+03 F= -.23961829E+03 E0= -.23961829E+03  EK= 0.61946E+01 SP= 0.14E+02 SK= 0.33E-01 mag=      0.000
       N       E                     dE             d eps       ncg     rms          rms(c)
DAV:   1    -0.239630182821E+03   -0.12781E-01   -0.64094E-02  6104   0.196E+00    0.713E-01
RMM:   2    -0.239633029104E+03   -0.28463E-02   -0.51160E-02  4867   0.440E-01    0.608E-01
RMM:   3    -0.239633818936E+03   -0.78983E-03   -0.10561E-02  3520   0.210E-01
   1875 T=   753. E= -.21918090E+03 F= -.23963382E+03 E0= -.23963382E+03  EK= 0.61292E+01 SP= 0.14E+02 SK= 0.28E-01 mag=     -0.000
       N       E                     dE             d eps       ncg     rms          rms(c)
DAV:   1    -0.239659042772E+03   -0.26014E-01   -0.48353E-02  5984   0.190E+00    0.142E+00
RMM:   2    -0.239660720187E+03   -0.16774E-02   -0.37500E-02  4837   0.427E-01    0.665E-01
RMM:   3    -0.239661057442E+03   -0.33725E-03   -0.10353E-02  3458   0.203E-01
   1876 T=   747. E= -.21916896E+03 F= -.23966106E+03 E0= -.23966106E+03  EK= 0.60842E+01 SP= 0.14E+02 SK= 0.22E-01 mag=     -0.000
       N       E                     dE             d eps       ncg     rms          rms(c)
DAV:   1    -0.239692375356E+03   -0.31655E-01   -0.55656E-02  6040   0.197E+00    0.402E-01
RMM:   2    -0.239696647507E+03   -0.42722E-02   -0.46007E-02  4958   0.444E-01    0.278E-01
RMM:   3    -0.239697095503E+03   -0.44800E-03   -0.80531E-03  3222   0.195E-01
   1877 T=   744. E= -.21915852E+03 F= -.23969710E+03 E0= -.23969710E+03  EK= 0.60568E+01 SP= 0.14E+02 SK= 0.17E-01 mag=      0.000
       N       E                     dE             d eps       ncg     rms          rms(c)
DAV:   1    -0.239733970465E+03   -0.37323E-01   -0.54324E-02  6080   0.193E+00    0.529E-01
RMM:   2    -0.239737909565E+03   -0.39391E-02   -0.48637E-02  4980   0.429E-01    0.504E-01
RMM:   3    -0.239738732732E+03   -0.82317E-03   -0.90531E-03  3280   0.198E-01
   1878 T=   743. E= -.21914442E+03 F= -.23973873E+03 E0= -.23973873E+03  EK= 0.60495E+01 SP= 0.15E+02 SK= 0.12E-01 mag=      0.000
       N       E                     dE             d eps       ncg     rms          rms(c)
DAV:   1    -0.239779233079E+03   -0.41324E-01   -0.55406E-02  5888   0.190E+00    0.842E-01
RMM:   2    -0.239781379175E+03   -0.21461E-02   -0.39019E-02  4914   0.418E-01    0.334E-01
RMM:   3    -0.239782014171E+03   -0.63500E-03   -0.98265E-03  3409   0.199E-01
   1879 T=   743. E= -.21913383E+03 F= -.23978201E+03 E0= -.23978201E+03  EK= 0.60509E+01 SP= 0.15E+02 SK= 0.80E-02 mag=     -0.000
       N       E                     dE             d eps       ncg     rms          rms(c)
DAV:   1    -0.239818167388E+03   -0.36788E-01   -0.38128E-02  5744   0.200E+00    0.438E-01
RMM:   2    -0.239822644836E+03   -0.44774E-02   -0.43884E-02  5033   0.435E-01    0.232E-01
RMM:   3    -0.239823267036E+03   -0.62220E-03   -0.77533E-03  3169   0.188E-01
   1880 T=   744. E= -.21912613E+03 F= -.23982327E+03 E0= -.23982327E+03  EK= 0.60581E+01 SP= 0.15E+02 SK= 0.48E-02 mag=     -0.000
       N       E                     dE             d eps       ncg     rms          rms(c)
DAV:   1    -0.239852902198E+03   -0.30257E-01   -0.67881E-02  6144   0.197E+00    0.211E-01
RMM:   2    -0.239857028028E+03   -0.41258E-02   -0.42456E-02  4931   0.423E-01    0.283E-01
RMM:   3    -0.239857850446E+03   -0.82242E-03   -0.84896E-03  3288   0.194E-01
   1881 T=   746. E= -.21911311E+03 F= -.23985785E+03 E0= -.23985785E+03  EK= 0.60743E+01 SP= 0.15E+02 SK= 0.25E-02 mag=     -0.000
       N       E                     dE             d eps       ncg     rms          rms(c)
DAV:   1    -0.239879026666E+03   -0.21999E-01   -0.40075E-02  5760   0.192E+00    0.534E-01
RMM:   2    -0.239882293056E+03   -0.32664E-02   -0.36023E-02  4982   0.412E-01    0.488E-01
RMM:   3    -0.239882993262E+03   -0.70021E-03   -0.88948E-03  3210   0.188E-01
   1882 T=   748. E= -.21910162E+03 F= -.23988299E+03 E0= -.23988299E+03  EK= 0.60896E+01 SP= 0.15E+02 SK= 0.96E-03 mag=     -0.000
       N       E                     dE             d eps       ncg     rms          rms(c)
DAV:   1    -0.239892936237E+03   -0.10643E-01   -0.40717E-02  5992   0.197E+00    0.141E+00
RMM:   2    -0.239895891825E+03   -0.29556E-02   -0.34356E-02  5004   0.398E-01    0.637E-01
RMM:   3    -0.239896157314E+03   -0.26549E-03   -0.76752E-03  3103   0.180E-01
   1883 T=   749. E= -.21909220E+03 F= -.23989616E+03 E0= -.23989616E+03  EK= 0.61006E+01 SP= 0.15E+02 SK= 0.16E-03 mag=      0.000
       N       E                     dE             d eps       ncg     rms          rms(c)
DAV:   1    -0.239891093126E+03    0.47987E-02   -0.48683E-02  5992   0.195E+00    0.262E-01
RMM:   2    -0.239895195456E+03   -0.41023E-02   -0.40082E-02  5006   0.415E-01    0.300E-01
RMM:   3    -0.239895854722E+03   -0.65927E-03   -0.78561E-03  3158   0.187E-01
   1884 T=   750. E= -.21908062E+03 F= -.23989585E+03 E0= -.23989585E+03  EK= 0.61099E+01 SP= 0.15E+02 SK= 0.25E-04 mag=      0.000
       N       E                     dE             d eps       ncg     rms          rms(c)
DAV:   1    -0.239876907449E+03    0.18288E-01   -0.42285E-02  5880   0.194E+00    0.927E-01
RMM:   2    -0.239879447056E+03   -0.25396E-02   -0.38067E-02  4992   0.411E-01    0.719E-01
RMM:   3    -0.239880011868E+03   -0.56481E-03   -0.99713E-03  3267   0.194E-01
   1885 T=   751. E= -.21907001E+03 F= -.23988001E+03 E0= -.23988001E+03  EK= 0.61121E+01 SP= 0.15E+02 SK= 0.51E-03 mag=     -0.000
       N       E                     dE             d eps       ncg     rms          rms(c)
DAV:   1    -0.239849430800E+03    0.30016E-01   -0.46542E-02  5992   0.200E+00    0.161E+00
RMM:   2    -0.239848843581E+03    0.58722E-03   -0.38273E-02  4977   0.410E-01    0.759E-01
RMM:   3    -0.239848511946E+03    0.33163E-03   -0.13753E-02  3720   0.211E-01
   1886 T=   750. E= -.21905877E+03 F= -.23984851E+03 E0= -.23984851E+03  EK= 0.61085E+01 SP= 0.15E+02 SK= 0.16E-02 mag=      0.000
       N       E                     dE             d eps       ncg     rms          rms(c)
DAV:   1    -0.239800563711E+03    0.48280E-01   -0.69132E-02  6200   0.192E+00    0.360E-01
RMM:   2    -0.239801938297E+03   -0.13746E-02   -0.44430E-02  4884   0.439E-01    0.330E-01
RMM:   3    -0.239802117838E+03   -0.17954E-03   -0.88339E-03  3342   0.203E-01
   1887 T=   749. E= -.21904730E+03 F= -.23980212E+03 E0= -.23980212E+03  EK= 0.60996E+01 SP= 0.15E+02 SK= 0.34E-02 mag=      0.000
       N       E                     dE             d eps       ncg     rms          rms(c)
DAV:   1    -0.239736133958E+03    0.65804E-01   -0.59200E-02  6080   0.196E+00    0.531E-01
RMM:   2    -0.239741041642E+03   -0.49077E-02   -0.48483E-02  5062   0.445E-01    0.551E-01
RMM:   3    -0.239741757920E+03   -0.71628E-03   -0.77847E-03  3124   0.190E-01
   1888 T=   747. E= -.21903755E+03 F= -.23974176E+03 E0= -.23974176E+03  EK= 0.60846E+01 SP= 0.15E+02 SK= 0.58E-02 mag=     -0.000
       N       E                     dE             d eps       ncg     rms          rms(c)
DAV:   1    -0.239665554448E+03    0.75487E-01   -0.41944E-02  5848   0.194E+00    0.535E-01
RMM:   2    -0.239668775532E+03   -0.32211E-02   -0.45787E-02  5002   0.425E-01    0.285E-01
RMM:   3    -0.239669591128E+03   -0.81560E-03   -0.85982E-03  3200   0.194E-01
   1889 T=   745. E= -.21902710E+03 F= -.23966959E+03 E0= -.23966959E+03  EK= 0.60683E+01 SP= 0.15E+02 SK= 0.91E-02 mag=     -0.000
       N       E                     dE             d eps       ncg     rms          rms(c)
DAV:   1    -0.239583940161E+03    0.84835E-01   -0.34614E-02  5656   0.192E+00    0.627E-01
RMM:   2    -0.239587156986E+03   -0.32168E-02   -0.35573E-02  4894   0.413E-01    0.265E-01
RMM:   3    -0.239587877597E+03   -0.72061E-03   -0.81783E-03  3249   0.190E-01
   1890 T=   743. E= -.21901679E+03 F= -.23958788E+03 E0= -.23958788E+03  EK= 0.60524E+01 SP= 0.15E+02 SK= 0.13E-01 mag=      0.000
       N       E                     dE             d eps       ncg     rms          rms(c)
DAV:   1    -0.239495720822E+03    0.91436E-01   -0.47660E-02  5952   0.192E+00    0.350E-01
RMM:   2    -0.239499697209E+03   -0.39764E-02   -0.37064E-02  5020   0.418E-01    0.131E-01
RMM:   3    -0.239500432456E+03   -0.73525E-03   -0.76621E-03  3127   0.185E-01
   1891 T=   742. E= -.21900692E+03 F= -.23950043E+03 E0= -.23950043E+03  EK= 0.60408E+01 SP= 0.14E+02 SK= 0.18E-01 mag=     -0.000
       N       E                     dE             d eps       ncg     rms          rms(c)
DAV:   1    -0.239406105070E+03    0.93592E-01   -0.46909E-02  5992   0.192E+00    0.202E-01
RMM:   2    -0.239410121380E+03   -0.40163E-02   -0.39205E-02  5042   0.412E-01    0.267E-01
RMM:   3    -0.239410905042E+03   -0.78366E-03   -0.80219E-03  3182   0.185E-01
   1892 T=   742. E= -.21899652E+03 F= -.23941091E+03 E0= -.23941091E+03  EK= 0.60385E+01 SP= 0.14E+02 SK= 0.24E-01 mag=     -0.000
       N       E                     dE             d eps       ncg     rms          rms(c)
DAV:   1    -0.239318092917E+03    0.92028E-01   -0.51798E-02  6040   0.191E+00    0.453E-01
RMM:   2    -0.239322002737E+03   -0.39098E-02   -0.37588E-02  5064   0.414E-01    0.466E-01
RMM:   3    -0.239322759695E+03   -0.75696E-03   -0.79036E-03  3181   0.183E-01
   1893 T=   743. E= -.21898590E+03 F= -.23932276E+03 E0= -.23932276E+03  EK= 0.60487E+01 SP= 0.14E+02 SK= 0.31E-01 mag=     -0.000
       N       E                     dE             d eps       ncg     rms          rms(c)
DAV:   1    -0.239238298436E+03    0.83704E-01   -0.38354E-02  5912   0.191E+00    0.313E-01
RMM:   2    -0.239242048210E+03   -0.37498E-02   -0.35750E-02  5031   0.405E-01    0.379E-01
RMM:   3    -0.239242750392E+03   -0.70218E-03   -0.71312E-03  3061   0.177E-01
   1894 T=   746. E= -.21897649E+03 F= -.23924275E+03 E0= -.23924275E+03  EK= 0.60768E+01 SP= 0.14E+02 SK= 0.39E-01 mag=      0.000
       N       E                     dE             d eps       ncg     rms          rms(c)
DAV:   1    -0.239170650110E+03    0.71398E-01   -0.42707E-02  5624   0.194E+00    0.308E-01
RMM:   2    -0.239174321022E+03   -0.36709E-02   -0.36747E-02  5038   0.408E-01    0.320E-01
RMM:   3    -0.239175038916E+03   -0.71789E-03   -0.77005E-03  3099   0.180E-01
   1895 T=   753. E= -.21896714E+03 F= -.23917504E+03 E0= -.23917504E+03  EK= 0.61279E+01 SP= 0.14E+02 SK= 0.46E-01 mag=      0.000
       N       E                     dE             d eps       ncg     rms          rms(c)
DAV:   1    -0.239119236287E+03    0.55085E-01   -0.34055E-02  5360   0.193E+00    0.470E-01
RMM:   2    -0.239123048626E+03   -0.38123E-02   -0.35939E-02  5037   0.403E-01    0.243E-01
RMM:   3    -0.239123777927E+03   -0.72930E-03   -0.74853E-03  3060   0.181E-01
   1896 T=   762. E= -.21895807E+03 F= -.23912378E+03 E0= -.23912378E+03  EK= 0.62054E+01 SP= 0.14E+02 SK= 0.53E-01 mag=     -0.000
       N       E                     dE             d eps       ncg     rms          rms(c)
DAV:   1    -0.239087299570E+03    0.35749E-01   -0.43458E-02  5664   0.194E+00    0.657E-01
RMM:   2    -0.239090818513E+03   -0.35189E-02   -0.36083E-02  5013   0.400E-01    0.215E-01
RMM:   3    -0.239091509926E+03   -0.69141E-03   -0.76753E-03  3116   0.181E-01
   1897 T=   775. E= -.21894967E+03 F= -.23909151E+03 E0= -.23909151E+03  EK= 0.63103E+01 SP= 0.14E+02 SK= 0.58E-01 mag=     -0.000
       N       E                     dE             d eps       ncg     rms          rms(c)
DAV:   1    -0.239075795127E+03    0.15023E-01   -0.46773E-02  5896   0.196E+00    0.317E-01
RMM:   2    -0.239079961632E+03   -0.41665E-02   -0.39348E-02  5087   0.416E-01    0.204E-01
RMM:   3    -0.239080663202E+03   -0.70157E-03   -0.74810E-03  3072   0.182E-01
   1898 T=   791. E= -.21894154E+03 F= -.23908066E+03 E0= -.23908066E+03  EK= 0.64438E+01 SP= 0.14E+02 SK= 0.61E-01 mag=      0.000
       N       E                     dE             d eps       ncg     rms          rms(c)
DAV:   1    -0.239085457756E+03   -0.54961E-02   -0.56377E-02  5880   0.199E+00    0.279E-01
RMM:   2    -0.239090189029E+03   -0.47313E-02   -0.44923E-02  5054   0.425E-01    0.324E-01
RMM:   3    -0.239090999576E+03   -0.81055E-03   -0.83083E-03  3172   0.190E-01
   1899 T=   811. E= -.21893200E+03 F= -.23909100E+03 E0= -.23909100E+03  EK= 0.66047E+01 SP= 0.13E+02 SK= 0.61E-01 mag=      0.000
       N       E                     dE             d eps       ncg     rms          rms(c)
DAV:   1    -0.239116405360E+03   -0.26216E-01   -0.58764E-02  6040   0.200E+00    0.433E-01
RMM:   2    -0.239120721212E+03   -0.43159E-02   -0.41294E-02  4986   0.429E-01    0.450E-01
RMM:   3    -0.239121580484E+03   -0.85927E-03   -0.88924E-03  3239   0.193E-01
   1900 T=   833. E= -.21892303E+03 F= -.23912158E+03 E0= -.23912158E+03  EK= 0.67867E+01 SP= 0.13E+02 SK= 0.57E-01 mag=      0.000
       N       E                     dE             d eps       ncg     rms          rms(c)
DAV:   1    -0.239162995634E+03   -0.42274E-01   -0.45271E-02  5768   0.204E+00    0.558E-01
RMM:   2    -0.239167547387E+03   -0.45518E-02   -0.42511E-02  5046   0.430E-01    0.536E-01
RMM:   3    -0.239168331973E+03   -0.78459E-03   -0.82865E-03  3135   0.189E-01
   1901 T=   857. E= -.21891400E+03 F= -.23916833E+03 E0= -.23916833E+03  EK= 0.69817E+01 SP= 0.13E+02 SK= 0.50E-01 mag=     -0.000
       N       E                     dE             d eps       ncg     rms          rms(c)
DAV:   1    -0.239222699096E+03   -0.55152E-01   -0.60680E-02  6072   0.208E+00    0.293E+00
RMM:   2    -0.239225783768E+03   -0.30847E-02   -0.42140E-02  4967   0.433E-01    0.149E+00
RMM:   3    -0.239226117240E+03   -0.33347E-03   -0.11302E-02  3402   0.214E-01
   1902 T=   882. E= -.21890482E+03 F= -.23922612E+03 E0= -.23922612E+03  EK= 0.71795E+01 SP= 0.13E+02 SK= 0.39E-01 mag=     -0.000
       N       E                     dE             d eps       ncg     rms          rms(c)
DAV:   1    -0.239283410388E+03   -0.57627E-01   -0.58285E-02  5928   0.215E+00    0.129E+00
RMM:   2    -0.239287812189E+03   -0.44018E-02   -0.51016E-02  5017   0.470E-01    0.101E+00
RMM:   3    -0.239288120206E+03   -0.30802E-03   -0.10518E-02  3366   0.216E-01
   1903 T=   905. E= -.21889429E+03 F= -.23928812E+03 E0= -.23928812E+03  EK= 0.73680E+01 SP= 0.13E+02 SK= 0.27E-01 mag=      0.000
       N       E                     dE             d eps       ncg     rms          rms(c)
DAV:   1    -0.239345684634E+03   -0.57872E-01   -0.66981E-02  6232   0.212E+00    0.120E+00
RMM:   2    -0.239347436436E+03   -0.17518E-02   -0.45446E-02  4811   0.455E-01    0.455E-01
RMM:   3    -0.239347624380E+03   -0.18794E-03   -0.12116E-02  3617   0.217E-01
   1904 T=   925. E= -.21888451E+03 F= -.23934762E+03 E0= -.23934762E+03  EK= 0.75320E+01 SP= 0.13E+02 SK= 0.15E-01 mag=      0.000
       N       E                     dE             d eps       ncg     rms          rms(c)
DAV:   1    -0.239391009918E+03   -0.43573E-01   -0.78973E-02  6048   0.218E+00    0.259E-01
RMM:   2    -0.239395793240E+03   -0.47833E-02   -0.59306E-02  4936   0.488E-01    0.348E-01
RMM:   3    -0.239396399855E+03   -0.60661E-03   -0.99586E-03  3436   0.214E-01
   1905 T=   940. E= -.21887564E+03 F= -.23939640E+03 E0= -.23939640E+03  EK= 0.76570E+01 SP= 0.13E+02 SK= 0.60E-02 mag=     -0.000
       N       E                     dE             d eps       ncg     rms          rms(c)
DAV:   1    -0.239422071792E+03   -0.26279E-01   -0.68901E-02  6064   0.216E+00    0.647E-01
RMM:   2    -0.239425634856E+03   -0.35631E-02   -0.59890E-02  4905   0.472E-01    0.636E-01
RMM:   3    -0.239426523096E+03   -0.88824E-03   -0.11237E-02  3492   0.218E-01
   1906 T=   950. E= -.21886186E+03 F= -.23942652E+03 E0= -.23942652E+03  EK= 0.77359E+01 SP= 0.13E+02 SK= 0.67E-03 mag=     -0.000
       N       E                     dE             d eps       ncg     rms          rms(c)
DAV:   1    -0.239433137667E+03   -0.75028E-02   -0.58198E-02  5984   0.211E+00    0.127E+00
RMM:   2    -0.239434487601E+03   -0.13499E-02   -0.51458E-02  4872   0.446E-01    0.529E-01
RMM:   3    -0.239434828132E+03   -0.34053E-03   -0.11877E-02  3513   0.216E-01
   1907 T=   952. E= -.21885010E+03 F= -.23943483E+03 E0= -.23943483E+03  EK= 0.77554E+01 SP= 0.13E+02 SK= 0.77E-03 mag=     -0.000
       N       E                     dE             d eps       ncg     rms          rms(c)
DAV:   1    -0.239410164699E+03    0.24323E-01   -0.71016E-02  6096   0.219E+00    0.598E-01
RMM:   2    -0.239415715145E+03   -0.55504E-02   -0.57273E-02  4920   0.475E-01    0.267E-01
RMM:   3    -0.239416281677E+03   -0.56653E-03   -0.94304E-03  3328   0.209E-01
   1908 T=   947. E= -.21884064E+03 F= -.23941628E+03 E0= -.23941628E+03  EK= 0.77096E+01 SP= 0.13E+02 SK= 0.65E-02 mag=      0.000
       N       E                     dE             d eps       ncg     rms          rms(c)
DAV:   1    -0.239363858960E+03    0.51856E-01   -0.65296E-02  6128   0.213E+00    0.265E-01
RMM:   2    -0.239369107448E+03   -0.52485E-02   -0.56285E-02  4946   0.462E-01    0.412E-01
RMM:   3    -0.239369978078E+03   -0.87063E-03   -0.91015E-03  3276   0.205E-01
   1909 T=   934. E= -.21882777E+03 F= -.23936998E+03 E0= -.23936998E+03  EK= 0.76052E+01 SP= 0.13E+02 SK= 0.17E-01 mag=     -0.000
       N       E                     dE             d eps       ncg     rms          rms(c)
DAV:   1    -0.239293062774E+03    0.76045E-01   -0.44418E-02  5896   0.210E+00    0.857E-01
RMM:   2    -0.239295947413E+03   -0.28846E-02   -0.46165E-02  4964   0.440E-01    0.722E-01
RMM:   3    -0.239296599336E+03   -0.65192E-03   -0.11776E-02  3416   0.211E-01
   1910 T=   914. E= -.21881686E+03 F= -.23929660E+03 E0= -.23929660E+03  EK= 0.74419E+01 SP= 0.13E+02 SK= 0.30E-01 mag=      0.000
       N       E                     dE             d eps       ncg     rms          rms(c)
DAV:   1    -0.239195546773E+03    0.10040E+00   -0.59656E-02  6096   0.212E+00    0.190E+00
RMM:   2    -0.239197463975E+03   -0.19172E-02   -0.46857E-02  4897   0.448E-01    0.873E-01
RMM:   3    -0.239197492550E+03   -0.28575E-04   -0.12120E-02  3576   0.215E-01
   1911 T=   888. E= -.21880547E+03 F= -.23919749E+03 E0= -.23919749E+03  EK= 0.72302E+01 SP= 0.13E+02 SK= 0.44E-01 mag=     -0.000
       N       E                     dE             d eps       ncg     rms          rms(c)
DAV:   1    -0.239073835307E+03    0.12363E+00   -0.72398E-02  6136   0.202E+00    0.347E-01
RMM:   2    -0.239077413511E+03   -0.35782E-02   -0.53383E-02  4868   0.454E-01    0.379E-01
RMM:   3    -0.239077929185E+03   -0.51567E-03   -0.92189E-03  3320   0.204E-01
   1912 T=   858. E= -.21879260E+03 F= -.23907793E+03 E0= -.23907793E+03  EK= 0.69842E+01 SP= 0.13E+02 SK= 0.56E-01 mag=     -0.000
       N       E                     dE             d eps       ncg     rms          rms(c)
DAV:   1    -0.238938333860E+03    0.13908E+00   -0.65958E-02  6032   0.201E+00    0.909E-01
RMM:   2    -0.238942819716E+03   -0.44859E-02   -0.53131E-02  4917   0.445E-01    0.796E-01
RMM:   3    -0.238943610854E+03   -0.79114E-03   -0.94605E-03  3277   0.202E-01
   1913 T=   824. E= -.21878328E+03 F= -.23894361E+03 E0= -.23894361E+03  EK= 0.67127E+01 SP= 0.13E+02 SK= 0.63E-01 mag=      0.000
       N       E                     dE             d eps       ncg     rms          rms(c)
DAV:   1    -0.238801506961E+03    0.14131E+00   -0.43274E-02  5952   0.201E+00    0.183E+00
RMM:   2    -0.238802435525E+03   -0.92856E-03   -0.44145E-02  4941   0.430E-01    0.872E-01
RMM:   3    -0.238802769673E+03   -0.33415E-03   -0.12770E-02  3488   0.212E-01
   1914 T=   791. E= -.21877169E+03 F= -.23880277E+03 E0= -.23880277E+03  EK= 0.64378E+01 SP= 0.14E+02 SK= 0.64E-01 mag=      0.000
       N       E                     dE             d eps       ncg     rms          rms(c)
DAV:   1    -0.238660494550E+03    0.14194E+00   -0.63117E-02  6080   0.194E+00    0.409E-01
RMM:   2    -0.238663328929E+03   -0.28344E-02   -0.46095E-02  4897   0.440E-01    0.407E-01
RMM:   3    -0.238663755221E+03   -0.42629E-03   -0.84681E-03  3325   0.198E-01
   1915 T=   758. E= -.21875936E+03 F= -.23866376E+03 E0= -.23866376E+03  EK= 0.61732E+01 SP= 0.14E+02 SK= 0.59E-01 mag=     -0.000
       N       E                     dE             d eps       ncg     rms          rms(c)
DAV:   1    -0.238529967998E+03    0.13336E+00   -0.47801E-02  5992   0.192E+00    0.928E-01
RMM:   2    -0.238533790919E+03   -0.38229E-02   -0.47296E-02  4971   0.431E-01    0.781E-01
RMM:   3    -0.238534440907E+03   -0.64999E-03   -0.83832E-03  3160   0.194E-01
   1916 T=   728. E= -.21875173E+03 F= -.23853444E+03 E0= -.23853444E+03  EK= 0.59270E+01 SP= 0.14E+02 SK= 0.50E-01 mag=     -0.000
       N       E                     dE             d eps       ncg     rms          rms(c)
DAV:   1    -0.238422082734E+03    0.11171E+00   -0.47324E-02  5976   0.190E+00    0.177E+00
RMM:   2    -0.238422958176E+03   -0.87544E-03   -0.42000E-02  4946   0.417E-01    0.849E-01
RMM:   3    -0.238423172103E+03   -0.21393E-03   -0.11271E-02  3392   0.205E-01
   1917 T=   702. E= -.21874244E+03 F= -.23842317E+03 E0= -.23842317E+03  EK= 0.57181E+01 SP= 0.14E+02 SK= 0.37E-01 mag=      0.000
       N       E                     dE             d eps       ncg     rms          rms(c)
DAV:   1    -0.238333419489E+03    0.89539E-01   -0.55223E-02  6088   0.183E+00    0.400E-01
RMM:   2    -0.238335958172E+03   -0.25387E-02   -0.40734E-02  4978   0.427E-01    0.372E-01
RMM:   3    -0.238336327093E+03   -0.36892E-03   -0.76439E-03  3154   0.190E-01
   1918 T=   682. E= -.21873305E+03 F= -.23833633E+03 E0= -.23833633E+03  EK= 0.55541E+01 SP= 0.14E+02 SK= 0.24E-01 mag=      0.000
       N       E                     dE             d eps       ncg     rms          rms(c)
DAV:   1    -0.238273113999E+03    0.62844E-01   -0.47387E-02  5880   0.181E+00    0.779E-01
RMM:   2    -0.238276877475E+03   -0.37635E-02   -0.45469E-02  5001   0.421E-01    0.665E-01
RMM:   3    -0.238277474001E+03   -0.59653E-03   -0.75547E-03  3097   0.184E-01
   1919 T=   668. E= -.21872723E+03 F= -.23827747E+03 E0= -.23827747E+03  EK= 0.54367E+01 SP= 0.14E+02 SK= 0.12E-01 mag=     -0.000
       N       E                     dE             d eps       ncg     rms          rms(c)
DAV:   1    -0.238247618729E+03    0.29259E-01   -0.48565E-02  5912   0.183E+00    0.138E+00
RMM:   2    -0.238249470419E+03   -0.18517E-02   -0.40869E-02  5042   0.408E-01    0.633E-01
RMM:   3    -0.238249879031E+03   -0.40861E-03   -0.94458E-03  3266   0.195E-01
   1920 T=   660. E= -.21872121E+03 F= -.23824988E+03 E0= -.23824988E+03  EK= 0.53740E+01 SP= 0.14E+02 SK= 0.39E-02 mag=     -0.000
       N       E                     dE             d eps       ncg     rms          rms(c)
DAV:   1    -0.238248616544E+03    0.85387E-03   -0.52663E-02  6024   0.180E+00    0.367E-01
RMM:   2    -0.238252265928E+03   -0.36494E-02   -0.42344E-02  5060   0.423E-01    0.276E-01
RMM:   3    -0.238252778547E+03   -0.51262E-03   -0.74366E-03  3183   0.186E-01
   1921 T=   659. E= -.21871517E+03 F= -.23825278E+03 E0= -.23825278E+03  EK= 0.53653E+01 SP= 0.14E+02 SK= 0.16E-03 mag=      0.000
       N       E                     dE             d eps       ncg     rms          rms(c)
DAV:   1    -0.238281047201E+03   -0.28781E-01   -0.48041E-02  5920   0.180E+00    0.560E-01
RMM:   2    -0.238284225430E+03   -0.31782E-02   -0.39534E-02  4980   0.402E-01    0.515E-01
RMM:   3    -0.238284808716E+03   -0.58329E-03   -0.72145E-03  3117   0.180E-01
   1922 T=   664. E= -.21871068E+03 F= -.23828481E+03 E0= -.23828481E+03  EK= 0.54077E+01 SP= 0.14E+02 SK= 0.13E-02 mag=      0.000
       N       E                     dE             d eps       ncg     rms          rms(c)
DAV:   1    -0.238340681754E+03   -0.56456E-01   -0.39781E-02  5840   0.180E+00    0.837E-01
RMM:   2    -0.238342873062E+03   -0.21913E-02   -0.34251E-02  5022   0.389E-01    0.322E-01
RMM:   3    -0.238343301775E+03   -0.42871E-03   -0.74526E-03  3099   0.178E-01
   1923 T=   675. E= -.21870624E+03 F= -.23834330E+03 E0= -.23834330E+03  EK= 0.54994E+01 SP= 0.14E+02 SK= 0.68E-02 mag=      0.000
       N       E                     dE             d eps       ncg     rms          rms(c)
DAV:   1    -0.238419843668E+03   -0.76971E-01   -0.38229E-02  5912   0.184E+00    0.463E-01
RMM:   2    -0.238423568064E+03   -0.37244E-02   -0.38200E-02  5064   0.402E-01    0.214E-01
RMM:   3    -0.238424092070E+03   -0.52401E-03   -0.66704E-03  3041   0.174E-01
   1924 T=   692. E= -.21870224E+03 F= -.23842409E+03 E0= -.23842409E+03  EK= 0.56351E+01 SP= 0.14E+02 SK= 0.15E-01 mag=     -0.000
       N       E                     dE             d eps       ncg     rms          rms(c)
DAV:   1    -0.238517888942E+03   -0.94321E-01   -0.43095E-02  5952   0.185E+00    0.211E-01
RMM:   2    -0.238521333916E+03   -0.34450E-02   -0.37173E-02  4999   0.394E-01    0.262E-01
RMM:   3    -0.238521976650E+03   -0.64273E-03   -0.69490E-03  3099   0.174E-01
   1925 T=   713. E= -.21869772E+03 F= -.23852198E+03 E0= -.23852198E+03  EK= 0.58089E+01 SP= 0.14E+02 SK= 0.25E-01 mag=     -0.000
       N       E                     dE             d eps       ncg     rms          rms(c)
DAV:   1    -0.238629501953E+03   -0.10817E+00   -0.46530E-02  5704   0.188E+00    0.433E-01
RMM:   2    -0.238632684299E+03   -0.31823E-02   -0.36754E-02  4955   0.391E-01    0.450E-01
RMM:   3    -0.238633331564E+03   -0.64727E-03   -0.74101E-03  3179   0.176E-01
   1926 T=   739. E= -.21869311E+03 F= -.23863333E+03 E0= -.23863333E+03  EK= 0.60144E+01 SP= 0.14E+02 SK= 0.34E-01 mag=     -0.000
       N       E                     dE             d eps       ncg     rms          rms(c)
DAV:   1    -0.238749382676E+03   -0.11670E+00   -0.41749E-02  5728   0.193E+00    0.204E-01
RMM:   2    -0.238753516764E+03   -0.41341E-02   -0.40178E-02  5057   0.398E-01    0.214E-01
RMM:   3    -0.238754175571E+03   -0.65881E-03   -0.70748E-03  3054   0.174E-01
   1927 T=   767. E= -.21868895E+03 F= -.23875418E+03 E0= -.23875418E+03  EK= 0.62438E+01 SP= 0.14E+02 SK= 0.41E-01 mag=      0.000
       N       E                     dE             d eps       ncg     rms          rms(c)
DAV:   1    -0.238875199273E+03   -0.12168E+00   -0.49520E-02  5616   0.196E+00    0.465E-01
RMM:   2    -0.238878966647E+03   -0.37674E-02   -0.40590E-02  4957   0.399E-01    0.172E-01
RMM:   3    -0.238879665412E+03   -0.69877E-03   -0.81432E-03  3282   0.183E-01
   1928 T=   797. E= -.21868424E+03 F= -.23887967E+03 E0= -.23887967E+03  EK= 0.64890E+01 SP= 0.14E+02 SK= 0.43E-01 mag=      0.000
       N       E                     dE             d eps       ncg     rms          rms(c)
DAV:   1    -0.239000622645E+03   -0.12166E+00   -0.43188E-02  5840   0.201E+00    0.458E-01
RMM:   2    -0.239004957744E+03   -0.43351E-02   -0.42500E-02  5039   0.408E-01    0.131E-01
RMM:   3    -0.239005634529E+03   -0.67678E-03   -0.75376E-03  3135   0.180E-01
   1929 T=   828. E= -.21867897E+03 F= -.23900563E+03 E0= -.23900563E+03  EK= 0.67402E+01 SP= 0.14E+02 SK= 0.41E-01 mag=     -0.000
       N       E                     dE             d eps       ncg     rms          rms(c)
DAV:   1    -0.239121138465E+03   -0.11618E+00   -0.57358E-02  5816   0.204E+00    0.237E-01
RMM:   2    -0.239125634831E+03   -0.44964E-02   -0.43796E-02  4992   0.415E-01    0.170E-01
RMM:   3    -0.239126400270E+03   -0.76544E-03   -0.82290E-03  3258   0.186E-01
   1930 T=   858. E= -.21867323E+03 F= -.23912640E+03 E0= -.23912640E+03  EK= 0.69853E+01 SP= 0.13E+02 SK= 0.36E-01 mag=     -0.000
       N       E                     dE             d eps       ncg     rms          rms(c)
DAV:   1    -0.239231318929E+03   -0.10568E+00   -0.54430E-02  6040   0.208E+00    0.265E-01
RMM:   2    -0.239235592202E+03   -0.42733E-02   -0.41659E-02  4988   0.418E-01    0.340E-01
RMM:   3    -0.239236357831E+03   -0.76563E-03   -0.81102E-03  3279   0.186E-01
   1931 T=   885. E= -.21866749E+03 F= -.23923636E+03 E0= -.23923636E+03  EK= 0.72109E+01 SP= 0.13E+02 SK= 0.27E-01 mag=      0.000
       N       E                     dE             d eps       ncg     rms          rms(c)
DAV:   1    -0.239323549387E+03   -0.87957E-01   -0.40111E-02  5952   0.212E+00    0.477E-01
RMM:   2    -0.239328189586E+03   -0.46402E-02   -0.44437E-02  5034   0.419E-01    0.513E-01
RMM:   3    -0.239328950301E+03   -0.76071E-03   -0.79827E-03  3167   0.184E-01
   1932 T=   909. E= -.21866050E+03 F= -.23932895E+03 E0= -.23932895E+03  EK= 0.74045E+01 SP= 0.13E+02 SK= 0.17E-01 mag=      0.000
       N       E                     dE             d eps       ncg     rms          rms(c)
DAV:   1    -0.239393768176E+03   -0.65579E-01   -0.71775E-02  6056   0.218E+00    0.448E-01
RMM:   2    -0.239398453238E+03   -0.46851E-02   -0.48678E-02  5051   0.455E-01    0.489E-01
RMM:   3    -0.239399355018E+03   -0.90178E-03   -0.97554E-03  3427   0.201E-01
   1933 T=   928. E= -.21865276E+03 F= -.23939936E+03 E0= -.23939936E+03  EK= 0.75536E+01 SP= 0.13E+02 SK= 0.75E-02 mag=      0.000
       N       E                     dE             d eps       ncg     rms          rms(c)
DAV:   1    -0.239438432440E+03   -0.39979E-01   -0.59611E-02  6024   0.222E+00    0.117E+00
RMM:   2    -0.239443267329E+03   -0.48349E-02   -0.50092E-02  5037   0.468E-01    0.930E-01
RMM:   3    -0.239443939438E+03   -0.67211E-03   -0.96261E-03  3314   0.205E-01
   1934 T=   939. E= -.21864434E+03 F= -.23944394E+03 E0= -.23944394E+03  EK= 0.76489E+01 SP= 0.13E+02 SK= 0.16E-02 mag=      0.000
       N       E                     dE             d eps       ncg     rms          rms(c)
DAV:   1    -0.239456672357E+03   -0.13405E-01   -0.66545E-02  6136   0.226E+00    0.306E+00
RMM:   2    -0.239459903204E+03   -0.32308E-02   -0.53816E-02  5057   0.473E-01    0.155E+00
RMM:   3    -0.239460135037E+03   -0.23183E-03   -0.11993E-02  3492   0.232E-01
   1935 T=   944. E= -.21863306E+03 F= -.23946014E+03 E0= -.23946014E+03  EK= 0.76861E+01 SP= 0.13E+02 SK= 0.12E-03 mag=      0.000
       N       E                     dE             d eps       ncg     rms          rms(c)
DAV:   1    -0.239443510146E+03    0.16393E-01   -0.75541E-02  6064   0.225E+00    0.821E-01
RMM:   2    -0.239448628829E+03   -0.51187E-02   -0.59952E-02  4976   0.526E-01    0.742E-01
RMM:   3    -0.239449591932E+03   -0.96310E-03   -0.12462E-02  3732   0.235E-01
   1936 T=   941. E= -.21862080E+03 F= -.23944959E+03 E0= -.23944959E+03  EK= 0.76636E+01 SP= 0.13E+02 SK= 0.38E-02 mag=      0.000
       N       E                     dE             d eps       ncg     rms          rms(c)
DAV:   1    -0.239411149608E+03    0.37479E-01   -0.76801E-02  6136   0.224E+00    0.146E+00
RMM:   2    -0.239414540580E+03   -0.33910E-02   -0.58770E-02  4959   0.493E-01    0.547E-01
RMM:   3    -0.239414345471E+03    0.19511E-03   -0.12472E-02  3587   0.227E-01
   1937 T=   931. E= -.21860906E+03 F= -.23941435E+03 E0= -.23941435E+03  EK= 0.75830E+01 SP= 0.13E+02 SK= 0.12E-01 mag=      0.000
       N       E                     dE             d eps       ncg     rms          rms(c)
DAV:   1    -0.239354492009E+03    0.60049E-01   -0.91067E-02  6192   0.225E+00    0.543E-01
RMM:   2    -0.239360488010E+03   -0.59960E-02   -0.71073E-02  4947   0.520E-01    0.617E-01
RMM:   3    -0.239361057138E+03   -0.56913E-03   -0.11421E-02  3634   0.229E-01
   1938 T=   915. E= -.21859935E+03 F= -.23936106E+03 E0= -.23936106E+03  EK= 0.74528E+01 SP= 0.13E+02 SK= 0.23E-01 mag=     -0.000
       N       E                     dE             d eps       ncg     rms          rms(c)
DAV:   1    -0.239298895468E+03    0.61593E-01   -0.62230E-02  6032   0.217E+00    0.195E+00
RMM:   2    -0.239294612619E+03    0.42828E-02   -0.70229E-02  4953   0.513E-01    0.141E+00
RMM:   3    -0.239294268245E+03    0.34437E-03   -0.25583E-02  4240   0.275E-01
   1939 T=   895. E= -.21858538E+03 F= -.23929427E+03 E0= -.23929427E+03  EK= 0.72888E+01 SP= 0.13E+02 SK= 0.36E-01 mag=      0.000
       N       E                     dE             d eps       ncg     rms          rms(c)
DAV:   1    -0.239252389282E+03    0.42223E-01   -0.80106E-02  6320   0.218E+00    0.318E+00
RMM:   2    -0.239228154446E+03    0.24235E-01   -0.72666E-02  4653   0.550E-01    0.161E+00
RMM:   3    -0.239224479225E+03    0.36752E-02   -0.67410E-02  4381   0.382E-01    0.555E-01
RMM:   4    -0.239225581943E+03   -0.11027E-02   -0.10930E-02  3875   0.214E-01
   1940 T=   872. E= -.21857534E+03 F= -.23922558E+03 E0= -.23922558E+03  EK= 0.71006E+01 SP= 0.14E+02 SK= 0.48E-01 mag=     -0.000
       N       E                     dE             d eps       ncg     rms          rms(c)
DAV:   1    -0.239168300236E+03    0.56179E-01   -0.61629E-02  6320   0.212E+00    0.780E-01
RMM:   2    -0.239159691800E+03    0.86084E-02   -0.71539E-02  4374   0.507E-01    0.551E-01
RMM:   3    -0.239159432314E+03    0.25949E-03   -0.29958E-02  4846   0.287E-01
   1941 T=   847. E= -.21856679E+03 F= -.23915943E+03 E0= -.23915943E+03  EK= 0.69013E+01 SP= 0.14E+02 SK= 0.58E-01 mag=      0.000
       N       E                     dE             d eps       ncg     rms          rms(c)
DAV:   1    -0.239102213959E+03    0.57478E-01   -0.74666E-02  6080   0.205E+00    0.537E-01
RMM:   2    -0.239105399328E+03   -0.31854E-02   -0.62418E-02  4363   0.506E-01    0.521E-01
RMM:   3    -0.239106763505E+03   -0.13642E-02   -0.17608E-02  4638   0.274E-01
   1942 T=   824. E= -.21855762E+03 F= -.23910676E+03 E0= -.23910676E+03  EK= 0.67101E+01 SP= 0.14E+02 SK= 0.64E-01 mag=      0.000
       N       E                     dE             d eps       ncg     rms          rms(c)
DAV:   1    -0.239065525626E+03    0.39874E-01   -0.46550E-02  6048   0.202E+00    0.586E-01
RMM:   2    -0.239069808442E+03   -0.42828E-02   -0.48594E-02  4622   0.470E-01    0.564E-01
RMM:   3    -0.239071003907E+03   -0.11955E-02   -0.13171E-02  4180   0.238E-01
   1943 T=   802. E= -.21854867E+03 F= -.23907100E+03 E0= -.23907100E+03  EK= 0.65347E+01 SP= 0.14E+02 SK= 0.67E-01 mag=      0.000
       N       E                     dE             d eps       ncg     rms          rms(c)
DAV:   1    -0.239052304126E+03    0.17504E-01   -0.39491E-02  5904   0.199E+00    0.108E+00
RMM:   2    -0.239055422761E+03   -0.31186E-02   -0.37065E-02  4684   0.414E-01    0.472E-01
RMM:   3    -0.239056445568E+03   -0.10228E-02   -0.12452E-02  4026   0.226E-01
   1944 T=   784. E= -.21854023E+03 F= -.23905645E+03 E0= -.23905645E+03  EK= 0.63831E+01 SP= 0.14E+02 SK= 0.65E-01 mag=     -0.000
       N       E                     dE             d eps       ncg     rms          rms(c)
DAV:   1    -0.239060669242E+03   -0.52465E-02   -0.36488E-02  5800   0.195E+00    0.552E-01
RMM:   2    -0.239064358293E+03   -0.36891E-02   -0.38253E-02  4801   0.424E-01    0.204E-01
RMM:   3    -0.239065195881E+03   -0.83759E-03   -0.91271E-03  3552   0.200E-01
   1945 T=   769. E= -.21853180E+03 F= -.23906520E+03 E0= -.23906520E+03  EK= 0.62610E+01 SP= 0.14E+02 SK= 0.61E-01 mag=     -0.000
       N       E                     dE             d eps       ncg     rms          rms(c)
DAV:   1    -0.239091732982E+03   -0.27375E-01   -0.46531E-02  5752   0.191E+00    0.227E-01
RMM:   2    -0.239095398003E+03   -0.36650E-02   -0.35664E-02  4770   0.408E-01    0.267E-01
RMM:   3    -0.239096315068E+03   -0.91706E-03   -0.94668E-03  3540   0.196E-01
   1946 T=   758. E= -.21852409E+03 F= -.23909632E+03 E0= -.23909632E+03  EK= 0.61689E+01 SP= 0.14E+02 SK= 0.55E-01 mag=     -0.000
       N       E                     dE             d eps       ncg     rms          rms(c)
DAV:   1    -0.239143547528E+03   -0.48150E-01   -0.39135E-02  5600   0.191E+00    0.689E-01
RMM:   2    -0.239146866996E+03   -0.33195E-02   -0.35073E-02  4928   0.409E-01    0.585E-01
RMM:   3    -0.239147536696E+03   -0.66970E-03   -0.82672E-03  3255   0.182E-01
   1947 T=   750. E= -.21851709E+03 F= -.23914754E+03 E0= -.23914754E+03  EK= 0.61059E+01 SP= 0.14E+02 SK= 0.48E-01 mag=      0.000
       N       E                     dE             d eps       ncg     rms          rms(c)
DAV:   1    -0.239210402020E+03   -0.63535E-01   -0.39964E-02  5808   0.188E+00    0.149E+00
RMM:   2    -0.239213089143E+03   -0.26871E-02   -0.33333E-02  4891   0.384E-01    0.699E-01
RMM:   3    -0.239213570781E+03   -0.48164E-03   -0.81778E-03  3291   0.185E-01
   1948 T=   745. E= -.21851093E+03 F= -.23921357E+03 E0= -.23921357E+03  EK= 0.60672E+01 SP= 0.15E+02 SK= 0.40E-01 mag=      0.000
       N       E                     dE             d eps       ncg     rms          rms(c)
DAV:   1    -0.239285784558E+03   -0.72695E-01   -0.36052E-02  5864   0.190E+00    0.290E-01
RMM:   2    -0.239289386400E+03   -0.36018E-02   -0.38041E-02  5002   0.412E-01    0.304E-01
RMM:   3    -0.239289972167E+03   -0.58577E-03   -0.72493E-03  3142   0.179E-01
   1949 T=   743. E= -.21850584E+03 F= -.23928997E+03 E0= -.23928997E+03  EK= 0.60487E+01 SP= 0.15E+02 SK= 0.32E-01 mag=      0.000
       N       E                     dE             d eps       ncg     rms          rms(c)
DAV:   1    -0.239366695955E+03   -0.77310E-01   -0.39013E-02  5984   0.190E+00    0.832E-01
RMM:   2    -0.239369485175E+03   -0.27892E-02   -0.36468E-02  4934   0.386E-01    0.685E-01
RMM:   3    -0.239369986728E+03   -0.50155E-03   -0.77177E-03  3172   0.179E-01
   1950 T=   743. E= -.21849870E+03 F= -.23936999E+03 E0= -.23936999E+03  EK= 0.60466E+01 SP= 0.15E+02 SK= 0.25E-01 mag=     -0.000
       N       E                     dE             d eps       ncg     rms          rms(c)
DAV:   1    -0.239447755053E+03   -0.78270E-01   -0.40070E-02  6024   0.189E+00    0.161E+00
RMM:   2    -0.239448141933E+03   -0.38688E-03   -0.35120E-02  4968   0.401E-01    0.747E-01
RMM:   3    -0.239447954549E+03    0.18738E-03   -0.10775E-02  3361   0.196E-01
   1951 T=   743. E= -.21849380E+03 F= -.23944795E+03 E0= -.23944795E+03  EK= 0.60510E+01 SP= 0.15E+02 SK= 0.19E-01 mag=      0.000
       N       E                     dE             d eps       ncg     rms          rms(c)
DAV:   1    -0.239514811293E+03   -0.66669E-01   -0.54946E-02  6152   0.192E+00    0.327E-01
RMM:   2    -0.239517269774E+03   -0.24585E-02   -0.43090E-02  4875   0.424E-01    0.358E-01
RMM:   3    -0.239517504878E+03   -0.23510E-03   -0.74186E-03  3240   0.188E-01
   1952 T=   744. E= -.21849009E+03 F= -.23951750E+03 E0= -.23951750E+03  EK= 0.60564E+01 SP= 0.15E+02 SK= 0.14E-01 mag=      0.000
       N       E                     dE             d eps       ncg     rms          rms(c)
DAV:   1    -0.239569343134E+03   -0.52073E-01   -0.44255E-02  5952   0.191E+00    0.795E-01
RMM:   2    -0.239572434159E+03   -0.30910E-02   -0.45784E-02  4978   0.415E-01    0.698E-01
RMM:   3    -0.239572958038E+03   -0.52388E-03   -0.71876E-03  3087   0.181E-01
   1953 T=   744. E= -.21848237E+03 F= -.23957296E+03 E0= -.23957296E+03  EK= 0.60621E+01 SP= 0.15E+02 SK= 0.98E-02 mag=     -0.000
       N       E                     dE             d eps       ncg     rms          rms(c)
DAV:   1    -0.239612794000E+03   -0.40360E-01   -0.30298E-02  5800   0.187E+00    0.154E+00
RMM:   2    -0.239612303822E+03    0.49018E-03   -0.37302E-02  4911   0.392E-01    0.739E-01
RMM:   3    -0.239612283677E+03    0.20144E-04   -0.10336E-02  3263   0.195E-01
   1954 T=   744. E= -.21847719E+03 F= -.23961228E+03 E0= -.23961228E+03  EK= 0.60596E+01 SP= 0.15E+02 SK= 0.63E-02 mag=      0.000
       N       E                     dE             d eps       ncg     rms          rms(c)
DAV:   1    -0.239630639285E+03   -0.18335E-01   -0.54285E-02  6040   0.195E+00    0.420E-01
RMM:   2    -0.239633417511E+03   -0.27782E-02   -0.44044E-02  4941   0.435E-01    0.350E-01
RMM:   3    -0.239633582339E+03   -0.16483E-03   -0.72652E-03  3200   0.187E-01
   1955 T=   743. E= -.21847378E+03 F= -.23963358E+03 E0= -.23963358E+03  EK= 0.60477E+01 SP= 0.15E+02 SK= 0.35E-02 mag=      0.000
       N       E                     dE             d eps       ncg     rms          rms(c)
DAV:   1    -0.239633247017E+03    0.17049E-03   -0.48969E-02  6064   0.191E+00    0.719E-01
RMM:   2    -0.239636453143E+03   -0.32061E-02   -0.49122E-02  4947   0.420E-01    0.676E-01
RMM:   3    -0.239637022174E+03   -0.56903E-03   -0.74380E-03  3122   0.187E-01
   1956 T=   741. E= -.21846548E+03 F= -.23963702E+03 E0= -.23963702E+03  EK= 0.60337E+01 SP= 0.15E+02 SK= 0.15E-02 mag=      0.000
       N       E                     dE             d eps       ncg     rms          rms(c)
DAV:   1    -0.239625731768E+03    0.10721E-01   -0.43640E-02  5928   0.187E+00    0.143E+00
RMM:   2    -0.239626221931E+03   -0.49016E-03   -0.41678E-02  4940   0.411E-01    0.648E-01
RMM:   3    -0.239626346190E+03   -0.12426E-03   -0.10006E-02  3299   0.200E-01
   1957 T=   739. E= -.21845843E+03 F= -.23962635E+03 E0= -.23962635E+03  EK= 0.60153E+01 SP= 0.15E+02 SK= 0.30E-03 mag=      0.000
       N       E                     dE             d eps       ncg     rms          rms(c)
DAV:   1    -0.239601768504E+03    0.24453E-01   -0.53507E-02  6072   0.196E+00    0.473E-01
RMM:   2    -0.239605735164E+03   -0.39667E-02   -0.48572E-02  4928   0.445E-01    0.339E-01
RMM:   3    -0.239606097338E+03   -0.36217E-03   -0.77880E-03  3192   0.192E-01
   1958 T=   736. E= -.21845363E+03 F= -.23960610E+03 E0= -.23960610E+03  EK= 0.59965E+01 SP= 0.15E+02 SK= 0.24E-04 mag=      0.000
       N       E                     dE             d eps       ncg     rms          rms(c)
DAV:   1    -0.239575983998E+03    0.29751E-01   -0.63024E-02  6104   0.192E+00    0.644E-01
RMM:   2    -0.239579369442E+03   -0.33854E-02   -0.49687E-02  4985   0.436E-01    0.627E-01
RMM:   3    -0.239579987161E+03   -0.61772E-03   -0.78805E-03  3144   0.190E-01
   1959 T=   735. E= -.21844350E+03 F= -.23957999E+03 E0= -.23957999E+03  EK= 0.59889E+01 SP= 0.15E+02 SK= 0.76E-03 mag=      0.000
       N       E                     dE             d eps       ncg     rms          rms(c)
DAV:   1    -0.239554249753E+03    0.25120E-01   -0.42435E-02  5856   0.188E+00    0.129E+00
RMM:   2    -0.239555398151E+03   -0.11484E-02   -0.39366E-02  4984   0.415E-01    0.574E-01
RMM:   3    -0.239555598580E+03   -0.20043E-03   -0.96788E-03  3224   0.199E-01
   1960 T=   736. E= -.21843489E+03 F= -.23955560E+03 E0= -.23955560E+03  EK= 0.59935E+01 SP= 0.15E+02 SK= 0.25E-02 mag=      0.000
       N       E                     dE             d eps       ncg     rms          rms(c)
DAV:   1    -0.239534287149E+03    0.21111E-01   -0.60239E-02  6088   0.197E+00    0.477E-01
RMM:   2    -0.239538772026E+03   -0.44849E-02   -0.49188E-02  5060   0.456E-01    0.309E-01
RMM:   3    -0.239539217090E+03   -0.44506E-03   -0.79430E-03  3193   0.194E-01
   1961 T=   739. E= -.21842867E+03 F= -.23953922E+03 E0= -.23953922E+03  EK= 0.60156E+01 SP= 0.15E+02 SK= 0.53E-02 mag=     -0.000
       N       E                     dE             d eps       ncg     rms          rms(c)
DAV:   1    -0.239531816532E+03    0.69555E-02   -0.60373E-02  6024   0.193E+00    0.531E-01
RMM:   2    -0.239535176081E+03   -0.33595E-02   -0.47250E-02  5028   0.434E-01    0.535E-01
RMM:   3    -0.239535888389E+03   -0.71231E-03   -0.82924E-03  3135   0.194E-01
   1962 T=   745. E= -.21841851E+03 F= -.23953589E+03 E0= -.23953589E+03  EK= 0.60664E+01 SP= 0.15E+02 SK= 0.87E-02 mag=     -0.000
       N       E                     dE             d eps       ncg     rms          rms(c)
DAV:   1    -0.239545371558E+03   -0.10195E-01   -0.40992E-02  5808   0.190E+00    0.791E-01
RMM:   2    -0.239547584938E+03   -0.22134E-02   -0.39708E-02  5027   0.421E-01    0.309E-01
RMM:   3    -0.239548074243E+03   -0.48930E-03   -0.87164E-03  3168   0.193E-01
   1963 T=   754. E= -.21840894E+03 F= -.23954807E+03 E0= -.23954807E+03  EK= 0.61429E+01 SP= 0.15E+02 SK= 0.12E-01 mag=     -0.000
       N       E                     dE             d eps       ncg     rms          rms(c)
DAV:   1    -0.239571749479E+03   -0.24165E-01   -0.51985E-02  6080   0.198E+00    0.530E-01
RMM:   2    -0.239576590766E+03   -0.48413E-02   -0.47525E-02  5102   0.450E-01    0.219E-01
RMM:   3    -0.239577239678E+03   -0.64891E-03   -0.80568E-03  3122   0.194E-01
   1964 T=   767. E= -.21840125E+03 F= -.23957724E+03 E0= -.23957724E+03  EK= 0.62440E+01 SP= 0.15E+02 SK= 0.16E-01 mag=     -0.000
       N       E                     dE             d eps       ncg     rms          rms(c)
DAV:   1    -0.239616983704E+03   -0.40393E-01   -0.66337E-02  6112   0.200E+00    0.219E-01
RMM:   2    -0.239621573309E+03   -0.45896E-02   -0.47209E-02  5064   0.441E-01    0.261E-01
RMM:   3    -0.239622399902E+03   -0.82659E-03   -0.85707E-03  3189   0.196E-01
   1965 T=   783. E= -.21838990E+03 F= -.23962240E+03 E0= -.23962240E+03  EK= 0.63724E+01 SP= 0.15E+02 SK= 0.18E-01 mag=      0.000
       N       E                     dE             d eps       ncg     rms          rms(c)
DAV:   1    -0.239674556023E+03   -0.52983E-01   -0.45716E-02  5696   0.199E+00    0.450E-01
RMM:   2    -0.239678672103E+03   -0.41161E-02   -0.43736E-02  5086   0.435E-01    0.446E-01
RMM:   3    -0.239679461145E+03   -0.78904E-03   -0.87100E-03  3124   0.193E-01
   1966 T=   800. E= -.21837821E+03 F= -.23967946E+03 E0= -.23967946E+03  EK= 0.65181E+01 SP= 0.15E+02 SK= 0.19E-01 mag=      0.000
       N       E                     dE             d eps       ncg     rms          rms(c)
DAV:   1    -0.239737425938E+03   -0.58754E-01   -0.64422E-02  6112   0.204E+00    0.117E+00
RMM:   2    -0.239741937072E+03   -0.45111E-02   -0.44062E-02  5089   0.440E-01    0.480E-01
RMM:   3    -0.239742617497E+03   -0.68043E-03   -0.90590E-03  3201   0.201E-01
   1967 T=   819. E= -.21836885E+03 F= -.23974262E+03 E0= -.23974262E+03  EK= 0.66692E+01 SP= 0.15E+02 SK= 0.18E-01 mag=     -0.000
       N       E                     dE             d eps       ncg     rms          rms(c)
DAV:   1    -0.239797784790E+03   -0.55848E-01   -0.59324E-02  5944   0.212E+00    0.351E-01
RMM:   2    -0.239803025156E+03   -0.52404E-02   -0.49047E-02  5073   0.465E-01    0.254E-01
RMM:   3    -0.239803925481E+03   -0.90032E-03   -0.93526E-03  3253   0.203E-01
   1968 T=   837. E= -.21835844E+03 F= -.23980393E+03 E0= -.23980393E+03  EK= 0.68174E+01 SP= 0.15E+02 SK= 0.15E-01 mag=     -0.000
       N       E                     dE             d eps       ncg     rms          rms(c)
DAV:   1    -0.239849477004E+03   -0.46452E-01   -0.59892E-02  6056   0.209E+00    0.516E-01
RMM:   2    -0.239853831279E+03   -0.43543E-02   -0.44210E-02  5007   0.448E-01    0.503E-01
RMM:   3    -0.239854723411E+03   -0.89213E-03   -0.95586E-03  3250   0.201E-01
   1969 T=   853. E= -.21834743E+03 F= -.23985472E+03 E0= -.23985472E+03  EK= 0.69493E+01 SP= 0.15E+02 SK= 0.12E-01 mag=     -0.000
       N       E                     dE             d eps       ncg     rms          rms(c)
DAV:   1    -0.239882629059E+03   -0.28798E-01   -0.54006E-02  6040   0.213E+00    0.122E+00
RMM:   2    -0.239886515693E+03   -0.38866E-02   -0.42993E-02  5066   0.445E-01    0.502E-01
RMM:   3    -0.239887165597E+03   -0.64990E-03   -0.99030E-03  3256   0.203E-01
   1970 T=   866. E= -.21833716E+03 F= -.23988717E+03 E0= -.23988717E+03  EK= 0.70518E+01 SP= 0.14E+02 SK= 0.75E-02 mag=     -0.000
       N       E                     dE             d eps       ncg     rms          rms(c)
DAV:   1    -0.239887919440E+03   -0.14037E-02   -0.62984E-02  6024   0.216E+00    0.319E-01
RMM:   2    -0.239893430123E+03   -0.55107E-02   -0.51583E-02  5037   0.458E-01    0.275E-01
RMM:   3    -0.239894270041E+03   -0.83992E-03   -0.94113E-03  3319   0.205E-01
   1971 T=   874. E= -.21832536E+03 F= -.23989427E+03 E0= -.23989427E+03  EK= 0.71168E+01 SP= 0.14E+02 SK= 0.38E-02 mag=     -0.000
       N       E                     dE             d eps       ncg     rms          rms(c)
DAV:   1    -0.239866320363E+03    0.27110E-01   -0.61171E-02  6056   0.215E+00    0.651E-01
RMM:   2    -0.239870416370E+03   -0.40960E-02   -0.47443E-02  5007   0.454E-01    0.598E-01
RMM:   3    -0.239871282035E+03   -0.86567E-03   -0.10372E-02  3314   0.208E-01
   1972 T=   876. E= -.21831266E+03 F= -.23987128E+03 E0= -.23987128E+03  EK= 0.71367E+01 SP= 0.14E+02 SK= 0.12E-02 mag=      0.000
       N       E                     dE             d eps       ncg     rms          rms(c)
DAV:   1    -0.239815079800E+03    0.55337E-01   -0.64238E-02  6248   0.215E+00    0.176E+00
RMM:   2    -0.239816947252E+03   -0.18675E-02   -0.46990E-02  5020   0.455E-01    0.779E-01
RMM:   3    -0.239816874189E+03    0.73063E-04   -0.12885E-02  3495   0.220E-01
   1973 T=   873. E= -.21830082E+03 F= -.23981687E+03 E0= -.23981687E+03  EK= 0.71075E+01 SP= 0.14E+02 SK= 0.76E-04 mag=      0.000
       N       E                     dE             d eps       ncg     rms          rms(c)
DAV:   1    -0.239727393023E+03    0.89554E-01   -0.77057E-02  6184   0.215E+00    0.390E-01
RMM:   2    -0.239732335589E+03   -0.49426E-02   -0.58986E-02  5020   0.484E-01    0.462E-01
RMM:   3    -0.239732902429E+03   -0.56684E-03   -0.99100E-03  3355   0.215E-01
   1974 T=   864. E= -.21828840E+03 F= -.23973290E+03 E0= -.23973290E+03  EK= 0.70334E+01 SP= 0.14E+02 SK= 0.24E-03 mag=      0.000
       N       E                     dE             d eps       ncg     rms          rms(c)
DAV:   1    -0.239620196147E+03    0.11214E+00   -0.67688E-02  6240   0.213E+00    0.141E+00
RMM:   2    -0.239621435175E+03   -0.12390E-02   -0.60039E-02  4999   0.483E-01    0.107E+00
RMM:   3    -0.239621859098E+03   -0.42392E-03   -0.16264E-02  3796   0.237E-01
   1975 T=   850. E= -.21827312E+03 F= -.23962186E+03 E0= -.23962186E+03  EK= 0.69215E+01 SP= 0.14E+02 SK= 0.13E-02 mag=      0.000
       N       E                     dE             d eps       ncg     rms          rms(c)
DAV:   1    -0.239504680631E+03    0.11675E+00   -0.72987E-02  6272   0.209E+00    0.244E+00
RMM:   2    -0.239494739866E+03    0.99408E-02   -0.55615E-02  4882   0.475E-01    0.116E+00
RMM:   3    -0.239492271417E+03    0.24684E-02   -0.25545E-02  4087   0.272E-01
   1976 T=   832. E= -.21826154E+03 F= -.23949227E+03 E0= -.23949227E+03  EK= 0.67770E+01 SP= 0.14E+02 SK= 0.25E-02 mag=     -0.000
       N       E                     dE             d eps       ncg     rms          rms(c)
DAV:   1    -0.239357528827E+03    0.13721E+00   -0.12806E-01  6400   0.215E+00    0.615E-01
RMM:   2    -0.239354159581E+03    0.33692E-02   -0.74944E-02  4962   0.561E-01    0.524E-01
RMM:   3    -0.239353092752E+03    0.10668E-02   -0.15628E-02  3797   0.252E-01
   1977 T=   813. E= -.21825018E+03 F= -.23935309E+03 E0= -.23935309E+03  EK= 0.66167E+01 SP= 0.14E+02 SK= 0.34E-02 mag=     -0.000
       N       E                     dE             d eps       ncg     rms          rms(c)
DAV:   1    -0.239203886296E+03    0.15027E+00   -0.18697E-01  6472   0.211E+00    0.656E-01
RMM:   2    -0.239210861121E+03   -0.69748E-02   -0.72985E-02  4979   0.541E-01    0.688E-01
RMM:   3    -0.239211734595E+03   -0.87347E-03   -0.11319E-02  3550   0.232E-01
   1978 T=   793. E= -.21823387E+03 F= -.23921173E+03 E0= -.23921173E+03  EK= 0.64573E+01 SP= 0.15E+02 SK= 0.35E-02 mag=     -0.000
       N       E                     dE             d eps       ncg     rms          rms(c)
DAV:   1    -0.239075280011E+03    0.13558E+00   -0.89701E-02  6176   0.200E+00    0.807E-01
RMM:   2    -0.239078285891E+03   -0.30059E-02   -0.90435E-02  4856   0.528E-01    0.690E-01
RMM:   3    -0.239079557878E+03   -0.12720E-02   -0.15532E-02  3795   0.258E-01
   1979 T=   774. E= -.21822269E+03 F= -.23907956E+03 E0= -.23907956E+03  EK= 0.63042E+01 SP= 0.15E+02 SK= 0.28E-02 mag=     -0.000
       N       E                     dE             d eps       ncg     rms          rms(c)
DAV:   1    -0.238962808231E+03    0.11548E+00   -0.71022E-02  6032   0.202E+00    0.117E+00
RMM:   2    -0.238964892069E+03   -0.20838E-02   -0.55910E-02  4797   0.470E-01    0.512E-01
RMM:   3    -0.238965395349E+03   -0.50328E-03   -0.12026E-02  3512   0.225E-01
   1980 T=   758. E= -.21821284E+03 F= -.23896540E+03 E0= -.23896540E+03  EK= 0.61734E+01 SP= 0.15E+02 SK= 0.17E-02 mag=     -0.000
       N       E                     dE             d eps       ncg     rms          rms(c)
DAV:   1    -0.238869683886E+03    0.95208E-01   -0.90450E-02  6248   0.198E+00    0.854E-01
RMM:   2    -0.238874970357E+03   -0.52865E-02   -0.54575E-02  5020   0.495E-01    0.288E-01
RMM:   3    -0.238875679792E+03   -0.70944E-03   -0.10156E-02  3469   0.218E-01
   1981 T=   746. E= -.21820118E+03 F= -.23887568E+03 E0= -.23887568E+03  EK= 0.60773E+01 SP= 0.15E+02 SK= 0.59E-03 mag=      0.000
       N       E                     dE             d eps       ncg     rms          rms(c)
DAV:   1    -0.238809053701E+03    0.65917E-01   -0.58733E-02  6008   0.199E+00    0.325E-01
RMM:   2    -0.238814892678E+03   -0.58390E-02   -0.57923E-02  5100   0.478E-01    0.351E-01
RMM:   3    -0.238815775074E+03   -0.88240E-03   -0.93914E-03  3308   0.212E-01
   1982 T=   739. E= -.21819196E+03 F= -.23881578E+03 E0= -.23881578E+03  EK= 0.60189E+01 SP= 0.15E+02 SK= 0.16E-04 mag=      0.000
       N       E                     dE             d eps       ncg     rms          rms(c)
DAV:   1    -0.238783335413E+03    0.31557E-01   -0.64172E-02  5960   0.201E+00    0.637E-01
RMM:   2    -0.238787378508E+03   -0.40431E-02   -0.49589E-02  4944   0.449E-01    0.548E-01
RMM:   3    -0.238788176203E+03   -0.79770E-03   -0.98804E-03  3438   0.208E-01
   1983 T=   737. E= -.21818232E+03 F= -.23878818E+03 E0= -.23878818E+03  EK= 0.60045E+01 SP= 0.15E+02 SK= 0.32E-03 mag=      0.000
       N       E                     dE             d eps       ncg     rms          rms(c)
DAV:   1    -0.238788939485E+03   -0.15610E-02   -0.63997E-02  6032   0.190E+00    0.113E+00
RMM:   2    -0.238792720166E+03   -0.37807E-02   -0.45688E-02  4931   0.443E-01    0.472E-01
RMM:   3    -0.238793315527E+03   -0.59536E-03   -0.92759E-03  3325   0.200E-01
   1984 T=   741. E= -.21817423E+03 F= -.23879332E+03 E0= -.23879332E+03  EK= 0.60329E+01 SP= 0.15E+02 SK= 0.16E-02 mag=     -0.000
       N       E                     dE             d eps       ncg     rms          rms(c)
DAV:   1    -0.238821717679E+03   -0.28998E-01   -0.64488E-02  6016   0.195E+00    0.460E-01
RMM:   2    -0.238827111040E+03   -0.53934E-02   -0.51659E-02  5006   0.453E-01    0.257E-01
RMM:   3    -0.238827839589E+03   -0.72855E-03   -0.88792E-03  3280   0.201E-01
   1985 T=   749. E= -.21816862E+03 F= -.23882784E+03 E0= -.23882784E+03  EK= 0.60995E+01 SP= 0.15E+02 SK= 0.35E-02 mag=     -0.000
       N       E                     dE             d eps       ncg     rms          rms(c)
DAV:   1    -0.238882076921E+03   -0.54966E-01   -0.70365E-02  6056   0.197E+00    0.337E-01
RMM:   2    -0.238886823969E+03   -0.47470E-02   -0.50596E-02  4965   0.442E-01    0.403E-01
RMM:   3    -0.238887677091E+03   -0.85312E-03   -0.91255E-03  3291   0.198E-01
   1986 T=   762. E= -.21815993E+03 F= -.23888768E+03 E0= -.23888768E+03  EK= 0.62045E+01 SP= 0.15E+02 SK= 0.56E-02 mag=      0.000
       N       E                     dE             d eps       ncg     rms          rms(c)
DAV:   1    -0.238962981004E+03   -0.76157E-01   -0.69438E-02  5960   0.194E+00    0.532E-01
RMM:   2    -0.238967361695E+03   -0.43807E-02   -0.46515E-02  4966   0.445E-01    0.533E-01
RMM:   3    -0.238968178216E+03   -0.81652E-03   -0.91825E-03  3305   0.196E-01
   1987 T=   778. E= -.21815260E+03 F= -.23896818E+03 E0= -.23896818E+03  EK= 0.63369E+01 SP= 0.14E+02 SK= 0.73E-02 mag=      0.000
       N       E                     dE             d eps       ncg     rms          rms(c)
DAV:   1    -0.239056573146E+03   -0.89211E-01   -0.51841E-02  6024   0.196E+00    0.900E-01
RMM:   2    -0.239061234464E+03   -0.46613E-02   -0.44935E-02  5008   0.430E-01    0.340E-01
RMM:   3    -0.239062004735E+03   -0.77027E-03   -0.84569E-03  3200   0.190E-01
   1988 T=   796. E= -.21814902E+03 F= -.23906200E+03 E0= -.23906200E+03  EK= 0.64842E+01 SP= 0.14E+02 SK= 0.81E-02 mag=     -0.000
       N       E                     dE             d eps       ncg     rms          rms(c)
DAV:   1    -0.239156230529E+03   -0.94996E-01   -0.76629E-02  6072   0.203E+00    0.655E-01
RMM:   2    -0.239161396439E+03   -0.51659E-02   -0.50806E-02  4967   0.451E-01    0.229E-01
RMM:   3    -0.239162270764E+03   -0.87433E-03   -0.93321E-03  3378   0.201E-01
   1989 T=   816. E= -.21814334E+03 F= -.23916227E+03 E0= -.23916227E+03  EK= 0.66419E+01 SP= 0.14E+02 SK= 0.77E-02 mag=     -0.000
       N       E                     dE             d eps       ncg     rms          rms(c)
DAV:   1    -0.239256207360E+03   -0.94811E-01   -0.52694E-02  5928   0.202E+00    0.195E-01
RMM:   2    -0.239261390174E+03   -0.51828E-02   -0.49406E-02  5004   0.445E-01    0.284E-01
RMM:   3    -0.239262254861E+03   -0.86469E-03   -0.89845E-03  3229   0.195E-01
   1990 T=   835. E= -.21813576E+03 F= -.23926225E+03 E0= -.23926225E+03  EK= 0.67992E+01 SP= 0.14E+02 SK= 0.62E-02 mag=      0.000
       N       E                     dE             d eps       ncg     rms          rms(c)
DAV:   1    -0.239350147950E+03   -0.88758E-01   -0.57193E-02  6016   0.205E+00    0.589E-01
RMM:   2    -0.239355214202E+03   -0.50663E-02   -0.48088E-02  4982   0.441E-01    0.572E-01
RMM:   3    -0.239356004500E+03   -0.79030E-03   -0.85692E-03  3253   0.193E-01
   1991 T=   853. E= -.21812944E+03 F= -.23935600E+03 E0= -.23935600E+03  EK= 0.69428E+01 SP= 0.14E+02 SK= 0.40E-02 mag=     -0.000
       N       E                     dE             d eps       ncg     rms          rms(c)
DAV:   1    -0.239433046668E+03   -0.77832E-01   -0.72275E-02  6008   0.211E+00    0.145E+00
RMM:   2    -0.239438124774E+03   -0.50781E-02   -0.50036E-02  4996   0.449E-01    0.607E-01
RMM:   3    -0.239438908119E+03   -0.78335E-03   -0.94629E-03  3286   0.200E-01
   1992 T=   867. E= -.21812399E+03 F= -.23943891E+03 E0= -.23943891E+03  EK= 0.70641E+01 SP= 0.14E+02 SK= 0.18E-02 mag=      0.000
       N       E                     dE             d eps       ncg     rms          rms(c)
DAV:   1    -0.239500475356E+03   -0.62351E-01   -0.60398E-02  5992   0.209E+00    0.355E-01
RMM:   2    -0.239505968014E+03   -0.54927E-02   -0.52331E-02  5033   0.458E-01    0.298E-01
RMM:   3    -0.239506785407E+03   -0.81739E-03   -0.88132E-03  3301   0.199E-01
   1993 T=   879. E= -.21811790E+03 F= -.23950679E+03 E0= -.23950679E+03  EK= 0.71567E+01 SP= 0.14E+02 SK= 0.27E-03 mag=      0.000
       N       E                     dE             d eps       ncg     rms          rms(c)
DAV:   1    -0.239551484587E+03   -0.45517E-01   -0.61835E-02  6048   0.210E+00    0.712E-01
RMM:   2    -0.239556177430E+03   -0.46928E-02   -0.48130E-02  4940   0.444E-01    0.665E-01
RMM:   3    -0.239556951204E+03   -0.77377E-03   -0.92313E-03  3342   0.198E-01
   1994 T=   886. E= -.21811081E+03 F= -.23955695E+03 E0= -.23955695E+03  EK= 0.72153E+01 SP= 0.14E+02 SK= 0.17E-03 mag=     -0.000
       N       E                     dE             d eps       ncg     rms          rms(c)
DAV:   1    -0.239586743144E+03   -0.30566E-01   -0.74321E-02  6032   0.211E+00    0.210E+00
RMM:   2    -0.239590046112E+03   -0.33030E-02   -0.48539E-02  4982   0.449E-01    0.958E-01
RMM:   3    -0.239590253042E+03   -0.20693E-03   -0.10556E-02  3375   0.207E-01
   1995 T=   889. E= -.21810455E+03 F= -.23959025E+03 E0= -.23959025E+03  EK= 0.72372E+01 SP= 0.14E+02 SK= 0.19E-02 mag=     -0.000
       N       E                     dE             d eps       ncg     rms          rms(c)
DAV:   1    -0.239600268680E+03   -0.10223E-01   -0.66789E-02  6040   0.212E+00    0.540E-01
RMM:   2    -0.239605310566E+03   -0.50419E-02   -0.55793E-02  4998   0.467E-01    0.579E-01
RMM:   3    -0.239605927715E+03   -0.61715E-03   -0.90448E-03  3270   0.204E-01
   1996 T=   887. E= -.21809789E+03 F= -.23960593E+03 E0= -.23960593E+03  EK= 0.72220E+01 SP= 0.14E+02 SK= 0.56E-02 mag=      0.000
       N       E                     dE             d eps       ncg     rms          rms(c)
DAV:   1    -0.239600499251E+03    0.48113E-02   -0.66136E-02  6072   0.211E+00    0.141E+00
RMM:   2    -0.239603829467E+03   -0.33302E-02   -0.52414E-02  4983   0.457E-01    0.109E+00
RMM:   3    -0.239604284364E+03   -0.45490E-03   -0.10728E-02  3368   0.210E-01
   1997 T=   881. E= -.21808830E+03 F= -.23960428E+03 E0= -.23960428E+03  EK= 0.71734E+01 SP= 0.14E+02 SK= 0.11E-01 mag=     -0.000
       N       E                     dE             d eps       ncg     rms          rms(c)
DAV:   1    -0.239590512257E+03    0.13317E-01   -0.55810E-02  6048   0.215E+00    0.263E+00
RMM:   2    -0.239588707761E+03    0.18045E-02   -0.54437E-02  4963   0.462E-01    0.129E+00
RMM:   3    -0.239587889233E+03    0.81853E-03   -0.17803E-02  4198   0.243E-01
   1998 T=   871. E= -.21807998E+03 F= -.23958789E+03 E0= -.23958789E+03  EK= 0.70915E+01 SP= 0.14E+02 SK= 0.17E-01 mag=     -0.000
       N       E                     dE             d eps       ncg     rms          rms(c)
DAV:   1    -0.239556598974E+03    0.32109E-01   -0.91396E-02  6248   0.217E+00    0.549E-01
RMM:   2    -0.239557890428E+03   -0.12915E-02   -0.64510E-02  4851   0.509E-01    0.560E-01
RMM:   3    -0.239557926761E+03   -0.36333E-04   -0.12015E-02  3705   0.235E-01
   1999 T=   857. E= -.21807293E+03 F= -.23955793E+03 E0= -.23955793E+03  EK= 0.69804E+01 SP= 0.14E+02 SK= 0.24E-01 mag=      0.000
       N       E                     dE             d eps       ncg     rms          rms(c)
DAV:   1    -0.239508406233E+03    0.49484E-01   -0.10175E-01  6336   0.209E+00    0.865E-01
RMM:   2    -0.239514238009E+03   -0.58318E-02   -0.61100E-02  4918   0.487E-01    0.818E-01
RMM:   3    -0.239515019085E+03   -0.78108E-03   -0.93750E-03  3436   0.211E-01
   2000 T=   841. E= -.21806244E+03 F= -.23951502E+03 E0= -.23951502E+03  EK= 0.68491E+01 SP= 0.15E+02 SK= 0.29E-01 mag=      0.000
