Na24 Sb8 S32
1.0
  11.7036554800000001    0.0000000000000000   -4.1378687999999997
  -5.8518267200000000   10.1356637599999999   -4.1378687999999997
   0.0000000000000000    0.0000000000000000   12.4136023600000005
Na Sb S
24 8 32
direct
   0.2500000000000000    0.2500000000000000    0.0000000000000000 Na
   0.2500000000000000    0.2500000000000000    0.5000000000000000 Na
   0.2500000000000000    0.7500000000000000    0.0000000000000000 Na
   0.2500000000000000    0.7500000000000000    0.4999999999999999 Na
   0.7500000000000000    0.2500000000000000    0.0000000000000000 Na
   0.7500000000000000    0.2500000000000000    0.5000000000000000 Na
   0.7500000000000000    0.7500000000000000    0.0000000000000000 Na
   0.7500000000000000    0.7500000000000000    0.5000000000000000 Na
   0.0000000000000000    0.2500000000000000    0.2500000000000000 Na
   0.0000000000000000    0.2500000000000000    0.7500000000000000 Na
   0.9999999999999999    0.7500000000000000    0.2499999999999999 Na
   0.9999999999999999    0.7500000000000000    0.7500000000000000 Na
   0.4999999999999999    0.2500000000000000    0.2500000000000000 Na
   0.4999999999999999    0.2500000000000000    0.7500000000000000 Na
   0.4999999999999999    0.7500000000000000    0.2500000000000000 Na
   0.4999999999999999    0.7500000000000000    0.7500000000000000 Na
   0.2500000000000000    0.0000000000000000    0.2500000000000000 Na
   0.2500000000000000    0.0000000000000000    0.7500000000000000 Na
   0.2500000000000000    0.5000000000000000    0.2500000000000000 Na
   0.2500000000000000    0.5000000000000000    0.7500000000000000 Na
   0.7499999999999999    0.0000000000000000    0.2500000000000000 Na
   0.7499999999999999    0.0000000000000000    0.7500000000000000 Na
   0.7500000000000000    0.5000000000000000    0.2500000000000000 Na
   0.7500000000000000    0.5000000000000000    0.7500000000000000 Na
   0.0000000000000000    0.0000000000000000    0.0000000000000000 Sb
   0.0000000000000000    0.0000000000000000    0.5000000000000000 Sb
   0.0000000000000000    0.5000000000000000    0.0000000000000000 Sb
   0.0000000000000000    0.5000000000000000    0.4999999999999999 Sb
   0.5000000000000000    0.0000000000000000    0.0000000000000000 Sb
   0.5000000000000000    0.0000000000000000    0.5000000000000000 Sb
   0.5000000000000000    0.5000000000000000    0.0000000000000000 Sb
   0.5000000000000000    0.5000000000000000    0.5000000000000000 Sb
   0.0000000000000000    0.0000000000000000    0.3109426450000000 S
   0.0000000000000000    0.0000000000000000    0.8109426450000000 S
   0.0000000000000000    0.5000000000000000    0.3109426450000000 S
   0.0000000000000000    0.5000000000000000    0.8109426450000000 S
   0.5000000000000000    0.0000000000000000    0.3109426450000000 S
   0.5000000000000000    0.0000000000000000    0.8109426450000000 S
   0.5000000000000000    0.5000000000000000    0.3109426450000000 S
   0.5000000000000000    0.5000000000000000    0.8109426450000000 S
   0.1890573550000000    0.1890573550000000    0.1890573550000000 S
   0.1890573550000000    0.1890573550000000    0.6890573550000000 S
   0.1890573550000000    0.6890573550000001    0.1890573550000000 S
   0.1890573550000000    0.6890573550000001    0.6890573550000000 S
   0.6890573550000000    0.1890573550000000    0.1890573550000000 S
   0.6890573550000000    0.1890573550000000    0.6890573550000000 S
   0.6890573550000000    0.6890573550000001    0.1890573550000000 S
   0.6890573550000000    0.6890573550000001    0.6890573550000000 S
   0.3109426450000000    0.0000000000000000    0.0000000000000000 S
   0.3109426450000000    0.0000000000000000    0.5000000000000000 S
   0.3109426450000000    0.5000000000000000    0.0000000000000000 S
   0.3109426450000000    0.5000000000000000    0.4999999999999999 S
   0.8109426450000000    0.0000000000000000    0.0000000000000000 S
   0.8109426450000000    0.0000000000000000    0.5000000000000000 S
   0.8109426449999999    0.5000000000000000    0.0000000000000000 S
   0.8109426449999999    0.5000000000000000    0.5000000000000000 S
   0.0000000000000000    0.3109426450000000    0.0000000000000000 S
   0.0000000000000000    0.3109426450000000    0.5000000000000000 S
   0.0000000000000000    0.8109426450000001    0.0000000000000000 S
   0.0000000000000000    0.8109426450000001    0.5000000000000000 S
   0.5000000000000000    0.3109426450000000    0.0000000000000000 S
   0.5000000000000000    0.3109426450000000    0.5000000000000000 S
   0.5000000000000000    0.8109426450000001    0.0000000000000000 S
   0.5000000000000000    0.8109426450000001    0.5000000000000000 S
