       N       E                     dE             d eps       ncg     rms          rms(c)
DAV:   1     0.623798115563E+01    0.62380E+01   -0.22790E+03   384   0.393E+01
DAV:   2     0.137346581178E+00   -0.61006E+01   -0.61000E+01   320   0.128E+01
DAV:   3     0.629352565269E-01   -0.74411E-01   -0.74411E-01   384   0.126E+00
DAV:   4     0.627023600200E-01   -0.23290E-03   -0.23290E-03   384   0.715E-02
DAV:   5     0.627020212515E-01   -0.33877E-06   -0.33861E-06   384   0.287E-03    0.438E+00
DAV:   6     0.840709865831E+00    0.77801E+00   -0.47348E+00   320   0.158E+00    0.149E+00
DAV:   7    -0.621174456403E-01   -0.90283E+00   -0.81564E-01   256   0.701E-01    0.230E-01
DAV:   8    -0.842924649469E-01   -0.22175E-01   -0.84683E-03   448   0.141E-01    0.126E-01
DAV:   9    -0.143202792635E+00   -0.58910E-01   -0.25828E-02   448   0.135E-01    0.781E-02
DAV:  10    -0.155896471637E+00   -0.12694E-01   -0.65211E-03   384   0.411E-02    0.470E-02
DAV:  11    -0.208688093536E+00   -0.52792E-01   -0.16149E-02   384   0.892E-02    0.234E-02
DAV:  12    -0.214766954960E+00   -0.60789E-02   -0.41907E-04   320   0.961E-03    0.193E-02
DAV:  13    -0.223518160648E+00   -0.87512E-02   -0.11598E-03   256   0.176E-02    0.115E-02
DAV:  14    -0.226265562042E+00   -0.27474E-02   -0.36324E-04   320   0.578E-03    0.778E-03
DAV:  15    -0.227499747495E+00   -0.12342E-02   -0.13806E-04   256   0.485E-03    0.351E-03
DAV:  16    -0.227959823547E+00   -0.46008E-03   -0.33295E-05   256   0.318E-03    0.265E-03
DAV:  17    -0.228212768337E+00   -0.25294E-03   -0.26133E-05   256   0.350E-03    0.166E-03
DAV:  18    -0.228433726683E+00   -0.22096E-03   -0.18851E-05   384   0.190E-03    0.111E-03
DAV:  19    -0.228582318830E+00   -0.14859E-03   -0.17007E-05   256   0.227E-03    0.867E-04
DAV:  20    -0.228632365666E+00   -0.50047E-04   -0.93697E-06   448   0.115E-03    0.420E-04
DAV:  21    -0.228645866497E+00   -0.13501E-04   -0.24687E-06   320   0.778E-04
   1 F= -.22864587E+00 E0= -.22864587E+00  d E =-.100556E-10  mag=     0.9999
