Li90 Ga72
1.0
  12.9421496699999992    0.0000000000000000    0.0000000000000008
  -6.4710808698922211   11.2082269095515734    0.0000000000000008
   0.0000000000000000    0.0000000000000000   16.4388459199999986
Li Ga
90 72
direct
   0.2222222222222222    0.1111111111111111    0.4407327950000001 Li
   0.2222222222222222    0.1111111111111111    0.9407327950000001 Li
   0.2222222222222222    0.4444444444444445    0.4407327950000001 Li
   0.2222222222222222    0.4444444444444445    0.9407327950000001 Li
   0.2222222222222222    0.7777777777777778    0.4407327950000001 Li
   0.2222222222222222    0.7777777777777778    0.9407327950000001 Li
   0.5555555555555555    0.1111111111111111    0.4407327950000001 Li
   0.5555555555555555    0.1111111111111111    0.9407327950000001 Li
   0.5555555555555555    0.4444444444444445    0.4407327950000001 Li
   0.5555555555555555    0.4444444444444445    0.9407327950000001 Li
   0.5555555555555555    0.7777777777777778    0.4407327950000001 Li
   0.5555555555555555    0.7777777777777778    0.9407327950000001 Li
   0.8888888888888888    0.1111111111111111    0.4407327950000001 Li
   0.8888888888888888    0.1111111111111111    0.9407327950000001 Li
   0.8888888888888888    0.4444444444444445    0.4407327950000001 Li
   0.8888888888888888    0.4444444444444445    0.9407327950000001 Li
   0.8888888888888888    0.7777777777777778    0.4407327950000001 Li
   0.8888888888888888    0.7777777777777778    0.9407327950000002 Li
   0.1111111111111111    0.2222222222222222    0.0592672050000000 Li
   0.1111111111111111    0.2222222222222222    0.5592672050000000 Li
   0.1111111111111111    0.5555555555555556    0.0592672050000000 Li
   0.1111111111111111    0.5555555555555556    0.5592672050000000 Li
   0.1111111111111111    0.8888888888888890    0.0592672050000000 Li
   0.1111111111111111    0.8888888888888890    0.5592672050000000 Li
   0.4444444444444444    0.2222222222222222    0.0592672050000000 Li
   0.4444444444444444    0.2222222222222222    0.5592672050000000 Li
   0.4444444444444444    0.5555555555555556    0.0592672050000000 Li
   0.4444444444444444    0.5555555555555556    0.5592672050000000 Li
   0.4444444444444444    0.8888888888888890    0.0592672050000000 Li
   0.4444444444444444    0.8888888888888890    0.5592672050000000 Li
   0.7777777777777778    0.2222222222222222    0.0592672050000000 Li
   0.7777777777777778    0.2222222222222222    0.5592672050000000 Li
   0.7777777777777777    0.5555555555555556    0.0592672050000000 Li
   0.7777777777777777    0.5555555555555556    0.5592672050000000 Li
   0.7777777777777777    0.8888888888888890    0.0592672050000000 Li
   0.7777777777777777    0.8888888888888890    0.5592672050000002 Li
   0.2222222222222222    0.1111111111111111    0.2765673900000001 Li
   0.2222222222222222    0.1111111111111111    0.7765673900000001 Li
   0.2222222222222222    0.4444444444444445    0.2765673900000000 Li
   0.2222222222222222    0.4444444444444445    0.7765673900000001 Li
   0.2222222222222222    0.7777777777777778    0.2765673900000001 Li
   0.2222222222222222    0.7777777777777778    0.7765673900000001 Li
   0.5555555555555555    0.1111111111111111    0.2765673900000000 Li
   0.5555555555555555    0.1111111111111111    0.7765673900000001 Li
   0.5555555555555555    0.4444444444444445    0.2765673900000001 Li
   0.5555555555555555    0.4444444444444445    0.7765673900000001 Li
   0.5555555555555555    0.7777777777777778    0.2765673900000001 Li
   0.5555555555555555    0.7777777777777778    0.7765673900000001 Li
   0.8888888888888888    0.1111111111111111    0.2765673900000001 Li
   0.8888888888888888    0.1111111111111111    0.7765673900000001 Li
   0.8888888888888888    0.4444444444444445    0.2765673900000001 Li
   0.8888888888888888    0.4444444444444445    0.7765673900000001 Li
   0.8888888888888888    0.7777777777777778    0.2765673900000000 Li
   0.8888888888888888    0.7777777777777778    0.7765673900000001 Li
   0.1111111111111111    0.2222222222222222    0.2234326100000000 Li
   0.1111111111111111    0.2222222222222222    0.7234326100000000 Li
   0.1111111111111111    0.5555555555555556    0.2234326100000000 Li
   0.1111111111111111    0.5555555555555556    0.7234326100000000 Li
   0.1111111111111111    0.8888888888888890    0.2234326100000000 Li
   0.1111111111111111    0.8888888888888890    0.7234326100000000 Li
   0.4444444444444444    0.2222222222222222    0.2234326100000000 Li
   0.4444444444444444    0.2222222222222222    0.7234326100000000 Li
   0.4444444444444444    0.5555555555555556    0.2234326100000000 Li
   0.4444444444444444    0.5555555555555556    0.7234326100000000 Li
   0.4444444444444444    0.8888888888888890    0.2234326100000000 Li
   0.4444444444444444    0.8888888888888890    0.7234326100000000 Li
   0.7777777777777778    0.2222222222222222    0.2234326100000000 Li
   0.7777777777777778    0.2222222222222222    0.7234326100000000 Li
   0.7777777777777777    0.5555555555555556    0.2234326100000000 Li
   0.7777777777777777    0.5555555555555556    0.7234326100000000 Li
   0.7777777777777777    0.8888888888888890    0.2234326100000000 Li
   0.7777777777777777    0.8888888888888890    0.7234326100000001 Li
   0.0000000000000000    0.0000000000000000    0.0000000000000000 Li
   0.0000000000000000    0.0000000000000000    0.5000000000000000 Li
   0.0000000000000000    0.3333333333333333    0.0000000000000000 Li
   0.0000000000000000    0.3333333333333333    0.5000000000000000 Li
   0.0000000000000000    0.6666666666666666    0.0000000000000000 Li
   0.0000000000000000    0.6666666666666666    0.5000000000000000 Li
   0.3333333333333333    0.0000000000000000    0.0000000000000000 Li
   0.3333333333333333    0.0000000000000000    0.5000000000000000 Li
   0.3333333333333333    0.3333333333333333    0.0000000000000000 Li
   0.3333333333333333    0.3333333333333333    0.5000000000000000 Li
   0.3333333333333333    0.6666666666666666    0.0000000000000000 Li
   0.3333333333333333    0.6666666666666666    0.5000000000000000 Li
   0.6666666666666666    0.0000000000000000    0.0000000000000000 Li
   0.6666666666666666    0.0000000000000000    0.5000000000000000 Li
   0.6666666666666666    0.3333333333333333    0.0000000000000000 Li
   0.6666666666666666    0.3333333333333333    0.5000000000000000 Li
   0.6666666666666666    0.6666666666666666    0.0000000000000000 Li
   0.6666666666666666    0.6666666666666666    0.5000000000000001 Li
   0.2222222222222222    0.1111111111111111    0.1109585850000000 Ga
   0.2222222222222222    0.1111111111111111    0.6109585850000000 Ga
   0.2222222222222222    0.4444444444444445    0.1109585850000000 Ga
   0.2222222222222222    0.4444444444444445    0.6109585850000000 Ga
   0.2222222222222222    0.7777777777777778    0.1109585850000000 Ga
   0.2222222222222222    0.7777777777777778    0.6109585850000000 Ga
   0.5555555555555555    0.1111111111111111    0.1109585850000000 Ga
   0.5555555555555555    0.1111111111111111    0.6109585850000000 Ga
   0.5555555555555555    0.4444444444444445    0.1109585850000000 Ga
   0.5555555555555555    0.4444444444444445    0.6109585850000000 Ga
   0.5555555555555555    0.7777777777777778    0.1109585850000000 Ga
   0.5555555555555555    0.7777777777777778    0.6109585850000000 Ga
   0.8888888888888888    0.1111111111111111    0.1109585850000000 Ga
   0.8888888888888888    0.1111111111111111    0.6109585850000000 Ga
   0.8888888888888888    0.4444444444444445    0.1109585850000000 Ga
   0.8888888888888888    0.4444444444444445    0.6109585850000000 Ga
   0.8888888888888888    0.7777777777777778    0.1109585850000000 Ga
   0.8888888888888888    0.7777777777777778    0.6109585850000000 Ga
   0.1111111111111111    0.2222222222222222    0.3890414150000000 Ga
   0.1111111111111111    0.2222222222222222    0.8890414150000000 Ga
   0.1111111111111111    0.5555555555555556    0.3890414150000000 Ga
   0.1111111111111111    0.5555555555555556    0.8890414150000000 Ga
   0.1111111111111111    0.8888888888888890    0.3890414150000001 Ga
   0.1111111111111111    0.8888888888888890    0.8890414150000000 Ga
   0.4444444444444444    0.2222222222222222    0.3890414150000000 Ga
   0.4444444444444444    0.2222222222222222    0.8890414150000000 Ga
   0.4444444444444444    0.5555555555555556    0.3890414150000001 Ga
   0.4444444444444444    0.5555555555555556    0.8890414150000000 Ga
   0.4444444444444444    0.8888888888888890    0.3890414150000000 Ga
   0.4444444444444444    0.8888888888888890    0.8890414150000000 Ga
   0.7777777777777778    0.2222222222222222    0.3890414150000001 Ga
   0.7777777777777778    0.2222222222222222    0.8890414150000000 Ga
   0.7777777777777777    0.5555555555555556    0.3890414150000000 Ga
   0.7777777777777777    0.5555555555555556    0.8890414150000000 Ga
   0.7777777777777777    0.8888888888888890    0.3890414150000000 Ga
   0.7777777777777777    0.8888888888888890    0.8890414150000001 Ga
   0.0000000000000000    0.0000000000000000    0.3333333333333334 Ga
   0.0000000000000000    0.0000000000000000    0.8333333333333334 Ga
   0.0000000000000000    0.3333333333333333    0.3333333333333333 Ga
   0.0000000000000000    0.3333333333333333    0.8333333333333334 Ga
   0.0000000000000000    0.6666666666666666    0.3333333333333334 Ga
   0.0000000000000000    0.6666666666666666    0.8333333333333334 Ga
   0.3333333333333333    0.0000000000000000    0.3333333333333333 Ga
   0.3333333333333333    0.0000000000000000    0.8333333333333334 Ga
   0.3333333333333333    0.3333333333333333    0.3333333333333334 Ga
   0.3333333333333333    0.3333333333333333    0.8333333333333334 Ga
   0.3333333333333333    0.6666666666666666    0.3333333333333334 Ga
   0.3333333333333333    0.6666666666666666    0.8333333333333334 Ga
   0.6666666666666666    0.0000000000000000    0.3333333333333334 Ga
   0.6666666666666666    0.0000000000000000    0.8333333333333334 Ga
   0.6666666666666666    0.3333333333333333    0.3333333333333334 Ga
   0.6666666666666666    0.3333333333333333    0.8333333333333334 Ga
   0.6666666666666666    0.6666666666666666    0.3333333333333333 Ga
   0.6666666666666666    0.6666666666666666    0.8333333333333334 Ga
   0.0000000000000000    0.0000000000000000    0.1666991600000000 Ga
   0.0000000000000000    0.0000000000000000    0.6666991600000001 Ga
   0.0000000000000000    0.3333333333333333    0.1666991600000000 Ga
   0.0000000000000000    0.3333333333333333    0.6666991600000001 Ga
   0.0000000000000000    0.6666666666666666    0.1666991600000000 Ga
   0.0000000000000000    0.6666666666666666    0.6666991600000001 Ga
   0.3333333333333333    0.0000000000000000    0.1666991600000000 Ga
   0.3333333333333333    0.0000000000000000    0.6666991600000001 Ga
   0.3333333333333333    0.3333333333333333    0.1666991600000000 Ga
   0.3333333333333333    0.3333333333333333    0.6666991600000001 Ga
   0.3333333333333333    0.6666666666666666    0.1666991600000000 Ga
   0.3333333333333333    0.6666666666666666    0.6666991600000001 Ga
   0.6666666666666666    0.0000000000000000    0.1666991600000000 Ga
   0.6666666666666666    0.0000000000000000    0.6666991600000001 Ga
   0.6666666666666666    0.3333333333333333    0.1666991600000000 Ga
   0.6666666666666666    0.3333333333333333    0.6666991600000001 Ga
   0.6666666666666666    0.6666666666666666    0.1666991600000000 Ga
   0.6666666666666666    0.6666666666666666    0.6666991600000001 Ga
