   1   1   1   0
  0.3375000E+04  0.1500000E-08  0.1500000E-08  0.1500000E-08  0.5000000E-15
  1.000000000000000E-004
  CAR 
 unknown system                          
      4.53325677    -14.16263331  301     -5.12239146      1.00000000
    -14.163  0.0000E+00  0.0000E+00  0.0000E+00  0.0000E+00
    -14.100  0.0000E+00  0.0000E+00  0.0000E+00  0.0000E+00
    -14.038  0.0000E+00  0.0000E+00  0.0000E+00  0.0000E+00
    -13.976  0.0000E+00  0.0000E+00  0.0000E+00  0.0000E+00
    -13.913  0.0000E+00  0.0000E+00  0.0000E+00  0.0000E+00
    -13.851  0.0000E+00  0.0000E+00  0.0000E+00  0.0000E+00
    -13.789  0.0000E+00  0.0000E+00  0.0000E+00  0.0000E+00
    -13.726  0.0000E+00  0.0000E+00  0.0000E+00  0.0000E+00
    -13.664  0.0000E+00  0.0000E+00  0.0000E+00  0.0000E+00
    -13.602  0.2672E-14  0.0000E+00  0.1665E-15  0.0000E+00
    -13.539  0.1170E-08  0.0000E+00  0.7291E-10  0.0000E+00
    -13.477  0.2702E-04  0.0000E+00  0.1684E-05  0.0000E+00
    -13.415  0.3144E-01  0.0000E+00  0.1961E-02  0.0000E+00
    -13.352  0.2071E+01  0.0000E+00  0.1310E+00  0.0000E+00
    -13.290  0.9760E+01  0.0000E+00  0.7392E+00  0.0000E+00
    -13.228  0.4054E+01  0.0000E+00  0.9919E+00  0.0000E+00
    -13.166  0.1300E+00  0.0000E+00  0.1000E+01  0.0000E+00
    -13.103  0.2484E-03  0.0000E+00  0.1000E+01  0.0000E+00
    -13.041  0.2446E-07  0.0000E+00  0.1000E+01  0.0000E+00
    -12.979  0.1176E-12  0.0000E+00  0.1000E+01  0.0000E+00
    -12.916  0.0000E+00  0.0000E+00  0.1000E+01  0.0000E+00
    -12.854  0.0000E+00  0.0000E+00  0.1000E+01  0.0000E+00
    -12.792  0.0000E+00  0.0000E+00  0.1000E+01  0.0000E+00
    -12.729  0.0000E+00  0.0000E+00  0.1000E+01  0.0000E+00
    -12.667  0.0000E+00  0.0000E+00  0.1000E+01  0.0000E+00
    -12.605  0.0000E+00  0.0000E+00  0.1000E+01  0.0000E+00
    -12.542  0.0000E+00  0.0000E+00  0.1000E+01  0.0000E+00
    -12.480  0.0000E+00  0.0000E+00  0.1000E+01  0.0000E+00
    -12.418  0.0000E+00  0.0000E+00  0.1000E+01  0.0000E+00
    -12.355  0.0000E+00  0.0000E+00  0.1000E+01  0.0000E+00
    -12.293  0.0000E+00  0.0000E+00  0.1000E+01  0.0000E+00
    -12.231  0.0000E+00  0.0000E+00  0.1000E+01  0.0000E+00
    -12.168  0.0000E+00  0.0000E+00  0.1000E+01  0.0000E+00
    -12.106  0.0000E+00  0.0000E+00  0.1000E+01  0.0000E+00
    -12.044  0.0000E+00  0.0000E+00  0.1000E+01  0.0000E+00
    -11.981  0.0000E+00  0.0000E+00  0.1000E+01  0.0000E+00
    -11.919  0.0000E+00  0.0000E+00  0.1000E+01  0.0000E+00
    -11.857  0.0000E+00  0.0000E+00  0.1000E+01  0.0000E+00
    -11.794  0.0000E+00  0.3563E-14  0.1000E+01  0.2220E-15
    -11.732  0.0000E+00  0.1699E-08  0.1000E+01  0.1059E-09
    -11.670  0.0000E+00  0.3558E-04  0.1000E+01  0.2218E-05
    -11.608  0.0000E+00  0.3764E-01  0.1000E+01  0.2348E-02
    -11.545  0.0000E+00  0.2266E+01  0.1000E+01  0.1435E+00
    -11.483  0.0000E+00  0.9851E+01  0.1000E+01  0.7575E+00
    -11.421  0.0000E+00  0.3781E+01  0.1000E+01  0.9931E+00
    -11.358  0.0000E+00  0.1110E+00  0.1000E+01  0.1000E+01
    -11.296  0.0000E+00  0.1930E-03  0.1000E+01  0.1000E+01
    -11.234  0.0000E+00  0.1724E-07  0.1000E+01  0.1000E+01
    -11.171  0.0000E+00  0.7482E-13  0.1000E+01  0.1000E+01
    -11.109  0.0000E+00  0.0000E+00  0.1000E+01  0.1000E+01
    -11.047  0.0000E+00  0.0000E+00  0.1000E+01  0.1000E+01
    -10.984  0.0000E+00  0.0000E+00  0.1000E+01  0.1000E+01
    -10.922  0.0000E+00  0.0000E+00  0.1000E+01  0.1000E+01
    -10.860  0.0000E+00  0.0000E+00  0.1000E+01  0.1000E+01
    -10.797  0.0000E+00  0.0000E+00  0.1000E+01  0.1000E+01
    -10.735  0.0000E+00  0.0000E+00  0.1000E+01  0.1000E+01
    -10.673  0.0000E+00  0.0000E+00  0.1000E+01  0.1000E+01
    -10.610  0.0000E+00  0.0000E+00  0.1000E+01  0.1000E+01
    -10.548  0.0000E+00  0.0000E+00  0.1000E+01  0.1000E+01
    -10.486  0.0000E+00  0.0000E+00  0.1000E+01  0.1000E+01
    -10.423  0.0000E+00  0.0000E+00  0.1000E+01  0.1000E+01
    -10.361  0.0000E+00  0.0000E+00  0.1000E+01  0.1000E+01
    -10.299  0.0000E+00  0.0000E+00  0.1000E+01  0.1000E+01
    -10.236  0.0000E+00  0.0000E+00  0.1000E+01  0.1000E+01
    -10.174  0.0000E+00  0.0000E+00  0.1000E+01  0.1000E+01
    -10.112  0.0000E+00  0.0000E+00  0.1000E+01  0.1000E+01
    -10.050  0.0000E+00  0.0000E+00  0.1000E+01  0.1000E+01
     -9.987  0.0000E+00  0.0000E+00  0.1000E+01  0.1000E+01
     -9.925  0.0000E+00  0.0000E+00  0.1000E+01  0.1000E+01
     -9.863  0.0000E+00  0.0000E+00  0.1000E+01  0.1000E+01
     -9.800  0.0000E+00  0.0000E+00  0.1000E+01  0.1000E+01
     -9.738  0.0000E+00  0.0000E+00  0.1000E+01  0.1000E+01
     -9.676  0.0000E+00  0.0000E+00  0.1000E+01  0.1000E+01
     -9.613  0.0000E+00  0.0000E+00  0.1000E+01  0.1000E+01
     -9.551  0.0000E+00  0.0000E+00  0.1000E+01  0.1000E+01
     -9.489  0.0000E+00  0.0000E+00  0.1000E+01  0.1000E+01
     -9.426  0.0000E+00  0.0000E+00  0.1000E+01  0.1000E+01
     -9.364  0.0000E+00  0.0000E+00  0.1000E+01  0.1000E+01
     -9.302  0.0000E+00  0.0000E+00  0.1000E+01  0.1000E+01
     -9.239  0.0000E+00  0.0000E+00  0.1000E+01  0.1000E+01
     -9.177  0.0000E+00  0.0000E+00  0.1000E+01  0.1000E+01
     -9.115  0.0000E+00  0.0000E+00  0.1000E+01  0.1000E+01
     -9.052  0.0000E+00  0.0000E+00  0.1000E+01  0.1000E+01
     -8.990  0.0000E+00  0.0000E+00  0.1000E+01  0.1000E+01
     -8.928  0.0000E+00  0.0000E+00  0.1000E+01  0.1000E+01
     -8.865  0.0000E+00  0.0000E+00  0.1000E+01  0.1000E+01
     -8.803  0.0000E+00  0.0000E+00  0.1000E+01  0.1000E+01
     -8.741  0.0000E+00  0.0000E+00  0.1000E+01  0.1000E+01
     -8.679  0.0000E+00  0.0000E+00  0.1000E+01  0.1000E+01
     -8.616  0.0000E+00  0.0000E+00  0.1000E+01  0.1000E+01
     -8.554  0.0000E+00  0.0000E+00  0.1000E+01  0.1000E+01
     -8.492  0.0000E+00  0.0000E+00  0.1000E+01  0.1000E+01
     -8.429  0.0000E+00  0.0000E+00  0.1000E+01  0.1000E+01
     -8.367  0.0000E+00  0.0000E+00  0.1000E+01  0.1000E+01
     -8.305  0.0000E+00  0.0000E+00  0.1000E+01  0.1000E+01
     -8.242  0.0000E+00  0.0000E+00  0.1000E+01  0.1000E+01
     -8.180  0.0000E+00  0.0000E+00  0.1000E+01  0.1000E+01
     -8.118  0.0000E+00  0.0000E+00  0.1000E+01  0.1000E+01
     -8.055  0.0000E+00  0.0000E+00  0.1000E+01  0.1000E+01
     -7.993  0.0000E+00  0.0000E+00  0.1000E+01  0.1000E+01
     -7.931  0.0000E+00  0.0000E+00  0.1000E+01  0.1000E+01
     -7.868  0.0000E+00  0.0000E+00  0.1000E+01  0.1000E+01
     -7.806  0.0000E+00  0.0000E+00  0.1000E+01  0.1000E+01
     -7.744  0.0000E+00  0.0000E+00  0.1000E+01  0.1000E+01
     -7.681  0.0000E+00  0.0000E+00  0.1000E+01  0.1000E+01
     -7.619  0.0000E+00  0.0000E+00  0.1000E+01  0.1000E+01
     -7.557  0.0000E+00  0.0000E+00  0.1000E+01  0.1000E+01
     -7.494  0.0000E+00  0.0000E+00  0.1000E+01  0.1000E+01
     -7.432  0.0000E+00  0.0000E+00  0.1000E+01  0.1000E+01
     -7.370  0.0000E+00  0.0000E+00  0.1000E+01  0.1000E+01
     -7.307  0.0000E+00  0.0000E+00  0.1000E+01  0.1000E+01
     -7.245  0.0000E+00  0.0000E+00  0.1000E+01  0.1000E+01
     -7.183  0.0000E+00  0.0000E+00  0.1000E+01  0.1000E+01
     -7.121  0.0000E+00  0.0000E+00  0.1000E+01  0.1000E+01
     -7.058  0.0000E+00  0.0000E+00  0.1000E+01  0.1000E+01
     -6.996  0.0000E+00  0.0000E+00  0.1000E+01  0.1000E+01
     -6.934  0.0000E+00  0.0000E+00  0.1000E+01  0.1000E+01
     -6.871  0.0000E+00  0.0000E+00  0.1000E+01  0.1000E+01
     -6.809  0.0000E+00  0.0000E+00  0.1000E+01  0.1000E+01
     -6.747  0.0000E+00  0.0000E+00  0.1000E+01  0.1000E+01
     -6.684  0.0000E+00  0.0000E+00  0.1000E+01  0.1000E+01
     -6.622  0.0000E+00  0.0000E+00  0.1000E+01  0.1000E+01
     -6.560  0.0000E+00  0.0000E+00  0.1000E+01  0.1000E+01
     -6.497  0.0000E+00  0.0000E+00  0.1000E+01  0.1000E+01
     -6.435  0.0000E+00  0.0000E+00  0.1000E+01  0.1000E+01
     -6.373  0.0000E+00  0.0000E+00  0.1000E+01  0.1000E+01
     -6.310  0.0000E+00  0.0000E+00  0.1000E+01  0.1000E+01
     -6.248  0.0000E+00  0.0000E+00  0.1000E+01  0.1000E+01
     -6.186  0.0000E+00  0.0000E+00  0.1000E+01  0.1000E+01
     -6.123  0.0000E+00  0.0000E+00  0.1000E+01  0.1000E+01
     -6.061  0.0000E+00  0.0000E+00  0.1000E+01  0.1000E+01
     -5.999  0.0000E+00  0.0000E+00  0.1000E+01  0.1000E+01
     -5.936  0.0000E+00  0.0000E+00  0.1000E+01  0.1000E+01
     -5.874  0.0000E+00  0.0000E+00  0.1000E+01  0.1000E+01
     -5.812  0.0000E+00  0.0000E+00  0.1000E+01  0.1000E+01
     -5.749  0.0000E+00  0.0000E+00  0.1000E+01  0.1000E+01
     -5.687  0.0000E+00  0.0000E+00  0.1000E+01  0.1000E+01
     -5.625  0.7830E-12  0.0000E+00  0.1000E+01  0.1000E+01
     -5.563  0.1374E-06  0.0000E+00  0.1000E+01  0.1000E+01
     -5.500  0.1169E-02  0.0000E+00  0.1000E+01  0.1000E+01
     -5.438  0.5154E+00  0.0000E+00  0.1032E+01  0.1000E+01
     -5.376  0.1371E+02  0.0000E+00  0.1887E+01  0.1000E+01
     -5.313  0.2861E+02  0.0000E+00  0.3669E+01  0.1000E+01
     -5.251  0.5237E+01  0.0000E+00  0.3996E+01  0.1000E+01
     -5.189  0.6749E-01  0.0000E+00  0.4000E+01  0.1000E+01
     -5.126  0.4875E-04  0.0000E+00  0.4000E+01  0.1000E+01
     -5.064  0.1767E-08  0.0000E+00  0.4000E+01  0.1000E+01
     -5.002  0.0000E+00  0.0000E+00  0.4000E+01  0.1000E+01
     -4.939  0.0000E+00  0.0000E+00  0.4000E+01  0.1000E+01
     -4.877  0.0000E+00  0.0000E+00  0.4000E+01  0.1000E+01
     -4.815  0.0000E+00  0.0000E+00  0.4000E+01  0.1000E+01
     -4.752  0.0000E+00  0.0000E+00  0.4000E+01  0.1000E+01
     -4.690  0.0000E+00  0.0000E+00  0.4000E+01  0.1000E+01
     -4.628  0.0000E+00  0.0000E+00  0.4000E+01  0.1000E+01
     -4.565  0.0000E+00  0.0000E+00  0.4000E+01  0.1000E+01
     -4.503  0.0000E+00  0.0000E+00  0.4000E+01  0.1000E+01
     -4.441  0.0000E+00  0.0000E+00  0.4000E+01  0.1000E+01
     -4.378  0.0000E+00  0.0000E+00  0.4000E+01  0.1000E+01
     -4.316  0.0000E+00  0.0000E+00  0.4000E+01  0.1000E+01
     -4.254  0.0000E+00  0.0000E+00  0.4000E+01  0.1000E+01
     -4.191  0.0000E+00  0.0000E+00  0.4000E+01  0.1000E+01
     -4.129  0.0000E+00  0.0000E+00  0.4000E+01  0.1000E+01
     -4.067  0.0000E+00  0.0000E+00  0.4000E+01  0.1000E+01
     -4.005  0.0000E+00  0.0000E+00  0.4000E+01  0.1000E+01
     -3.942  0.0000E+00  0.0000E+00  0.4000E+01  0.1000E+01
     -3.880  0.0000E+00  0.0000E+00  0.4000E+01  0.1000E+01
     -3.818  0.0000E+00  0.0000E+00  0.4000E+01  0.1000E+01
     -3.755  0.0000E+00  0.0000E+00  0.4000E+01  0.1000E+01
     -3.693  0.0000E+00  0.2394E-10  0.4000E+01  0.1000E+01
     -3.631  0.0000E+00  0.1910E-05  0.4000E+01  0.1000E+01
     -3.568  0.0000E+00  0.7485E-02  0.4000E+01  0.1000E+01
     -3.506  0.0000E+00  0.1564E+01  0.4000E+01  0.1098E+01
     -3.444  0.0000E+00  0.2095E+02  0.4000E+01  0.2404E+01
     -3.381  0.0000E+00  0.2339E+02  0.4000E+01  0.3861E+01
     -3.319  0.0000E+00  0.2214E+01  0.4000E+01  0.3999E+01
     -3.257  0.0000E+00  0.1375E-01  0.4000E+01  0.4000E+01
     -3.194  0.0000E+00  0.4609E-05  0.4000E+01  0.4000E+01
     -3.132  0.0000E+00  0.7626E-10  0.4000E+01  0.4000E+01
     -3.070  0.0000E+00  0.0000E+00  0.4000E+01  0.4000E+01
     -3.007  0.0000E+00  0.0000E+00  0.4000E+01  0.4000E+01
     -2.945  0.0000E+00  0.0000E+00  0.4000E+01  0.4000E+01
     -2.883  0.0000E+00  0.0000E+00  0.4000E+01  0.4000E+01
     -2.820  0.0000E+00  0.0000E+00  0.4000E+01  0.4000E+01
     -2.758  0.0000E+00  0.0000E+00  0.4000E+01  0.4000E+01
     -2.696  0.0000E+00  0.0000E+00  0.4000E+01  0.4000E+01
     -2.634  0.0000E+00  0.0000E+00  0.4000E+01  0.4000E+01
     -2.571  0.0000E+00  0.0000E+00  0.4000E+01  0.4000E+01
     -2.509  0.0000E+00  0.0000E+00  0.4000E+01  0.4000E+01
     -2.447  0.0000E+00  0.0000E+00  0.4000E+01  0.4000E+01
     -2.384  0.0000E+00  0.0000E+00  0.4000E+01  0.4000E+01
     -2.322  0.0000E+00  0.0000E+00  0.4000E+01  0.4000E+01
     -2.260  0.0000E+00  0.0000E+00  0.4000E+01  0.4000E+01
     -2.197  0.0000E+00  0.0000E+00  0.4000E+01  0.4000E+01
     -2.135  0.0000E+00  0.0000E+00  0.4000E+01  0.4000E+01
     -2.073  0.0000E+00  0.0000E+00  0.4000E+01  0.4000E+01
     -2.010  0.0000E+00  0.0000E+00  0.4000E+01  0.4000E+01
     -1.948  0.0000E+00  0.0000E+00  0.4000E+01  0.4000E+01
     -1.886  0.0000E+00  0.0000E+00  0.4000E+01  0.4000E+01
     -1.823  0.0000E+00  0.0000E+00  0.4000E+01  0.4000E+01
     -1.761  0.0000E+00  0.0000E+00  0.4000E+01  0.4000E+01
     -1.699  0.0000E+00  0.0000E+00  0.4000E+01  0.4000E+01
     -1.636  0.0000E+00  0.0000E+00  0.4000E+01  0.4000E+01
     -1.574  0.0000E+00  0.0000E+00  0.4000E+01  0.4000E+01
     -1.512  0.0000E+00  0.0000E+00  0.4000E+01  0.4000E+01
     -1.449  0.0000E+00  0.0000E+00  0.4000E+01  0.4000E+01
     -1.387  0.0000E+00  0.0000E+00  0.4000E+01  0.4000E+01
     -1.325  0.0000E+00  0.0000E+00  0.4000E+01  0.4000E+01
     -1.262  0.0000E+00  0.0000E+00  0.4000E+01  0.4000E+01
     -1.200  0.0000E+00  0.0000E+00  0.4000E+01  0.4000E+01
     -1.138  0.0000E+00  0.0000E+00  0.4000E+01  0.4000E+01
     -1.076  0.0000E+00  0.0000E+00  0.4000E+01  0.4000E+01
     -1.013  0.0000E+00  0.0000E+00  0.4000E+01  0.4000E+01
     -0.951  0.0000E+00  0.0000E+00  0.4000E+01  0.4000E+01
     -0.889  0.0000E+00  0.0000E+00  0.4000E+01  0.4000E+01
     -0.826  0.1781E-14  0.0000E+00  0.4000E+01  0.4000E+01
     -0.764  0.8182E-09  0.0000E+00  0.4000E+01  0.4000E+01
     -0.702  0.2074E-04  0.0000E+00  0.4000E+01  0.4000E+01
     -0.639  0.2643E-01  0.0000E+00  0.4002E+01  0.4000E+01
     -0.577  0.1896E+01  0.0000E+00  0.4120E+01  0.4000E+01
     -0.515  0.9652E+01  0.0000E+00  0.4721E+01  0.4000E+01
     -0.452  0.4321E+01  0.0000E+00  0.4991E+01  0.4000E+01
     -0.390  0.1506E+00  0.0000E+00  0.5000E+01  0.4000E+01
     -0.328  0.3147E-03  0.0000E+00  0.5000E+01  0.4000E+01
     -0.265  0.3399E-07  0.2543E-09  0.5000E+01  0.4000E+01
     -0.203  0.1781E-12  0.8694E-05  0.5000E+01  0.4000E+01
     -0.141  0.0000E+00  0.1484E-01  0.5000E+01  0.4001E+01
     -0.078  0.0000E+00  0.1404E+01  0.5000E+01  0.4088E+01
     -0.016  0.8017E-14  0.9170E+01  0.5000E+01  0.4660E+01
      0.046  0.3121E-08  0.5219E+01  0.5000E+01  0.4985E+01
      0.109  0.5563E-04  0.2371E+00  0.5000E+01  0.5000E+01
      0.171  0.5029E-01  0.6604E-03  0.5003E+01  0.5000E+01
      0.233  0.2612E+01  0.9601E-07  0.5166E+01  0.5000E+01
      0.296  0.9949E+01  0.6823E-12  0.5786E+01  0.5000E+01
      0.358  0.3593E+01  0.8062E-09  0.6010E+01  0.5000E+01
      0.420  0.9923E+01  0.2051E-04  0.6628E+01  0.5000E+01
      0.482  0.3187E+02  0.2624E-01  0.8614E+01  0.5002E+01
      0.545  0.2498E+02  0.1889E+01  0.1017E+02  0.5119E+01
      0.607  0.1256E+02  0.9775E+01  0.1095E+02  0.5729E+01
      0.669  0.7433E+00  0.1245E+02  0.1100E+02  0.6504E+01
      0.732  0.2737E+00  0.4368E+02  0.1102E+02  0.9227E+01
      0.794  0.1033E+02  0.2663E+02  0.1166E+02  0.1089E+02
      0.856  0.2980E+02  0.1812E+01  0.1352E+02  0.1100E+02
      0.919  0.7600E+01  0.9995E-02  0.1399E+02  0.1100E+02
      0.981  0.5437E+00  0.3271E-05  0.1403E+02  0.1100E+02
      1.043  0.1476E+02  0.1408E-06  0.1494E+02  0.1100E+02
      1.106  0.5085E+02  0.1189E-02  0.1811E+02  0.1100E+02
      1.168  0.2691E+02  0.5210E+00  0.1979E+02  0.1103E+02
      1.230  0.3302E+01  0.1379E+02  0.2000E+02  0.1189E+02
      1.293  0.1165E+01  0.3073E+02  0.2007E+02  0.1381E+02
      1.355  0.1857E+02  0.3171E+02  0.2123E+02  0.1578E+02
      1.417  0.2543E+02  0.6633E+02  0.2281E+02  0.1992E+02
      1.480  0.2995E+01  0.4519E+02  0.2300E+02  0.2273E+02
      1.542  0.2443E-01  0.4254E+01  0.2300E+02  0.2300E+02
      1.604  0.3970E+00  0.2919E-01  0.2302E+02  0.2300E+02
      1.667  0.1291E+02  0.1106E-04  0.2383E+02  0.2300E+02
      1.729  0.4130E+02  0.1006E-06  0.2640E+02  0.2300E+02
      1.791  0.2358E+02  0.9332E-03  0.2787E+02  0.2300E+02
      1.854  0.1100E+02  0.4488E+00  0.2856E+02  0.2303E+02
      1.916  0.3578E+02  0.1307E+02  0.3079E+02  0.2384E+02
      1.978  0.2829E+02  0.3331E+02  0.3255E+02  0.2592E+02
      2.040  0.6989E+01  0.2176E+02  0.3299E+02  0.2727E+02
      2.103  0.2236E+00  0.3288E+02  0.3300E+02  0.2932E+02
      2.165  0.5024E-03  0.2130E+02  0.3300E+02  0.3065E+02
      2.227  0.6549E-07  0.5395E+01  0.3300E+02  0.3099E+02
      2.290  0.7775E-04  0.1646E+01  0.3300E+02  0.3109E+02
      2.352  0.9310E-01  0.1545E+02  0.3301E+02  0.3205E+02
      2.414  0.6714E+01  0.1412E+02  0.3342E+02  0.3293E+02
      2.477  0.4376E+02  0.1077E+01  0.3615E+02  0.3300E+02
      2.539  0.4047E+02  0.5280E-02  0.3867E+02  0.3300E+02
      2.601  0.5327E+01  0.4716E-02  0.3901E+02  0.3300E+02
      2.664  0.4325E+01  0.1195E+01  0.3928E+02  0.3307E+02
      2.726  0.9740E+01  0.1935E+02  0.3988E+02  0.3428E+02
      2.788  0.6132E+01  0.3055E+02  0.4026E+02  0.3618E+02
      2.851  0.1967E+02  0.1240E+02  0.4149E+02  0.3696E+02
      2.913  0.1410E+02  0.1599E+02  0.4237E+02  0.3795E+02
      2.975  0.2946E+02  0.2831E+02  0.4420E+02  0.3972E+02
      3.038  0.1276E+02  0.1218E+02  0.4500E+02  0.4048E+02
      3.100  0.1274E+02  0.1978E+02  0.4579E+02  0.4171E+02
      3.162  0.2922E+02  0.4612E+01  0.4761E+02  0.4200E+02
      3.225  0.7824E+01  0.3566E+01  0.4810E+02  0.4222E+02
      3.287  0.3906E+02  0.3014E+02  0.5054E+02  0.4410E+02
      3.349  0.7707E+02  0.5122E+02  0.5534E+02  0.4729E+02
      3.412  0.4748E+02  0.6537E+02  0.5830E+02  0.5136E+02
      3.474  0.5266E+02  0.9827E+02  0.6158E+02  0.5749E+02
      3.536  0.3330E+02  0.4064E+02  0.6365E+02  0.6002E+02
      3.598  0.5469E+01  0.1136E+02  0.6400E+02  0.6073E+02
      3.661  0.7316E-01  0.1674E+02  0.6400E+02  0.6177E+02
      3.723  0.5608E-04  0.2945E+02  0.6400E+02  0.6361E+02
      3.785  0.2190E-08  0.6212E+01  0.6400E+02  0.6399E+02
      3.848  0.3563E-14  0.9432E-01  0.6400E+02  0.6400E+02
      3.910  0.0000E+00  0.8105E-04  0.6400E+02  0.6400E+02
      3.972  0.0000E+00  0.3510E-08  0.6400E+02  0.6400E+02
      4.035  0.0000E+00  0.1069E-13  0.6400E+02  0.6400E+02
      4.097  0.0000E+00  0.0000E+00  0.6400E+02  0.6400E+02
      4.159  0.0000E+00  0.0000E+00  0.6400E+02  0.6400E+02
      4.222  0.0000E+00  0.0000E+00  0.6400E+02  0.6400E+02
      4.284  0.0000E+00  0.0000E+00  0.6400E+02  0.6400E+02
      4.346  0.0000E+00  0.0000E+00  0.6400E+02  0.6400E+02
      4.409  0.0000E+00  0.0000E+00  0.6400E+02  0.6400E+02
      4.471  0.0000E+00  0.0000E+00  0.6400E+02  0.6400E+02
      4.533  0.0000E+00  0.0000E+00  0.6400E+02  0.6400E+02
      4.53325677    -14.16263331  301     -5.12239146      1.00000000
    -14.163  0.0000E+00  0.0000E+00  0.0000E+00  0.0000E+00  0.0000E+00  0.0000E+00  0.0000E+00  0.0000E+00  0.0000E+00  0.0000E+00  0.0000E+00  0.0000E+00  0.0000E+00  0.0000E+00  0.0000E+00  0.0000E+00  0.0000E+00  0.0000E+00
    -14.100  0.0000E+00  0.0000E+00  0.0000E+00  0.0000E+00  0.0000E+00  0.0000E+00  0.0000E+00  0.0000E+00  0.0000E+00  0.0000E+00  0.0000E+00  0.0000E+00  0.0000E+00  0.0000E+00  0.0000E+00  0.0000E+00  0.0000E+00  0.0000E+00
    -14.038  0.0000E+00  0.0000E+00  0.0000E+00  0.0000E+00  0.0000E+00  0.0000E+00  0.0000E+00  0.0000E+00  0.0000E+00  0.0000E+00  0.0000E+00  0.0000E+00  0.0000E+00  0.0000E+00  0.0000E+00  0.0000E+00  0.0000E+00  0.0000E+00
    -13.976  0.0000E+00  0.0000E+00  0.0000E+00  0.0000E+00  0.0000E+00  0.0000E+00  0.0000E+00  0.0000E+00  0.0000E+00  0.0000E+00  0.0000E+00  0.0000E+00  0.0000E+00  0.0000E+00  0.0000E+00  0.0000E+00  0.0000E+00  0.0000E+00
    -13.913  0.0000E+00  0.0000E+00  0.0000E+00  0.0000E+00  0.0000E+00  0.0000E+00  0.0000E+00  0.0000E+00  0.0000E+00  0.0000E+00  0.0000E+00  0.0000E+00  0.0000E+00  0.0000E+00  0.0000E+00  0.0000E+00  0.0000E+00  0.0000E+00
    -13.851  0.0000E+00  0.0000E+00  0.0000E+00  0.0000E+00  0.0000E+00  0.0000E+00  0.0000E+00  0.0000E+00  0.0000E+00  0.0000E+00  0.0000E+00  0.0000E+00  0.0000E+00  0.0000E+00  0.0000E+00  0.0000E+00  0.0000E+00  0.0000E+00
    -13.789  0.0000E+00  0.0000E+00  0.0000E+00  0.0000E+00  0.0000E+00  0.0000E+00  0.0000E+00  0.0000E+00  0.0000E+00  0.0000E+00  0.0000E+00  0.0000E+00  0.0000E+00  0.0000E+00  0.0000E+00  0.0000E+00  0.0000E+00  0.0000E+00
    -13.726  0.0000E+00  0.0000E+00  0.0000E+00  0.0000E+00  0.0000E+00  0.0000E+00  0.0000E+00  0.0000E+00  0.0000E+00  0.0000E+00  0.0000E+00  0.0000E+00  0.0000E+00  0.0000E+00  0.0000E+00  0.0000E+00  0.0000E+00  0.0000E+00
    -13.664  0.0000E+00  0.0000E+00  0.0000E+00  0.0000E+00  0.0000E+00  0.0000E+00  0.0000E+00  0.0000E+00  0.0000E+00  0.0000E+00  0.0000E+00  0.0000E+00  0.0000E+00  0.0000E+00  0.0000E+00  0.0000E+00  0.0000E+00  0.0000E+00
    -13.602  0.1650E-14  0.0000E+00  0.9767E-39  0.0000E+00  0.9767E-39  0.0000E+00  0.9767E-39  0.0000E+00  0.4248E-40  0.0000E+00  0.4248E-40  0.0000E+00  0.6524E-40  0.0000E+00  0.4248E-40  0.0000E+00  0.6524E-40  0.0000E+00
    -13.539  0.7223E-09  0.0000E+00  0.4276E-33  0.0000E+00  0.4276E-33  0.0000E+00  0.4276E-33  0.0000E+00  0.1860E-34  0.0000E+00  0.1860E-34  0.0000E+00  0.2856E-34  0.0000E+00  0.1860E-34  0.0000E+00  0.2856E-34  0.0000E+00
    -13.477  0.1668E-04  0.0000E+00  0.9874E-29  0.0000E+00  0.9874E-29  0.0000E+00  0.9874E-29  0.0000E+00  0.4295E-30  0.0000E+00  0.4295E-30  0.0000E+00  0.6596E-30  0.0000E+00  0.4295E-30  0.0000E+00  0.6596E-30  0.0000E+00
    -13.415  0.1941E-01  0.0000E+00  0.1149E-25  0.0000E+00  0.1149E-25  0.0000E+00  0.1149E-25  0.0000E+00  0.4998E-27  0.0000E+00  0.4998E-27  0.0000E+00  0.7676E-27  0.0000E+00  0.4998E-27  0.0000E+00  0.7676E-27  0.0000E+00
    -13.352  0.1278E+01  0.0000E+00  0.7567E-24  0.0000E+00  0.7567E-24  0.0000E+00  0.7567E-24  0.0000E+00  0.3292E-25  0.0000E+00  0.3292E-25  0.0000E+00  0.5055E-25  0.0000E+00  0.3292E-25  0.0000E+00  0.5055E-25  0.0000E+00
    -13.290  0.6026E+01  0.0000E+00  0.3567E-23  0.0000E+00  0.3567E-23  0.0000E+00  0.3567E-23  0.0000E+00  0.1552E-24  0.0000E+00  0.1552E-24  0.0000E+00  0.2383E-24  0.0000E+00  0.1552E-24  0.0000E+00  0.2383E-24  0.0000E+00
    -13.228  0.2503E+01  0.0000E+00  0.1482E-23  0.0000E+00  0.1482E-23  0.0000E+00  0.1482E-23  0.0000E+00  0.6445E-25  0.0000E+00  0.6445E-25  0.0000E+00  0.9898E-25  0.0000E+00  0.6445E-25  0.0000E+00  0.9898E-25  0.0000E+00
    -13.166  0.8026E-01  0.0000E+00  0.4751E-25  0.0000E+00  0.4751E-25  0.0000E+00  0.4751E-25  0.0000E+00  0.2067E-26  0.0000E+00  0.2067E-26  0.0000E+00  0.3174E-26  0.0000E+00  0.2067E-26  0.0000E+00  0.3174E-26  0.0000E+00
    -13.103  0.1534E-03  0.0000E+00  0.9077E-28  0.0000E+00  0.9077E-28  0.0000E+00  0.9077E-28  0.0000E+00  0.3948E-29  0.0000E+00  0.3948E-29  0.0000E+00  0.6063E-29  0.0000E+00  0.3948E-29  0.0000E+00  0.6063E-29  0.0000E+00
    -13.041  0.1510E-07  0.0000E+00  0.8939E-32  0.0000E+00  0.8939E-32  0.0000E+00  0.8939E-32  0.0000E+00  0.3888E-33  0.0000E+00  0.3888E-33  0.0000E+00  0.5971E-33  0.0000E+00  0.3888E-33  0.0000E+00  0.5971E-33  0.0000E+00
    -12.979  0.7260E-13  0.0000E+00  0.4297E-37  0.0000E+00  0.4297E-37  0.0000E+00  0.4297E-37  0.0000E+00  0.1869E-38  0.0000E+00  0.1869E-38  0.0000E+00  0.2870E-38  0.0000E+00  0.1869E-38  0.0000E+00  0.2870E-38  0.0000E+00
    -12.916  0.0000E+00  0.0000E+00  0.0000E+00  0.0000E+00  0.0000E+00  0.0000E+00  0.0000E+00  0.0000E+00  0.0000E+00  0.0000E+00  0.0000E+00  0.0000E+00  0.0000E+00  0.0000E+00  0.0000E+00  0.0000E+00  0.0000E+00  0.0000E+00
    -12.854  0.0000E+00  0.0000E+00  0.0000E+00  0.0000E+00  0.0000E+00  0.0000E+00  0.0000E+00  0.0000E+00  0.0000E+00  0.0000E+00  0.0000E+00  0.0000E+00  0.0000E+00  0.0000E+00  0.0000E+00  0.0000E+00  0.0000E+00  0.0000E+00
    -12.792  0.0000E+00  0.0000E+00  0.0000E+00  0.0000E+00  0.0000E+00  0.0000E+00  0.0000E+00  0.0000E+00  0.0000E+00  0.0000E+00  0.0000E+00  0.0000E+00  0.0000E+00  0.0000E+00  0.0000E+00  0.0000E+00  0.0000E+00  0.0000E+00
    -12.729  0.0000E+00  0.0000E+00  0.0000E+00  0.0000E+00  0.0000E+00  0.0000E+00  0.0000E+00  0.0000E+00  0.0000E+00  0.0000E+00  0.0000E+00  0.0000E+00  0.0000E+00  0.0000E+00  0.0000E+00  0.0000E+00  0.0000E+00  0.0000E+00
    -12.667  0.0000E+00  0.0000E+00  0.0000E+00  0.0000E+00  0.0000E+00  0.0000E+00  0.0000E+00  0.0000E+00  0.0000E+00  0.0000E+00  0.0000E+00  0.0000E+00  0.0000E+00  0.0000E+00  0.0000E+00  0.0000E+00  0.0000E+00  0.0000E+00
    -12.605  0.0000E+00  0.0000E+00  0.0000E+00  0.0000E+00  0.0000E+00  0.0000E+00  0.0000E+00  0.0000E+00  0.0000E+00  0.0000E+00  0.0000E+00  0.0000E+00  0.0000E+00  0.0000E+00  0.0000E+00  0.0000E+00  0.0000E+00  0.0000E+00
    -12.542  0.0000E+00  0.0000E+00  0.0000E+00  0.0000E+00  0.0000E+00  0.0000E+00  0.0000E+00  0.0000E+00  0.0000E+00  0.0000E+00  0.0000E+00  0.0000E+00  0.0000E+00  0.0000E+00  0.0000E+00  0.0000E+00  0.0000E+00  0.0000E+00
    -12.480  0.0000E+00  0.0000E+00  0.0000E+00  0.0000E+00  0.0000E+00  0.0000E+00  0.0000E+00  0.0000E+00  0.0000E+00  0.0000E+00  0.0000E+00  0.0000E+00  0.0000E+00  0.0000E+00  0.0000E+00  0.0000E+00  0.0000E+00  0.0000E+00
    -12.418  0.0000E+00  0.0000E+00  0.0000E+00  0.0000E+00  0.0000E+00  0.0000E+00  0.0000E+00  0.0000E+00  0.0000E+00  0.0000E+00  0.0000E+00  0.0000E+00  0.0000E+00  0.0000E+00  0.0000E+00  0.0000E+00  0.0000E+00  0.0000E+00
    -12.355  0.0000E+00  0.0000E+00  0.0000E+00  0.0000E+00  0.0000E+00  0.0000E+00  0.0000E+00  0.0000E+00  0.0000E+00  0.0000E+00  0.0000E+00  0.0000E+00  0.0000E+00  0.0000E+00  0.0000E+00  0.0000E+00  0.0000E+00  0.0000E+00
    -12.293  0.0000E+00  0.0000E+00  0.0000E+00  0.0000E+00  0.0000E+00  0.0000E+00  0.0000E+00  0.0000E+00  0.0000E+00  0.0000E+00  0.0000E+00  0.0000E+00  0.0000E+00  0.0000E+00  0.0000E+00  0.0000E+00  0.0000E+00  0.0000E+00
    -12.231  0.0000E+00  0.0000E+00  0.0000E+00  0.0000E+00  0.0000E+00  0.0000E+00  0.0000E+00  0.0000E+00  0.0000E+00  0.0000E+00  0.0000E+00  0.0000E+00  0.0000E+00  0.0000E+00  0.0000E+00  0.0000E+00  0.0000E+00  0.0000E+00
    -12.168  0.0000E+00  0.0000E+00  0.0000E+00  0.0000E+00  0.0000E+00  0.0000E+00  0.0000E+00  0.0000E+00  0.0000E+00  0.0000E+00  0.0000E+00  0.0000E+00  0.0000E+00  0.0000E+00  0.0000E+00  0.0000E+00  0.0000E+00  0.0000E+00
    -12.106  0.0000E+00  0.0000E+00  0.0000E+00  0.0000E+00  0.0000E+00  0.0000E+00  0.0000E+00  0.0000E+00  0.0000E+00  0.0000E+00  0.0000E+00  0.0000E+00  0.0000E+00  0.0000E+00  0.0000E+00  0.0000E+00  0.0000E+00  0.0000E+00
    -12.044  0.0000E+00  0.0000E+00  0.0000E+00  0.0000E+00  0.0000E+00  0.0000E+00  0.0000E+00  0.0000E+00  0.0000E+00  0.0000E+00  0.0000E+00  0.0000E+00  0.0000E+00  0.0000E+00  0.0000E+00  0.0000E+00  0.0000E+00  0.0000E+00
    -11.981  0.0000E+00  0.0000E+00  0.0000E+00  0.0000E+00  0.0000E+00  0.0000E+00  0.0000E+00  0.0000E+00  0.0000E+00  0.0000E+00  0.0000E+00  0.0000E+00  0.0000E+00  0.0000E+00  0.0000E+00  0.0000E+00  0.0000E+00  0.0000E+00
    -11.919  0.0000E+00  0.0000E+00  0.0000E+00  0.0000E+00  0.0000E+00  0.0000E+00  0.0000E+00  0.0000E+00  0.0000E+00  0.0000E+00  0.0000E+00  0.0000E+00  0.0000E+00  0.0000E+00  0.0000E+00  0.0000E+00  0.0000E+00  0.0000E+00
    -11.857  0.0000E+00  0.0000E+00  0.0000E+00  0.0000E+00  0.0000E+00  0.0000E+00  0.0000E+00  0.0000E+00  0.0000E+00  0.0000E+00  0.0000E+00  0.0000E+00  0.0000E+00  0.0000E+00  0.0000E+00  0.0000E+00  0.0000E+00  0.0000E+00
    -11.794  0.0000E+00  0.2229E-14  0.0000E+00  0.1804E-38  0.0000E+00  0.1804E-38  0.0000E+00  0.1804E-38  0.0000E+00  0.5713E-40  0.0000E+00  0.5713E-40  0.0000E+00  0.1538E-38  0.0000E+00  0.5713E-40  0.0000E+00  0.1538E-38
    -11.732  0.0000E+00  0.1063E-08  0.0000E+00  0.8604E-33  0.0000E+00  0.8604E-33  0.0000E+00  0.8604E-33  0.0000E+00  0.2725E-34  0.0000E+00  0.2725E-34  0.0000E+00  0.7336E-33  0.0000E+00  0.2725E-34  0.0000E+00  0.7336E-33
    -11.670  0.0000E+00  0.2226E-04  0.0000E+00  0.1802E-28  0.0000E+00  0.1802E-28  0.0000E+00  0.1802E-28  0.0000E+00  0.5705E-30  0.0000E+00  0.5705E-30  0.0000E+00  0.1536E-28  0.0000E+00  0.5705E-30  0.0000E+00  0.1536E-28
    -11.608  0.0000E+00  0.2355E-01  0.0000E+00  0.1906E-25  0.0000E+00  0.1906E-25  0.0000E+00  0.1906E-25  0.0000E+00  0.6035E-27  0.0000E+00  0.6035E-27  0.0000E+00  0.1625E-25  0.0000E+00  0.6035E-27  0.0000E+00  0.1625E-25
    -11.545  0.0000E+00  0.1418E+01  0.0000E+00  0.1147E-23  0.0000E+00  0.1147E-23  0.0000E+00  0.1147E-23  0.0000E+00  0.3633E-25  0.0000E+00  0.3633E-25  0.0000E+00  0.9781E-24  0.0000E+00  0.3633E-25  0.0000E+00  0.9781E-24
    -11.483  0.0000E+00  0.6164E+01  0.0000E+00  0.4988E-23  0.0000E+00  0.4988E-23  0.0000E+00  0.4988E-23  0.0000E+00  0.1579E-24  0.0000E+00  0.1579E-24  0.0000E+00  0.4253E-23  0.0000E+00  0.1579E-24  0.0000E+00  0.4253E-23
    -11.421  0.0000E+00  0.2366E+01  0.0000E+00  0.1914E-23  0.0000E+00  0.1914E-23  0.0000E+00  0.1914E-23  0.0000E+00  0.6062E-25  0.0000E+00  0.6062E-25  0.0000E+00  0.1632E-23  0.0000E+00  0.6062E-25  0.0000E+00  0.1632E-23
    -11.358  0.0000E+00  0.6947E-01  0.0000E+00  0.5622E-25  0.0000E+00  0.5622E-25  0.0000E+00  0.5622E-25  0.0000E+00  0.1780E-26  0.0000E+00  0.1780E-26  0.0000E+00  0.4793E-25  0.0000E+00  0.1780E-26  0.0000E+00  0.4793E-25
    -11.296  0.0000E+00  0.1208E-03  0.0000E+00  0.9773E-28  0.0000E+00  0.9773E-28  0.0000E+00  0.9773E-28  0.0000E+00  0.3095E-29  0.0000E+00  0.3095E-29  0.0000E+00  0.8332E-28  0.0000E+00  0.3095E-29  0.0000E+00  0.8332E-28
    -11.234  0.0000E+00  0.1079E-07  0.0000E+00  0.8730E-32  0.0000E+00  0.8730E-32  0.0000E+00  0.8730E-32  0.0000E+00  0.2765E-33  0.0000E+00  0.2765E-33  0.0000E+00  0.7444E-32  0.0000E+00  0.2765E-33  0.0000E+00  0.7444E-32
    -11.171  0.0000E+00  0.4681E-13  0.0000E+00  0.3789E-37  0.0000E+00  0.3789E-37  0.0000E+00  0.3789E-37  0.0000E+00  0.1200E-38  0.0000E+00  0.1200E-38  0.0000E+00  0.3230E-37  0.0000E+00  0.1200E-38  0.0000E+00  0.3230E-37
    -11.109  0.0000E+00  0.0000E+00  0.0000E+00  0.0000E+00  0.0000E+00  0.0000E+00  0.0000E+00  0.0000E+00  0.0000E+00  0.0000E+00  0.0000E+00  0.0000E+00  0.0000E+00  0.0000E+00  0.0000E+00  0.0000E+00  0.0000E+00  0.0000E+00
    -11.047  0.0000E+00  0.0000E+00  0.0000E+00  0.0000E+00  0.0000E+00  0.0000E+00  0.0000E+00  0.0000E+00  0.0000E+00  0.0000E+00  0.0000E+00  0.0000E+00  0.0000E+00  0.0000E+00  0.0000E+00  0.0000E+00  0.0000E+00  0.0000E+00
    -10.984  0.0000E+00  0.0000E+00  0.0000E+00  0.0000E+00  0.0000E+00  0.0000E+00  0.0000E+00  0.0000E+00  0.0000E+00  0.0000E+00  0.0000E+00  0.0000E+00  0.0000E+00  0.0000E+00  0.0000E+00  0.0000E+00  0.0000E+00  0.0000E+00
    -10.922  0.0000E+00  0.0000E+00  0.0000E+00  0.0000E+00  0.0000E+00  0.0000E+00  0.0000E+00  0.0000E+00  0.0000E+00  0.0000E+00  0.0000E+00  0.0000E+00  0.0000E+00  0.0000E+00  0.0000E+00  0.0000E+00  0.0000E+00  0.0000E+00
    -10.860  0.0000E+00  0.0000E+00  0.0000E+00  0.0000E+00  0.0000E+00  0.0000E+00  0.0000E+00  0.0000E+00  0.0000E+00  0.0000E+00  0.0000E+00  0.0000E+00  0.0000E+00  0.0000E+00  0.0000E+00  0.0000E+00  0.0000E+00  0.0000E+00
    -10.797  0.0000E+00  0.0000E+00  0.0000E+00  0.0000E+00  0.0000E+00  0.0000E+00  0.0000E+00  0.0000E+00  0.0000E+00  0.0000E+00  0.0000E+00  0.0000E+00  0.0000E+00  0.0000E+00  0.0000E+00  0.0000E+00  0.0000E+00  0.0000E+00
    -10.735  0.0000E+00  0.0000E+00  0.0000E+00  0.0000E+00  0.0000E+00  0.0000E+00  0.0000E+00  0.0000E+00  0.0000E+00  0.0000E+00  0.0000E+00  0.0000E+00  0.0000E+00  0.0000E+00  0.0000E+00  0.0000E+00  0.0000E+00  0.0000E+00
    -10.673  0.0000E+00  0.0000E+00  0.0000E+00  0.0000E+00  0.0000E+00  0.0000E+00  0.0000E+00  0.0000E+00  0.0000E+00  0.0000E+00  0.0000E+00  0.0000E+00  0.0000E+00  0.0000E+00  0.0000E+00  0.0000E+00  0.0000E+00  0.0000E+00
    -10.610  0.0000E+00  0.0000E+00  0.0000E+00  0.0000E+00  0.0000E+00  0.0000E+00  0.0000E+00  0.0000E+00  0.0000E+00  0.0000E+00  0.0000E+00  0.0000E+00  0.0000E+00  0.0000E+00  0.0000E+00  0.0000E+00  0.0000E+00  0.0000E+00
    -10.548  0.0000E+00  0.0000E+00  0.0000E+00  0.0000E+00  0.0000E+00  0.0000E+00  0.0000E+00  0.0000E+00  0.0000E+00  0.0000E+00  0.0000E+00  0.0000E+00  0.0000E+00  0.0000E+00  0.0000E+00  0.0000E+00  0.0000E+00  0.0000E+00
    -10.486  0.0000E+00  0.0000E+00  0.0000E+00  0.0000E+00  0.0000E+00  0.0000E+00  0.0000E+00  0.0000E+00  0.0000E+00  0.0000E+00  0.0000E+00  0.0000E+00  0.0000E+00  0.0000E+00  0.0000E+00  0.0000E+00  0.0000E+00  0.0000E+00
    -10.423  0.0000E+00  0.0000E+00  0.0000E+00  0.0000E+00  0.0000E+00  0.0000E+00  0.0000E+00  0.0000E+00  0.0000E+00  0.0000E+00  0.0000E+00  0.0000E+00  0.0000E+00  0.0000E+00  0.0000E+00  0.0000E+00  0.0000E+00  0.0000E+00
    -10.361  0.0000E+00  0.0000E+00  0.0000E+00  0.0000E+00  0.0000E+00  0.0000E+00  0.0000E+00  0.0000E+00  0.0000E+00  0.0000E+00  0.0000E+00  0.0000E+00  0.0000E+00  0.0000E+00  0.0000E+00  0.0000E+00  0.0000E+00  0.0000E+00
    -10.299  0.0000E+00  0.0000E+00  0.0000E+00  0.0000E+00  0.0000E+00  0.0000E+00  0.0000E+00  0.0000E+00  0.0000E+00  0.0000E+00  0.0000E+00  0.0000E+00  0.0000E+00  0.0000E+00  0.0000E+00  0.0000E+00  0.0000E+00  0.0000E+00
    -10.236  0.0000E+00  0.0000E+00  0.0000E+00  0.0000E+00  0.0000E+00  0.0000E+00  0.0000E+00  0.0000E+00  0.0000E+00  0.0000E+00  0.0000E+00  0.0000E+00  0.0000E+00  0.0000E+00  0.0000E+00  0.0000E+00  0.0000E+00  0.0000E+00
    -10.174  0.0000E+00  0.0000E+00  0.0000E+00  0.0000E+00  0.0000E+00  0.0000E+00  0.0000E+00  0.0000E+00  0.0000E+00  0.0000E+00  0.0000E+00  0.0000E+00  0.0000E+00  0.0000E+00  0.0000E+00  0.0000E+00  0.0000E+00  0.0000E+00
    -10.112  0.0000E+00  0.0000E+00  0.0000E+00  0.0000E+00  0.0000E+00  0.0000E+00  0.0000E+00  0.0000E+00  0.0000E+00  0.0000E+00  0.0000E+00  0.0000E+00  0.0000E+00  0.0000E+00  0.0000E+00  0.0000E+00  0.0000E+00  0.0000E+00
    -10.050  0.0000E+00  0.0000E+00  0.0000E+00  0.0000E+00  0.0000E+00  0.0000E+00  0.0000E+00  0.0000E+00  0.0000E+00  0.0000E+00  0.0000E+00  0.0000E+00  0.0000E+00  0.0000E+00  0.0000E+00  0.0000E+00  0.0000E+00  0.0000E+00
     -9.987  0.0000E+00  0.0000E+00  0.0000E+00  0.0000E+00  0.0000E+00  0.0000E+00  0.0000E+00  0.0000E+00  0.0000E+00  0.0000E+00  0.0000E+00  0.0000E+00  0.0000E+00  0.0000E+00  0.0000E+00  0.0000E+00  0.0000E+00  0.0000E+00
     -9.925  0.0000E+00  0.0000E+00  0.0000E+00  0.0000E+00  0.0000E+00  0.0000E+00  0.0000E+00  0.0000E+00  0.0000E+00  0.0000E+00  0.0000E+00  0.0000E+00  0.0000E+00  0.0000E+00  0.0000E+00  0.0000E+00  0.0000E+00  0.0000E+00
     -9.863  0.0000E+00  0.0000E+00  0.0000E+00  0.0000E+00  0.0000E+00  0.0000E+00  0.0000E+00  0.0000E+00  0.0000E+00  0.0000E+00  0.0000E+00  0.0000E+00  0.0000E+00  0.0000E+00  0.0000E+00  0.0000E+00  0.0000E+00  0.0000E+00
     -9.800  0.0000E+00  0.0000E+00  0.0000E+00  0.0000E+00  0.0000E+00  0.0000E+00  0.0000E+00  0.0000E+00  0.0000E+00  0.0000E+00  0.0000E+00  0.0000E+00  0.0000E+00  0.0000E+00  0.0000E+00  0.0000E+00  0.0000E+00  0.0000E+00
     -9.738  0.0000E+00  0.0000E+00  0.0000E+00  0.0000E+00  0.0000E+00  0.0000E+00  0.0000E+00  0.0000E+00  0.0000E+00  0.0000E+00  0.0000E+00  0.0000E+00  0.0000E+00  0.0000E+00  0.0000E+00  0.0000E+00  0.0000E+00  0.0000E+00
     -9.676  0.0000E+00  0.0000E+00  0.0000E+00  0.0000E+00  0.0000E+00  0.0000E+00  0.0000E+00  0.0000E+00  0.0000E+00  0.0000E+00  0.0000E+00  0.0000E+00  0.0000E+00  0.0000E+00  0.0000E+00  0.0000E+00  0.0000E+00  0.0000E+00
     -9.613  0.0000E+00  0.0000E+00  0.0000E+00  0.0000E+00  0.0000E+00  0.0000E+00  0.0000E+00  0.0000E+00  0.0000E+00  0.0000E+00  0.0000E+00  0.0000E+00  0.0000E+00  0.0000E+00  0.0000E+00  0.0000E+00  0.0000E+00  0.0000E+00
     -9.551  0.0000E+00  0.0000E+00  0.0000E+00  0.0000E+00  0.0000E+00  0.0000E+00  0.0000E+00  0.0000E+00  0.0000E+00  0.0000E+00  0.0000E+00  0.0000E+00  0.0000E+00  0.0000E+00  0.0000E+00  0.0000E+00  0.0000E+00  0.0000E+00
     -9.489  0.0000E+00  0.0000E+00  0.0000E+00  0.0000E+00  0.0000E+00  0.0000E+00  0.0000E+00  0.0000E+00  0.0000E+00  0.0000E+00  0.0000E+00  0.0000E+00  0.0000E+00  0.0000E+00  0.0000E+00  0.0000E+00  0.0000E+00  0.0000E+00
     -9.426  0.0000E+00  0.0000E+00  0.0000E+00  0.0000E+00  0.0000E+00  0.0000E+00  0.0000E+00  0.0000E+00  0.0000E+00  0.0000E+00  0.0000E+00  0.0000E+00  0.0000E+00  0.0000E+00  0.0000E+00  0.0000E+00  0.0000E+00  0.0000E+00
     -9.364  0.0000E+00  0.0000E+00  0.0000E+00  0.0000E+00  0.0000E+00  0.0000E+00  0.0000E+00  0.0000E+00  0.0000E+00  0.0000E+00  0.0000E+00  0.0000E+00  0.0000E+00  0.0000E+00  0.0000E+00  0.0000E+00  0.0000E+00  0.0000E+00
     -9.302  0.0000E+00  0.0000E+00  0.0000E+00  0.0000E+00  0.0000E+00  0.0000E+00  0.0000E+00  0.0000E+00  0.0000E+00  0.0000E+00  0.0000E+00  0.0000E+00  0.0000E+00  0.0000E+00  0.0000E+00  0.0000E+00  0.0000E+00  0.0000E+00
     -9.239  0.0000E+00  0.0000E+00  0.0000E+00  0.0000E+00  0.0000E+00  0.0000E+00  0.0000E+00  0.0000E+00  0.0000E+00  0.0000E+00  0.0000E+00  0.0000E+00  0.0000E+00  0.0000E+00  0.0000E+00  0.0000E+00  0.0000E+00  0.0000E+00
     -9.177  0.0000E+00  0.0000E+00  0.0000E+00  0.0000E+00  0.0000E+00  0.0000E+00  0.0000E+00  0.0000E+00  0.0000E+00  0.0000E+00  0.0000E+00  0.0000E+00  0.0000E+00  0.0000E+00  0.0000E+00  0.0000E+00  0.0000E+00  0.0000E+00
     -9.115  0.0000E+00  0.0000E+00  0.0000E+00  0.0000E+00  0.0000E+00  0.0000E+00  0.0000E+00  0.0000E+00  0.0000E+00  0.0000E+00  0.0000E+00  0.0000E+00  0.0000E+00  0.0000E+00  0.0000E+00  0.0000E+00  0.0000E+00  0.0000E+00
     -9.052  0.0000E+00  0.0000E+00  0.0000E+00  0.0000E+00  0.0000E+00  0.0000E+00  0.0000E+00  0.0000E+00  0.0000E+00  0.0000E+00  0.0000E+00  0.0000E+00  0.0000E+00  0.0000E+00  0.0000E+00  0.0000E+00  0.0000E+00  0.0000E+00
     -8.990  0.0000E+00  0.0000E+00  0.0000E+00  0.0000E+00  0.0000E+00  0.0000E+00  0.0000E+00  0.0000E+00  0.0000E+00  0.0000E+00  0.0000E+00  0.0000E+00  0.0000E+00  0.0000E+00  0.0000E+00  0.0000E+00  0.0000E+00  0.0000E+00
     -8.928  0.0000E+00  0.0000E+00  0.0000E+00  0.0000E+00  0.0000E+00  0.0000E+00  0.0000E+00  0.0000E+00  0.0000E+00  0.0000E+00  0.0000E+00  0.0000E+00  0.0000E+00  0.0000E+00  0.0000E+00  0.0000E+00  0.0000E+00  0.0000E+00
     -8.865  0.0000E+00  0.0000E+00  0.0000E+00  0.0000E+00  0.0000E+00  0.0000E+00  0.0000E+00  0.0000E+00  0.0000E+00  0.0000E+00  0.0000E+00  0.0000E+00  0.0000E+00  0.0000E+00  0.0000E+00  0.0000E+00  0.0000E+00  0.0000E+00
     -8.803  0.0000E+00  0.0000E+00  0.0000E+00  0.0000E+00  0.0000E+00  0.0000E+00  0.0000E+00  0.0000E+00  0.0000E+00  0.0000E+00  0.0000E+00  0.0000E+00  0.0000E+00  0.0000E+00  0.0000E+00  0.0000E+00  0.0000E+00  0.0000E+00
     -8.741  0.0000E+00  0.0000E+00  0.0000E+00  0.0000E+00  0.0000E+00  0.0000E+00  0.0000E+00  0.0000E+00  0.0000E+00  0.0000E+00  0.0000E+00  0.0000E+00  0.0000E+00  0.0000E+00  0.0000E+00  0.0000E+00  0.0000E+00  0.0000E+00
     -8.679  0.0000E+00  0.0000E+00  0.0000E+00  0.0000E+00  0.0000E+00  0.0000E+00  0.0000E+00  0.0000E+00  0.0000E+00  0.0000E+00  0.0000E+00  0.0000E+00  0.0000E+00  0.0000E+00  0.0000E+00  0.0000E+00  0.0000E+00  0.0000E+00
     -8.616  0.0000E+00  0.0000E+00  0.0000E+00  0.0000E+00  0.0000E+00  0.0000E+00  0.0000E+00  0.0000E+00  0.0000E+00  0.0000E+00  0.0000E+00  0.0000E+00  0.0000E+00  0.0000E+00  0.0000E+00  0.0000E+00  0.0000E+00  0.0000E+00
     -8.554  0.0000E+00  0.0000E+00  0.0000E+00  0.0000E+00  0.0000E+00  0.0000E+00  0.0000E+00  0.0000E+00  0.0000E+00  0.0000E+00  0.0000E+00  0.0000E+00  0.0000E+00  0.0000E+00  0.0000E+00  0.0000E+00  0.0000E+00  0.0000E+00
     -8.492  0.0000E+00  0.0000E+00  0.0000E+00  0.0000E+00  0.0000E+00  0.0000E+00  0.0000E+00  0.0000E+00  0.0000E+00  0.0000E+00  0.0000E+00  0.0000E+00  0.0000E+00  0.0000E+00  0.0000E+00  0.0000E+00  0.0000E+00  0.0000E+00
     -8.429  0.0000E+00  0.0000E+00  0.0000E+00  0.0000E+00  0.0000E+00  0.0000E+00  0.0000E+00  0.0000E+00  0.0000E+00  0.0000E+00  0.0000E+00  0.0000E+00  0.0000E+00  0.0000E+00  0.0000E+00  0.0000E+00  0.0000E+00  0.0000E+00
     -8.367  0.0000E+00  0.0000E+00  0.0000E+00  0.0000E+00  0.0000E+00  0.0000E+00  0.0000E+00  0.0000E+00  0.0000E+00  0.0000E+00  0.0000E+00  0.0000E+00  0.0000E+00  0.0000E+00  0.0000E+00  0.0000E+00  0.0000E+00  0.0000E+00
     -8.305  0.0000E+00  0.0000E+00  0.0000E+00  0.0000E+00  0.0000E+00  0.0000E+00  0.0000E+00  0.0000E+00  0.0000E+00  0.0000E+00  0.0000E+00  0.0000E+00  0.0000E+00  0.0000E+00  0.0000E+00  0.0000E+00  0.0000E+00  0.0000E+00
     -8.242  0.0000E+00  0.0000E+00  0.0000E+00  0.0000E+00  0.0000E+00  0.0000E+00  0.0000E+00  0.0000E+00  0.0000E+00  0.0000E+00  0.0000E+00  0.0000E+00  0.0000E+00  0.0000E+00  0.0000E+00  0.0000E+00  0.0000E+00  0.0000E+00
     -8.180  0.0000E+00  0.0000E+00  0.0000E+00  0.0000E+00  0.0000E+00  0.0000E+00  0.0000E+00  0.0000E+00  0.0000E+00  0.0000E+00  0.0000E+00  0.0000E+00  0.0000E+00  0.0000E+00  0.0000E+00  0.0000E+00  0.0000E+00  0.0000E+00
     -8.118  0.0000E+00  0.0000E+00  0.0000E+00  0.0000E+00  0.0000E+00  0.0000E+00  0.0000E+00  0.0000E+00  0.0000E+00  0.0000E+00  0.0000E+00  0.0000E+00  0.0000E+00  0.0000E+00  0.0000E+00  0.0000E+00  0.0000E+00  0.0000E+00
     -8.055  0.0000E+00  0.0000E+00  0.0000E+00  0.0000E+00  0.0000E+00  0.0000E+00  0.0000E+00  0.0000E+00  0.0000E+00  0.0000E+00  0.0000E+00  0.0000E+00  0.0000E+00  0.0000E+00  0.0000E+00  0.0000E+00  0.0000E+00  0.0000E+00
     -7.993  0.0000E+00  0.0000E+00  0.0000E+00  0.0000E+00  0.0000E+00  0.0000E+00  0.0000E+00  0.0000E+00  0.0000E+00  0.0000E+00  0.0000E+00  0.0000E+00  0.0000E+00  0.0000E+00  0.0000E+00  0.0000E+00  0.0000E+00  0.0000E+00
     -7.931  0.0000E+00  0.0000E+00  0.0000E+00  0.0000E+00  0.0000E+00  0.0000E+00  0.0000E+00  0.0000E+00  0.0000E+00  0.0000E+00  0.0000E+00  0.0000E+00  0.0000E+00  0.0000E+00  0.0000E+00  0.0000E+00  0.0000E+00  0.0000E+00
     -7.868  0.0000E+00  0.0000E+00  0.0000E+00  0.0000E+00  0.0000E+00  0.0000E+00  0.0000E+00  0.0000E+00  0.0000E+00  0.0000E+00  0.0000E+00  0.0000E+00  0.0000E+00  0.0000E+00  0.0000E+00  0.0000E+00  0.0000E+00  0.0000E+00
     -7.806  0.0000E+00  0.0000E+00  0.0000E+00  0.0000E+00  0.0000E+00  0.0000E+00  0.0000E+00  0.0000E+00  0.0000E+00  0.0000E+00  0.0000E+00  0.0000E+00  0.0000E+00  0.0000E+00  0.0000E+00  0.0000E+00  0.0000E+00  0.0000E+00
     -7.744  0.0000E+00  0.0000E+00  0.0000E+00  0.0000E+00  0.0000E+00  0.0000E+00  0.0000E+00  0.0000E+00  0.0000E+00  0.0000E+00  0.0000E+00  0.0000E+00  0.0000E+00  0.0000E+00  0.0000E+00  0.0000E+00  0.0000E+00  0.0000E+00
     -7.681  0.0000E+00  0.0000E+00  0.0000E+00  0.0000E+00  0.0000E+00  0.0000E+00  0.0000E+00  0.0000E+00  0.0000E+00  0.0000E+00  0.0000E+00  0.0000E+00  0.0000E+00  0.0000E+00  0.0000E+00  0.0000E+00  0.0000E+00  0.0000E+00
     -7.619  0.0000E+00  0.0000E+00  0.0000E+00  0.0000E+00  0.0000E+00  0.0000E+00  0.0000E+00  0.0000E+00  0.0000E+00  0.0000E+00  0.0000E+00  0.0000E+00  0.0000E+00  0.0000E+00  0.0000E+00  0.0000E+00  0.0000E+00  0.0000E+00
     -7.557  0.0000E+00  0.0000E+00  0.0000E+00  0.0000E+00  0.0000E+00  0.0000E+00  0.0000E+00  0.0000E+00  0.0000E+00  0.0000E+00  0.0000E+00  0.0000E+00  0.0000E+00  0.0000E+00  0.0000E+00  0.0000E+00  0.0000E+00  0.0000E+00
     -7.494  0.0000E+00  0.0000E+00  0.0000E+00  0.0000E+00  0.0000E+00  0.0000E+00  0.0000E+00  0.0000E+00  0.0000E+00  0.0000E+00  0.0000E+00  0.0000E+00  0.0000E+00  0.0000E+00  0.0000E+00  0.0000E+00  0.0000E+00  0.0000E+00
     -7.432  0.0000E+00  0.0000E+00  0.0000E+00  0.0000E+00  0.0000E+00  0.0000E+00  0.0000E+00  0.0000E+00  0.0000E+00  0.0000E+00  0.0000E+00  0.0000E+00  0.0000E+00  0.0000E+00  0.0000E+00  0.0000E+00  0.0000E+00  0.0000E+00
     -7.370  0.0000E+00  0.0000E+00  0.0000E+00  0.0000E+00  0.0000E+00  0.0000E+00  0.0000E+00  0.0000E+00  0.0000E+00  0.0000E+00  0.0000E+00  0.0000E+00  0.0000E+00  0.0000E+00  0.0000E+00  0.0000E+00  0.0000E+00  0.0000E+00
     -7.307  0.0000E+00  0.0000E+00  0.0000E+00  0.0000E+00  0.0000E+00  0.0000E+00  0.0000E+00  0.0000E+00  0.0000E+00  0.0000E+00  0.0000E+00  0.0000E+00  0.0000E+00  0.0000E+00  0.0000E+00  0.0000E+00  0.0000E+00  0.0000E+00
     -7.245  0.0000E+00  0.0000E+00  0.0000E+00  0.0000E+00  0.0000E+00  0.0000E+00  0.0000E+00  0.0000E+00  0.0000E+00  0.0000E+00  0.0000E+00  0.0000E+00  0.0000E+00  0.0000E+00  0.0000E+00  0.0000E+00  0.0000E+00  0.0000E+00
     -7.183  0.0000E+00  0.0000E+00  0.0000E+00  0.0000E+00  0.0000E+00  0.0000E+00  0.0000E+00  0.0000E+00  0.0000E+00  0.0000E+00  0.0000E+00  0.0000E+00  0.0000E+00  0.0000E+00  0.0000E+00  0.0000E+00  0.0000E+00  0.0000E+00
     -7.121  0.0000E+00  0.0000E+00  0.0000E+00  0.0000E+00  0.0000E+00  0.0000E+00  0.0000E+00  0.0000E+00  0.0000E+00  0.0000E+00  0.0000E+00  0.0000E+00  0.0000E+00  0.0000E+00  0.0000E+00  0.0000E+00  0.0000E+00  0.0000E+00
     -7.058  0.0000E+00  0.0000E+00  0.0000E+00  0.0000E+00  0.0000E+00  0.0000E+00  0.0000E+00  0.0000E+00  0.0000E+00  0.0000E+00  0.0000E+00  0.0000E+00  0.0000E+00  0.0000E+00  0.0000E+00  0.0000E+00  0.0000E+00  0.0000E+00
     -6.996  0.0000E+00  0.0000E+00  0.0000E+00  0.0000E+00  0.0000E+00  0.0000E+00  0.0000E+00  0.0000E+00  0.0000E+00  0.0000E+00  0.0000E+00  0.0000E+00  0.0000E+00  0.0000E+00  0.0000E+00  0.0000E+00  0.0000E+00  0.0000E+00
     -6.934  0.0000E+00  0.0000E+00  0.0000E+00  0.0000E+00  0.0000E+00  0.0000E+00  0.0000E+00  0.0000E+00  0.0000E+00  0.0000E+00  0.0000E+00  0.0000E+00  0.0000E+00  0.0000E+00  0.0000E+00  0.0000E+00  0.0000E+00  0.0000E+00
     -6.871  0.0000E+00  0.0000E+00  0.0000E+00  0.0000E+00  0.0000E+00  0.0000E+00  0.0000E+00  0.0000E+00  0.0000E+00  0.0000E+00  0.0000E+00  0.0000E+00  0.0000E+00  0.0000E+00  0.0000E+00  0.0000E+00  0.0000E+00  0.0000E+00
     -6.809  0.0000E+00  0.0000E+00  0.0000E+00  0.0000E+00  0.0000E+00  0.0000E+00  0.0000E+00  0.0000E+00  0.0000E+00  0.0000E+00  0.0000E+00  0.0000E+00  0.0000E+00  0.0000E+00  0.0000E+00  0.0000E+00  0.0000E+00  0.0000E+00
     -6.747  0.0000E+00  0.0000E+00  0.0000E+00  0.0000E+00  0.0000E+00  0.0000E+00  0.0000E+00  0.0000E+00  0.0000E+00  0.0000E+00  0.0000E+00  0.0000E+00  0.0000E+00  0.0000E+00  0.0000E+00  0.0000E+00  0.0000E+00  0.0000E+00
     -6.684  0.0000E+00  0.0000E+00  0.0000E+00  0.0000E+00  0.0000E+00  0.0000E+00  0.0000E+00  0.0000E+00  0.0000E+00  0.0000E+00  0.0000E+00  0.0000E+00  0.0000E+00  0.0000E+00  0.0000E+00  0.0000E+00  0.0000E+00  0.0000E+00
     -6.622  0.0000E+00  0.0000E+00  0.0000E+00  0.0000E+00  0.0000E+00  0.0000E+00  0.0000E+00  0.0000E+00  0.0000E+00  0.0000E+00  0.0000E+00  0.0000E+00  0.0000E+00  0.0000E+00  0.0000E+00  0.0000E+00  0.0000E+00  0.0000E+00
     -6.560  0.0000E+00  0.0000E+00  0.0000E+00  0.0000E+00  0.0000E+00  0.0000E+00  0.0000E+00  0.0000E+00  0.0000E+00  0.0000E+00  0.0000E+00  0.0000E+00  0.0000E+00  0.0000E+00  0.0000E+00  0.0000E+00  0.0000E+00  0.0000E+00
     -6.497  0.0000E+00  0.0000E+00  0.0000E+00  0.0000E+00  0.0000E+00  0.0000E+00  0.0000E+00  0.0000E+00  0.0000E+00  0.0000E+00  0.0000E+00  0.0000E+00  0.0000E+00  0.0000E+00  0.0000E+00  0.0000E+00  0.0000E+00  0.0000E+00
     -6.435  0.0000E+00  0.0000E+00  0.0000E+00  0.0000E+00  0.0000E+00  0.0000E+00  0.0000E+00  0.0000E+00  0.0000E+00  0.0000E+00  0.0000E+00  0.0000E+00  0.0000E+00  0.0000E+00  0.0000E+00  0.0000E+00  0.0000E+00  0.0000E+00
     -6.373  0.0000E+00  0.0000E+00  0.0000E+00  0.0000E+00  0.0000E+00  0.0000E+00  0.0000E+00  0.0000E+00  0.0000E+00  0.0000E+00  0.0000E+00  0.0000E+00  0.0000E+00  0.0000E+00  0.0000E+00  0.0000E+00  0.0000E+00  0.0000E+00
     -6.310  0.0000E+00  0.0000E+00  0.0000E+00  0.0000E+00  0.0000E+00  0.0000E+00  0.0000E+00  0.0000E+00  0.0000E+00  0.0000E+00  0.0000E+00  0.0000E+00  0.0000E+00  0.0000E+00  0.0000E+00  0.0000E+00  0.0000E+00  0.0000E+00
     -6.248  0.0000E+00  0.0000E+00  0.0000E+00  0.0000E+00  0.0000E+00  0.0000E+00  0.0000E+00  0.0000E+00  0.0000E+00  0.0000E+00  0.0000E+00  0.0000E+00  0.0000E+00  0.0000E+00  0.0000E+00  0.0000E+00  0.0000E+00  0.0000E+00
     -6.186  0.0000E+00  0.0000E+00  0.0000E+00  0.0000E+00  0.0000E+00  0.0000E+00  0.0000E+00  0.0000E+00  0.0000E+00  0.0000E+00  0.0000E+00  0.0000E+00  0.0000E+00  0.0000E+00  0.0000E+00  0.0000E+00  0.0000E+00  0.0000E+00
     -6.123  0.0000E+00  0.0000E+00  0.0000E+00  0.0000E+00  0.0000E+00  0.0000E+00  0.0000E+00  0.0000E+00  0.0000E+00  0.0000E+00  0.0000E+00  0.0000E+00  0.0000E+00  0.0000E+00  0.0000E+00  0.0000E+00  0.0000E+00  0.0000E+00
     -6.061  0.0000E+00  0.0000E+00  0.0000E+00  0.0000E+00  0.0000E+00  0.0000E+00  0.0000E+00  0.0000E+00  0.0000E+00  0.0000E+00  0.0000E+00  0.0000E+00  0.0000E+00  0.0000E+00  0.0000E+00  0.0000E+00  0.0000E+00  0.0000E+00
     -5.999  0.0000E+00  0.0000E+00  0.0000E+00  0.0000E+00  0.0000E+00  0.0000E+00  0.0000E+00  0.0000E+00  0.0000E+00  0.0000E+00  0.0000E+00  0.0000E+00  0.0000E+00  0.0000E+00  0.0000E+00  0.0000E+00  0.0000E+00  0.0000E+00
     -5.936  0.0000E+00  0.0000E+00  0.0000E+00  0.0000E+00  0.0000E+00  0.0000E+00  0.0000E+00  0.0000E+00  0.0000E+00  0.0000E+00  0.0000E+00  0.0000E+00  0.0000E+00  0.0000E+00  0.0000E+00  0.0000E+00  0.0000E+00  0.0000E+00
     -5.874  0.0000E+00  0.0000E+00  0.0000E+00  0.0000E+00  0.0000E+00  0.0000E+00  0.0000E+00  0.0000E+00  0.0000E+00  0.0000E+00  0.0000E+00  0.0000E+00  0.0000E+00  0.0000E+00  0.0000E+00  0.0000E+00  0.0000E+00  0.0000E+00
     -5.812  0.0000E+00  0.0000E+00  0.0000E+00  0.0000E+00  0.0000E+00  0.0000E+00  0.0000E+00  0.0000E+00  0.0000E+00  0.0000E+00  0.0000E+00  0.0000E+00  0.0000E+00  0.0000E+00  0.0000E+00  0.0000E+00  0.0000E+00  0.0000E+00
     -5.749  0.0000E+00  0.0000E+00  0.0000E+00  0.0000E+00  0.0000E+00  0.0000E+00  0.0000E+00  0.0000E+00  0.0000E+00  0.0000E+00  0.0000E+00  0.0000E+00  0.0000E+00  0.0000E+00  0.0000E+00  0.0000E+00  0.0000E+00  0.0000E+00
     -5.687  0.0000E+00  0.0000E+00  0.0000E+00  0.0000E+00  0.0000E+00  0.0000E+00  0.0000E+00  0.0000E+00  0.0000E+00  0.0000E+00  0.0000E+00  0.0000E+00  0.0000E+00  0.0000E+00  0.0000E+00  0.0000E+00  0.0000E+00  0.0000E+00
     -5.625  0.1083E-37  0.0000E+00  0.9345E-13  0.0000E+00  0.9345E-13  0.0000E+00  0.9345E-13  0.0000E+00  0.1479E-37  0.0000E+00  0.1479E-37  0.0000E+00  0.8277E-38  0.0000E+00  0.1479E-37  0.0000E+00  0.8277E-38  0.0000E+00
     -5.563  0.1899E-32  0.0000E+00  0.1640E-07  0.0000E+00  0.1640E-07  0.0000E+00  0.1640E-07  0.0000E+00  0.2595E-32  0.0000E+00  0.2595E-32  0.0000E+00  0.1452E-32  0.0000E+00  0.2595E-32  0.0000E+00  0.1452E-32  0.0000E+00
     -5.500  0.1616E-28  0.0000E+00  0.1395E-03  0.0000E+00  0.1395E-03  0.0000E+00  0.1395E-03  0.0000E+00  0.2208E-28  0.0000E+00  0.2208E-28  0.0000E+00  0.1235E-28  0.0000E+00  0.2208E-28  0.0000E+00  0.1235E-28  0.0000E+00
     -5.438  0.7126E-26  0.0000E+00  0.6151E-01  0.0000E+00  0.6151E-01  0.0000E+00  0.6151E-01  0.0000E+00  0.9736E-26  0.0000E+00  0.9736E-26  0.0000E+00  0.5448E-26  0.0000E+00  0.9736E-26  0.0000E+00  0.5448E-26  0.0000E+00
     -5.376  0.1896E-24  0.0000E+00  0.1637E+01  0.0000E+00  0.1637E+01  0.0000E+00  0.1637E+01  0.0000E+00  0.2590E-24  0.0000E+00  0.2590E-24  0.0000E+00  0.1450E-24  0.0000E+00  0.2590E-24  0.0000E+00  0.1450E-24  0.0000E+00
     -5.313  0.3955E-24  0.0000E+00  0.3414E+01  0.0000E+00  0.3414E+01  0.0000E+00  0.3414E+01  0.0000E+00  0.5404E-24  0.0000E+00  0.5404E-24  0.0000E+00  0.3024E-24  0.0000E+00  0.5404E-24  0.0000E+00  0.3024E-24  0.0000E+00
     -5.251  0.7240E-25  0.0000E+00  0.6250E+00  0.0000E+00  0.6250E+00  0.0000E+00  0.6250E+00  0.0000E+00  0.9892E-25  0.0000E+00  0.9892E-25  0.0000E+00  0.5535E-25  0.0000E+00  0.9892E-25  0.0000E+00  0.5535E-25  0.0000E+00
     -5.189  0.9331E-27  0.0000E+00  0.8055E-02  0.0000E+00  0.8055E-02  0.0000E+00  0.8055E-02  0.0000E+00  0.1275E-26  0.0000E+00  0.1275E-26  0.0000E+00  0.7134E-27  0.0000E+00  0.1275E-26  0.0000E+00  0.7134E-27  0.0000E+00
     -5.126  0.6739E-30  0.0000E+00  0.5818E-05  0.0000E+00  0.5818E-05  0.0000E+00  0.5818E-05  0.0000E+00  0.9208E-30  0.0000E+00  0.9208E-30  0.0000E+00  0.5153E-30  0.0000E+00  0.9208E-30  0.0000E+00  0.5153E-30  0.0000E+00
     -5.064  0.2442E-34  0.0000E+00  0.2108E-09  0.0000E+00  0.2108E-09  0.0000E+00  0.2108E-09  0.0000E+00  0.3337E-34  0.0000E+00  0.3337E-34  0.0000E+00  0.1867E-34  0.0000E+00  0.3337E-34  0.0000E+00  0.1867E-34  0.0000E+00
     -5.002  0.0000E+00  0.0000E+00  0.0000E+00  0.0000E+00  0.0000E+00  0.0000E+00  0.0000E+00  0.0000E+00  0.0000E+00  0.0000E+00  0.0000E+00  0.0000E+00  0.0000E+00  0.0000E+00  0.0000E+00  0.0000E+00  0.0000E+00  0.0000E+00
     -4.939  0.0000E+00  0.0000E+00  0.0000E+00  0.0000E+00  0.0000E+00  0.0000E+00  0.0000E+00  0.0000E+00  0.0000E+00  0.0000E+00  0.0000E+00  0.0000E+00  0.0000E+00  0.0000E+00  0.0000E+00  0.0000E+00  0.0000E+00  0.0000E+00
     -4.877  0.0000E+00  0.0000E+00  0.0000E+00  0.0000E+00  0.0000E+00  0.0000E+00  0.0000E+00  0.0000E+00  0.0000E+00  0.0000E+00  0.0000E+00  0.0000E+00  0.0000E+00  0.0000E+00  0.0000E+00  0.0000E+00  0.0000E+00  0.0000E+00
     -4.815  0.0000E+00  0.0000E+00  0.0000E+00  0.0000E+00  0.0000E+00  0.0000E+00  0.0000E+00  0.0000E+00  0.0000E+00  0.0000E+00  0.0000E+00  0.0000E+00  0.0000E+00  0.0000E+00  0.0000E+00  0.0000E+00  0.0000E+00  0.0000E+00
     -4.752  0.0000E+00  0.0000E+00  0.0000E+00  0.0000E+00  0.0000E+00  0.0000E+00  0.0000E+00  0.0000E+00  0.0000E+00  0.0000E+00  0.0000E+00  0.0000E+00  0.0000E+00  0.0000E+00  0.0000E+00  0.0000E+00  0.0000E+00  0.0000E+00
     -4.690  0.0000E+00  0.0000E+00  0.0000E+00  0.0000E+00  0.0000E+00  0.0000E+00  0.0000E+00  0.0000E+00  0.0000E+00  0.0000E+00  0.0000E+00  0.0000E+00  0.0000E+00  0.0000E+00  0.0000E+00  0.0000E+00  0.0000E+00  0.0000E+00
     -4.628  0.0000E+00  0.0000E+00  0.0000E+00  0.0000E+00  0.0000E+00  0.0000E+00  0.0000E+00  0.0000E+00  0.0000E+00  0.0000E+00  0.0000E+00  0.0000E+00  0.0000E+00  0.0000E+00  0.0000E+00  0.0000E+00  0.0000E+00  0.0000E+00
     -4.565  0.0000E+00  0.0000E+00  0.0000E+00  0.0000E+00  0.0000E+00  0.0000E+00  0.0000E+00  0.0000E+00  0.0000E+00  0.0000E+00  0.0000E+00  0.0000E+00  0.0000E+00  0.0000E+00  0.0000E+00  0.0000E+00  0.0000E+00  0.0000E+00
     -4.503  0.0000E+00  0.0000E+00  0.0000E+00  0.0000E+00  0.0000E+00  0.0000E+00  0.0000E+00  0.0000E+00  0.0000E+00  0.0000E+00  0.0000E+00  0.0000E+00  0.0000E+00  0.0000E+00  0.0000E+00  0.0000E+00  0.0000E+00  0.0000E+00
     -4.441  0.0000E+00  0.0000E+00  0.0000E+00  0.0000E+00  0.0000E+00  0.0000E+00  0.0000E+00  0.0000E+00  0.0000E+00  0.0000E+00  0.0000E+00  0.0000E+00  0.0000E+00  0.0000E+00  0.0000E+00  0.0000E+00  0.0000E+00  0.0000E+00
     -4.378  0.0000E+00  0.0000E+00  0.0000E+00  0.0000E+00  0.0000E+00  0.0000E+00  0.0000E+00  0.0000E+00  0.0000E+00  0.0000E+00  0.0000E+00  0.0000E+00  0.0000E+00  0.0000E+00  0.0000E+00  0.0000E+00  0.0000E+00  0.0000E+00
     -4.316  0.0000E+00  0.0000E+00  0.0000E+00  0.0000E+00  0.0000E+00  0.0000E+00  0.0000E+00  0.0000E+00  0.0000E+00  0.0000E+00  0.0000E+00  0.0000E+00  0.0000E+00  0.0000E+00  0.0000E+00  0.0000E+00  0.0000E+00  0.0000E+00
     -4.254  0.0000E+00  0.0000E+00  0.0000E+00  0.0000E+00  0.0000E+00  0.0000E+00  0.0000E+00  0.0000E+00  0.0000E+00  0.0000E+00  0.0000E+00  0.0000E+00  0.0000E+00  0.0000E+00  0.0000E+00  0.0000E+00  0.0000E+00  0.0000E+00
     -4.191  0.0000E+00  0.0000E+00  0.0000E+00  0.0000E+00  0.0000E+00  0.0000E+00  0.0000E+00  0.0000E+00  0.0000E+00  0.0000E+00  0.0000E+00  0.0000E+00  0.0000E+00  0.0000E+00  0.0000E+00  0.0000E+00  0.0000E+00  0.0000E+00
     -4.129  0.0000E+00  0.0000E+00  0.0000E+00  0.0000E+00  0.0000E+00  0.0000E+00  0.0000E+00  0.0000E+00  0.0000E+00  0.0000E+00  0.0000E+00  0.0000E+00  0.0000E+00  0.0000E+00  0.0000E+00  0.0000E+00  0.0000E+00  0.0000E+00
     -4.067  0.0000E+00  0.0000E+00  0.0000E+00  0.0000E+00  0.0000E+00  0.0000E+00  0.0000E+00  0.0000E+00  0.0000E+00  0.0000E+00  0.0000E+00  0.0000E+00  0.0000E+00  0.0000E+00  0.0000E+00  0.0000E+00  0.0000E+00  0.0000E+00
     -4.005  0.0000E+00  0.0000E+00  0.0000E+00  0.0000E+00  0.0000E+00  0.0000E+00  0.0000E+00  0.0000E+00  0.0000E+00  0.0000E+00  0.0000E+00  0.0000E+00  0.0000E+00  0.0000E+00  0.0000E+00  0.0000E+00  0.0000E+00  0.0000E+00
     -3.942  0.0000E+00  0.0000E+00  0.0000E+00  0.0000E+00  0.0000E+00  0.0000E+00  0.0000E+00  0.0000E+00  0.0000E+00  0.0000E+00  0.0000E+00  0.0000E+00  0.0000E+00  0.0000E+00  0.0000E+00  0.0000E+00  0.0000E+00  0.0000E+00
     -3.880  0.0000E+00  0.0000E+00  0.0000E+00  0.0000E+00  0.0000E+00  0.0000E+00  0.0000E+00  0.0000E+00  0.0000E+00  0.0000E+00  0.0000E+00  0.0000E+00  0.0000E+00  0.0000E+00  0.0000E+00  0.0000E+00  0.0000E+00  0.0000E+00
     -3.818  0.0000E+00  0.0000E+00  0.0000E+00  0.0000E+00  0.0000E+00  0.0000E+00  0.0000E+00  0.0000E+00  0.0000E+00  0.0000E+00  0.0000E+00  0.0000E+00  0.0000E+00  0.0000E+00  0.0000E+00  0.0000E+00  0.0000E+00  0.0000E+00
     -3.755  0.0000E+00  0.0000E+00  0.0000E+00  0.0000E+00  0.0000E+00  0.0000E+00  0.0000E+00  0.0000E+00  0.0000E+00  0.0000E+00  0.0000E+00  0.0000E+00  0.0000E+00  0.0000E+00  0.0000E+00  0.0000E+00  0.0000E+00  0.0000E+00
     -3.693  0.0000E+00  0.6140E-34  0.0000E+00  0.2749E-11  0.0000E+00  0.2749E-11  0.0000E+00  0.2749E-11  0.0000E+00  0.8563E-35  0.0000E+00  0.8563E-35  0.0000E+00  0.4082E-35  0.0000E+00  0.8563E-35  0.0000E+00  0.4082E-35
     -3.631  0.0000E+00  0.4899E-29  0.0000E+00  0.2193E-06  0.0000E+00  0.2193E-06  0.0000E+00  0.2193E-06  0.0000E+00  0.6832E-30  0.0000E+00  0.6832E-30  0.0000E+00  0.3257E-30  0.0000E+00  0.6832E-30  0.0000E+00  0.3257E-30
     -3.568  0.0000E+00  0.1920E-25  0.0000E+00  0.8594E-03  0.0000E+00  0.8594E-03  0.0000E+00  0.8594E-03  0.0000E+00  0.2677E-26  0.0000E+00  0.2677E-26  0.0000E+00  0.1276E-26  0.0000E+00  0.2677E-26  0.0000E+00  0.1276E-26
     -3.506  0.0000E+00  0.4011E-23  0.0000E+00  0.1796E+00  0.0000E+00  0.1796E+00  0.0000E+00  0.1796E+00  0.0000E+00  0.5595E-24  0.0000E+00  0.5595E-24  0.0000E+00  0.2667E-24  0.0000E+00  0.5595E-24  0.0000E+00  0.2667E-24
     -3.444  0.0000E+00  0.5374E-22  0.0000E+00  0.2406E+01  0.0000E+00  0.2406E+01  0.0000E+00  0.2406E+01  0.0000E+00  0.7495E-23  0.0000E+00  0.7495E-23  0.0000E+00  0.3573E-23  0.0000E+00  0.7495E-23  0.0000E+00  0.3573E-23
     -3.381  0.0000E+00  0.5999E-22  0.0000E+00  0.2685E+01  0.0000E+00  0.2685E+01  0.0000E+00  0.2685E+01  0.0000E+00  0.8366E-23  0.0000E+00  0.8366E-23  0.0000E+00  0.3988E-23  0.0000E+00  0.8366E-23  0.0000E+00  0.3988E-23
     -3.319  0.0000E+00  0.5679E-23  0.0000E+00  0.2542E+00  0.0000E+00  0.2542E+00  0.0000E+00  0.2542E+00  0.0000E+00  0.7920E-24  0.0000E+00  0.7920E-24  0.0000E+00  0.3776E-24  0.0000E+00  0.7920E-24  0.0000E+00  0.3776E-24
     -3.257  0.0000E+00  0.3528E-25  0.0000E+00  0.1579E-02  0.0000E+00  0.1579E-02  0.0000E+00  0.1579E-02  0.0000E+00  0.4920E-26  0.0000E+00  0.4920E-26  0.0000E+00  0.2345E-26  0.0000E+00  0.4920E-26  0.0000E+00  0.2345E-26
     -3.194  0.0000E+00  0.1182E-28  0.0000E+00  0.5293E-06  0.0000E+00  0.5293E-06  0.0000E+00  0.5293E-06  0.0000E+00  0.1649E-29  0.0000E+00  0.1649E-29  0.0000E+00  0.7860E-30  0.0000E+00  0.1649E-29  0.0000E+00  0.7860E-30
     -3.132  0.0000E+00  0.1956E-33  0.0000E+00  0.8756E-11  0.0000E+00  0.8756E-11  0.0000E+00  0.8756E-11  0.0000E+00  0.2728E-34  0.0000E+00  0.2728E-34  0.0000E+00  0.1300E-34  0.0000E+00  0.2728E-34  0.0000E+00  0.1300E-34
     -3.070  0.0000E+00  0.0000E+00  0.0000E+00  0.0000E+00  0.0000E+00  0.0000E+00  0.0000E+00  0.0000E+00  0.0000E+00  0.0000E+00  0.0000E+00  0.0000E+00  0.0000E+00  0.0000E+00  0.0000E+00  0.0000E+00  0.0000E+00  0.0000E+00
     -3.007  0.0000E+00  0.0000E+00  0.0000E+00  0.0000E+00  0.0000E+00  0.0000E+00  0.0000E+00  0.0000E+00  0.0000E+00  0.0000E+00  0.0000E+00  0.0000E+00  0.0000E+00  0.0000E+00  0.0000E+00  0.0000E+00  0.0000E+00  0.0000E+00
     -2.945  0.0000E+00  0.0000E+00  0.0000E+00  0.0000E+00  0.0000E+00  0.0000E+00  0.0000E+00  0.0000E+00  0.0000E+00  0.0000E+00  0.0000E+00  0.0000E+00  0.0000E+00  0.0000E+00  0.0000E+00  0.0000E+00  0.0000E+00  0.0000E+00
     -2.883  0.0000E+00  0.0000E+00  0.0000E+00  0.0000E+00  0.0000E+00  0.0000E+00  0.0000E+00  0.0000E+00  0.0000E+00  0.0000E+00  0.0000E+00  0.0000E+00  0.0000E+00  0.0000E+00  0.0000E+00  0.0000E+00  0.0000E+00  0.0000E+00
     -2.820  0.0000E+00  0.0000E+00  0.0000E+00  0.0000E+00  0.0000E+00  0.0000E+00  0.0000E+00  0.0000E+00  0.0000E+00  0.0000E+00  0.0000E+00  0.0000E+00  0.0000E+00  0.0000E+00  0.0000E+00  0.0000E+00  0.0000E+00  0.0000E+00
     -2.758  0.0000E+00  0.0000E+00  0.0000E+00  0.0000E+00  0.0000E+00  0.0000E+00  0.0000E+00  0.0000E+00  0.0000E+00  0.0000E+00  0.0000E+00  0.0000E+00  0.0000E+00  0.0000E+00  0.0000E+00  0.0000E+00  0.0000E+00  0.0000E+00
     -2.696  0.0000E+00  0.0000E+00  0.0000E+00  0.0000E+00  0.0000E+00  0.0000E+00  0.0000E+00  0.0000E+00  0.0000E+00  0.0000E+00  0.0000E+00  0.0000E+00  0.0000E+00  0.0000E+00  0.0000E+00  0.0000E+00  0.0000E+00  0.0000E+00
     -2.634  0.0000E+00  0.0000E+00  0.0000E+00  0.0000E+00  0.0000E+00  0.0000E+00  0.0000E+00  0.0000E+00  0.0000E+00  0.0000E+00  0.0000E+00  0.0000E+00  0.0000E+00  0.0000E+00  0.0000E+00  0.0000E+00  0.0000E+00  0.0000E+00
     -2.571  0.0000E+00  0.0000E+00  0.0000E+00  0.0000E+00  0.0000E+00  0.0000E+00  0.0000E+00  0.0000E+00  0.0000E+00  0.0000E+00  0.0000E+00  0.0000E+00  0.0000E+00  0.0000E+00  0.0000E+00  0.0000E+00  0.0000E+00  0.0000E+00
     -2.509  0.0000E+00  0.0000E+00  0.0000E+00  0.0000E+00  0.0000E+00  0.0000E+00  0.0000E+00  0.0000E+00  0.0000E+00  0.0000E+00  0.0000E+00  0.0000E+00  0.0000E+00  0.0000E+00  0.0000E+00  0.0000E+00  0.0000E+00  0.0000E+00
     -2.447  0.0000E+00  0.0000E+00  0.0000E+00  0.0000E+00  0.0000E+00  0.0000E+00  0.0000E+00  0.0000E+00  0.0000E+00  0.0000E+00  0.0000E+00  0.0000E+00  0.0000E+00  0.0000E+00  0.0000E+00  0.0000E+00  0.0000E+00  0.0000E+00
     -2.384  0.0000E+00  0.0000E+00  0.0000E+00  0.0000E+00  0.0000E+00  0.0000E+00  0.0000E+00  0.0000E+00  0.0000E+00  0.0000E+00  0.0000E+00  0.0000E+00  0.0000E+00  0.0000E+00  0.0000E+00  0.0000E+00  0.0000E+00  0.0000E+00
     -2.322  0.0000E+00  0.0000E+00  0.0000E+00  0.0000E+00  0.0000E+00  0.0000E+00  0.0000E+00  0.0000E+00  0.0000E+00  0.0000E+00  0.0000E+00  0.0000E+00  0.0000E+00  0.0000E+00  0.0000E+00  0.0000E+00  0.0000E+00  0.0000E+00
     -2.260  0.0000E+00  0.0000E+00  0.0000E+00  0.0000E+00  0.0000E+00  0.0000E+00  0.0000E+00  0.0000E+00  0.0000E+00  0.0000E+00  0.0000E+00  0.0000E+00  0.0000E+00  0.0000E+00  0.0000E+00  0.0000E+00  0.0000E+00  0.0000E+00
     -2.197  0.0000E+00  0.0000E+00  0.0000E+00  0.0000E+00  0.0000E+00  0.0000E+00  0.0000E+00  0.0000E+00  0.0000E+00  0.0000E+00  0.0000E+00  0.0000E+00  0.0000E+00  0.0000E+00  0.0000E+00  0.0000E+00  0.0000E+00  0.0000E+00
     -2.135  0.0000E+00  0.0000E+00  0.0000E+00  0.0000E+00  0.0000E+00  0.0000E+00  0.0000E+00  0.0000E+00  0.0000E+00  0.0000E+00  0.0000E+00  0.0000E+00  0.0000E+00  0.0000E+00  0.0000E+00  0.0000E+00  0.0000E+00  0.0000E+00
     -2.073  0.0000E+00  0.0000E+00  0.0000E+00  0.0000E+00  0.0000E+00  0.0000E+00  0.0000E+00  0.0000E+00  0.0000E+00  0.0000E+00  0.0000E+00  0.0000E+00  0.0000E+00  0.0000E+00  0.0000E+00  0.0000E+00  0.0000E+00  0.0000E+00
     -2.010  0.0000E+00  0.0000E+00  0.0000E+00  0.0000E+00  0.0000E+00  0.0000E+00  0.0000E+00  0.0000E+00  0.0000E+00  0.0000E+00  0.0000E+00  0.0000E+00  0.0000E+00  0.0000E+00  0.0000E+00  0.0000E+00  0.0000E+00  0.0000E+00
     -1.948  0.0000E+00  0.0000E+00  0.0000E+00  0.0000E+00  0.0000E+00  0.0000E+00  0.0000E+00  0.0000E+00  0.0000E+00  0.0000E+00  0.0000E+00  0.0000E+00  0.0000E+00  0.0000E+00  0.0000E+00  0.0000E+00  0.0000E+00  0.0000E+00
     -1.886  0.0000E+00  0.0000E+00  0.0000E+00  0.0000E+00  0.0000E+00  0.0000E+00  0.0000E+00  0.0000E+00  0.0000E+00  0.0000E+00  0.0000E+00  0.0000E+00  0.0000E+00  0.0000E+00  0.0000E+00  0.0000E+00  0.0000E+00  0.0000E+00
     -1.823  0.0000E+00  0.0000E+00  0.0000E+00  0.0000E+00  0.0000E+00  0.0000E+00  0.0000E+00  0.0000E+00  0.0000E+00  0.0000E+00  0.0000E+00  0.0000E+00  0.0000E+00  0.0000E+00  0.0000E+00  0.0000E+00  0.0000E+00  0.0000E+00
     -1.761  0.0000E+00  0.0000E+00  0.0000E+00  0.0000E+00  0.0000E+00  0.0000E+00  0.0000E+00  0.0000E+00  0.0000E+00  0.0000E+00  0.0000E+00  0.0000E+00  0.0000E+00  0.0000E+00  0.0000E+00  0.0000E+00  0.0000E+00  0.0000E+00
     -1.699  0.0000E+00  0.0000E+00  0.0000E+00  0.0000E+00  0.0000E+00  0.0000E+00  0.0000E+00  0.0000E+00  0.0000E+00  0.0000E+00  0.0000E+00  0.0000E+00  0.0000E+00  0.0000E+00  0.0000E+00  0.0000E+00  0.0000E+00  0.0000E+00
     -1.636  0.0000E+00  0.0000E+00  0.0000E+00  0.0000E+00  0.0000E+00  0.0000E+00  0.0000E+00  0.0000E+00  0.0000E+00  0.0000E+00  0.0000E+00  0.0000E+00  0.0000E+00  0.0000E+00  0.0000E+00  0.0000E+00  0.0000E+00  0.0000E+00
     -1.574  0.0000E+00  0.0000E+00  0.0000E+00  0.0000E+00  0.0000E+00  0.0000E+00  0.0000E+00  0.0000E+00  0.0000E+00  0.0000E+00  0.0000E+00  0.0000E+00  0.0000E+00  0.0000E+00  0.0000E+00  0.0000E+00  0.0000E+00  0.0000E+00
     -1.512  0.0000E+00  0.0000E+00  0.0000E+00  0.0000E+00  0.0000E+00  0.0000E+00  0.0000E+00  0.0000E+00  0.0000E+00  0.0000E+00  0.0000E+00  0.0000E+00  0.0000E+00  0.0000E+00  0.0000E+00  0.0000E+00  0.0000E+00  0.0000E+00
     -1.449  0.0000E+00  0.0000E+00  0.0000E+00  0.0000E+00  0.0000E+00  0.0000E+00  0.0000E+00  0.0000E+00  0.0000E+00  0.0000E+00  0.0000E+00  0.0000E+00  0.0000E+00  0.0000E+00  0.0000E+00  0.0000E+00  0.0000E+00  0.0000E+00
     -1.387  0.0000E+00  0.0000E+00  0.0000E+00  0.0000E+00  0.0000E+00  0.0000E+00  0.0000E+00  0.0000E+00  0.0000E+00  0.0000E+00  0.0000E+00  0.0000E+00  0.0000E+00  0.0000E+00  0.0000E+00  0.0000E+00  0.0000E+00  0.0000E+00
     -1.325  0.0000E+00  0.0000E+00  0.0000E+00  0.0000E+00  0.0000E+00  0.0000E+00  0.0000E+00  0.0000E+00  0.0000E+00  0.0000E+00  0.0000E+00  0.0000E+00  0.0000E+00  0.0000E+00  0.0000E+00  0.0000E+00  0.0000E+00  0.0000E+00
     -1.262  0.0000E+00  0.0000E+00  0.0000E+00  0.0000E+00  0.0000E+00  0.0000E+00  0.0000E+00  0.0000E+00  0.0000E+00  0.0000E+00  0.0000E+00  0.0000E+00  0.0000E+00  0.0000E+00  0.0000E+00  0.0000E+00  0.0000E+00  0.0000E+00
     -1.200  0.0000E+00  0.0000E+00  0.0000E+00  0.0000E+00  0.0000E+00  0.0000E+00  0.0000E+00  0.0000E+00  0.0000E+00  0.0000E+00  0.0000E+00  0.0000E+00  0.0000E+00  0.0000E+00  0.0000E+00  0.0000E+00  0.0000E+00  0.0000E+00
     -1.138  0.0000E+00  0.0000E+00  0.0000E+00  0.0000E+00  0.0000E+00  0.0000E+00  0.0000E+00  0.0000E+00  0.0000E+00  0.0000E+00  0.0000E+00  0.0000E+00  0.0000E+00  0.0000E+00  0.0000E+00  0.0000E+00  0.0000E+00  0.0000E+00
     -1.076  0.0000E+00  0.0000E+00  0.0000E+00  0.0000E+00  0.0000E+00  0.0000E+00  0.0000E+00  0.0000E+00  0.0000E+00  0.0000E+00  0.0000E+00  0.0000E+00  0.0000E+00  0.0000E+00  0.0000E+00  0.0000E+00  0.0000E+00  0.0000E+00
     -1.013  0.0000E+00  0.0000E+00  0.0000E+00  0.0000E+00  0.0000E+00  0.0000E+00  0.0000E+00  0.0000E+00  0.0000E+00  0.0000E+00  0.0000E+00  0.0000E+00  0.0000E+00  0.0000E+00  0.0000E+00  0.0000E+00  0.0000E+00  0.0000E+00
     -0.951  0.0000E+00  0.0000E+00  0.0000E+00  0.0000E+00  0.0000E+00  0.0000E+00  0.0000E+00  0.0000E+00  0.0000E+00  0.0000E+00  0.0000E+00  0.0000E+00  0.0000E+00  0.0000E+00  0.0000E+00  0.0000E+00  0.0000E+00  0.0000E+00
     -0.889  0.0000E+00  0.0000E+00  0.0000E+00  0.0000E+00  0.0000E+00  0.0000E+00  0.0000E+00  0.0000E+00  0.0000E+00  0.0000E+00  0.0000E+00  0.0000E+00  0.0000E+00  0.0000E+00  0.0000E+00  0.0000E+00  0.0000E+00  0.0000E+00
     -0.826  0.5510E-16  0.0000E+00  0.7692E-37  0.0000E+00  0.7692E-37  0.0000E+00  0.7692E-37  0.0000E+00  0.1319E-37  0.0000E+00  0.1319E-37  0.0000E+00  0.1667E-36  0.0000E+00  0.1319E-37  0.0000E+00  0.1667E-36  0.0000E+00
     -0.764  0.2530E-10  0.0000E+00  0.3533E-31  0.0000E+00  0.3533E-31  0.0000E+00  0.3533E-31  0.0000E+00  0.6057E-32  0.0000E+00  0.6057E-32  0.0000E+00  0.7654E-31  0.0000E+00  0.6057E-32  0.0000E+00  0.7654E-31  0.0000E+00
     -0.702  0.6413E-06  0.0000E+00  0.8954E-27  0.0000E+00  0.8954E-27  0.0000E+00  0.8954E-27  0.0000E+00  0.1535E-27  0.0000E+00  0.1535E-27  0.0000E+00  0.1940E-26  0.0000E+00  0.1535E-27  0.0000E+00  0.1940E-26  0.0000E+00
     -0.639  0.8173E-03  0.0000E+00  0.1141E-23  0.0000E+00  0.1141E-23  0.0000E+00  0.1141E-23  0.0000E+00  0.1956E-24  0.0000E+00  0.1956E-24  0.0000E+00  0.2472E-23  0.0000E+00  0.1956E-24  0.0000E+00  0.2472E-23  0.0000E+00
     -0.577  0.5863E-01  0.0000E+00  0.8186E-22  0.0000E+00  0.8186E-22  0.0000E+00  0.8186E-22  0.0000E+00  0.1404E-22  0.0000E+00  0.1404E-22  0.0000E+00  0.1774E-21  0.0000E+00  0.1404E-22  0.0000E+00  0.1774E-21  0.0000E+00
     -0.515  0.2985E+00  0.0000E+00  0.4167E-21  0.0000E+00  0.4167E-21  0.0000E+00  0.4167E-21  0.0000E+00  0.7146E-22  0.0000E+00  0.7146E-22  0.0000E+00  0.9029E-21  0.0000E+00  0.7146E-22  0.0000E+00  0.9029E-21  0.0000E+00
     -0.452  0.1337E+00  0.0000E+00  0.1866E-21  0.0000E+00  0.1866E-21  0.0000E+00  0.1866E-21  0.0000E+00  0.3199E-22  0.0000E+00  0.3199E-22  0.0000E+00  0.4043E-21  0.0000E+00  0.3199E-22  0.0000E+00  0.4043E-21  0.0000E+00
     -0.390  0.4657E-02  0.0000E+00  0.6502E-23  0.0000E+00  0.6502E-23  0.0000E+00  0.6502E-23  0.0000E+00  0.1115E-23  0.0000E+00  0.1115E-23  0.0000E+00  0.1409E-22  0.0000E+00  0.1115E-23  0.0000E+00  0.1409E-22  0.0000E+00
     -0.328  0.9732E-05  0.0000E+00  0.1359E-25  0.0000E+00  0.1359E-25  0.0000E+00  0.1359E-25  0.0000E+00  0.2330E-26  0.0000E+00  0.2330E-26  0.0000E+00  0.2944E-25  0.0000E+00  0.2330E-26  0.0000E+00  0.2944E-25  0.0000E+00
     -0.265  0.1051E-08  0.2274E-11  0.1468E-29  0.1894E-31  0.1468E-29  0.1894E-31  0.1468E-29  0.1894E-31  0.2517E-30  0.5591E-32  0.2517E-30  0.5591E-32  0.3180E-29  0.3055E-31  0.2517E-30  0.5591E-32  0.3180E-29  0.3055E-31
     -0.203  0.5510E-14  0.7775E-07  0.7692E-35  0.6476E-27  0.7692E-35  0.6476E-27  0.7692E-35  0.6476E-27  0.1319E-35  0.1911E-27  0.1319E-35  0.1911E-27  0.1667E-34  0.1045E-26  0.1319E-35  0.1911E-27  0.1667E-34  0.1045E-26
     -0.141  0.0000E+00  0.1327E-03  0.0000E+00  0.1106E-23  0.0000E+00  0.1106E-23  0.0000E+00  0.1106E-23  0.0000E+00  0.3263E-24  0.0000E+00  0.3263E-24  0.0000E+00  0.1783E-23  0.0000E+00  0.3263E-24  0.0000E+00  0.1783E-23
     -0.078  0.0000E+00  0.1256E-01  0.0000E+00  0.1046E-21  0.0000E+00  0.1046E-21  0.0000E+00  0.1046E-21  0.0000E+00  0.3087E-22  0.0000E+00  0.3087E-22  0.0000E+00  0.1687E-21  0.0000E+00  0.3087E-22  0.0000E+00  0.1687E-21
     -0.016  0.4163E-16  0.8200E-01  0.6113E-36  0.6831E-21  0.8464E-36  0.6831E-21  0.7053E-36  0.6831E-21  0.4702E-37  0.2016E-21  0.7053E-37  0.2016E-21  0.6583E-36  0.1102E-20  0.9404E-37  0.2016E-21  0.8464E-36  0.1102E-20
      0.046  0.2475E-10  0.4667E-01  0.1820E-30  0.3888E-21  0.1820E-30  0.3888E-21  0.1820E-30  0.3888E-21  0.5073E-31  0.1147E-21  0.5073E-31  0.1147E-21  0.4150E-30  0.6271E-21  0.5073E-31  0.1147E-21  0.4150E-30  0.6271E-21
      0.109  0.4412E-06  0.2121E-02  0.3244E-26  0.1766E-22  0.3244E-26  0.1766E-22  0.3244E-26  0.1766E-22  0.9041E-27  0.5213E-23  0.9041E-27  0.5213E-23  0.7396E-26  0.2849E-22  0.9041E-27  0.5213E-23  0.7396E-26  0.2849E-22
      0.171  0.3988E-03  0.5906E-05  0.6640E-15  0.4919E-25  0.6640E-15  0.4919E-25  0.6640E-15  0.4919E-25  0.8174E-24  0.1452E-25  0.8174E-24  0.1452E-25  0.6687E-23  0.7934E-25  0.8174E-24  0.1452E-25  0.6687E-23  0.7934E-25
      0.233  0.2072E-01  0.8586E-09  0.1840E-09  0.0000E+00  0.1840E-09  0.0000E+00  0.1840E-09  0.0000E+00  0.4245E-22  0.2111E-29  0.4245E-22  0.2111E-29  0.3473E-21  0.1153E-28  0.4245E-22  0.2111E-29  0.3473E-21  0.1153E-28
      0.296  0.7889E-01  0.6051E-14  0.2492E-05  0.0000E+00  0.2492E-05  0.0000E+00  0.2492E-05  0.0000E+00  0.1619E-21  0.1514E-34  0.1619E-21  0.1516E-34  0.3695E-12  0.0000E+00  0.1619E-21  0.1519E-34  0.3695E-12  0.0000E+00
      0.358  0.2657E-01  0.9896E-11  0.1724E-02  0.0000E+00  0.1724E-02  0.0000E+00  0.1724E-02  0.0000E+00  0.1880E-21  0.9661E-31  0.1880E-21  0.9661E-31  0.1732E-07  0.0000E+00  0.1880E-21  0.9661E-31  0.1732E-07  0.0000E+00
      0.420  0.6747E-03  0.2518E-06  0.6974E-01  0.4163E-16  0.6974E-01  0.2776E-16  0.6974E-01  0.3469E-16  0.5480E-20  0.2458E-26  0.5480E-20  0.2458E-26  0.4027E-04  0.0000E+00  0.5480E-20  0.2458E-26  0.4027E-04  0.0000E+00
      0.482  0.1003E-05  0.3220E-03  0.2121E+00  0.1751E-10  0.2121E+00  0.1751E-10  0.2121E+00  0.1751E-10  0.2637E-19  0.3144E-23  0.2637E-19  0.3144E-23  0.5109E-02  0.3701E-14  0.2637E-19  0.3144E-23  0.5109E-02  0.3701E-14
      0.545  0.7633E-10  0.2319E-01  0.5707E-01  0.3495E-06  0.5707E-01  0.3495E-06  0.5707E-01  0.3495E-06  0.6367E-15  0.2264E-21  0.6367E-15  0.2264E-21  0.4349E-01  0.2997E-09  0.6367E-15  0.2264E-21  0.4349E-01  0.2997E-09
      0.607  0.3678E-15  0.1184E+00  0.1129E-02  0.3529E-03  0.1129E-02  0.3529E-03  0.1129E-02  0.3529E-03  0.1666E-09  0.1240E-20  0.1666E-09  0.1240E-20  0.3184E-01  0.1193E-05  0.1666E-09  0.1240E-20  0.3184E-01  0.1193E-05
      0.669  0.0000E+00  0.5318E-01  0.1285E-05  0.2033E-01  0.1285E-05  0.2033E-01  0.1285E-05  0.2033E-01  0.2113E-05  0.1842E-19  0.2113E-05  0.1779E-19  0.1907E-02  0.2530E-03  0.2113E-05  0.1779E-19  0.1907E-02  0.2530E-03
      0.732  0.0000E+00  0.1859E-02  0.7426E-10  0.8500E-01  0.7426E-10  0.8500E-01  0.7426E-10  0.8500E-01  0.1373E-02  0.4337E-18  0.1373E-02  0.5421E-18  0.7172E-05  0.3435E-02  0.1373E-02  0.5421E-18  0.7172E-05  0.3435E-02
      0.794  0.0000E+00  0.3900E-05  0.1409E-14  0.3139E-01  0.1398E-14  0.3139E-01  0.1402E-14  0.3139E-01  0.5235E-01  0.0000E+00  0.5235E-01  0.0000E+00  0.1424E-08  0.3882E-02  0.5235E-01  0.0000E+00  0.1424E-08  0.3882E-02
      0.856  0.2873E-15  0.4229E-09  0.2540E-09  0.8831E-03  0.2540E-09  0.8831E-03  0.2540E-09  0.8831E-03  0.1510E+00  0.0000E+00  0.1510E+00  0.0000E+00  0.2047E-11  0.3724E-03  0.1510E+00  0.0000E+00  0.2047E-11  0.3724E-03
      0.919  0.8063E-10  0.2230E-14  0.2649E-05  0.1466E-05  0.2649E-05  0.1466E-05  0.2649E-05  0.1466E-05  0.3852E-01  0.0000E+00  0.3852E-01  0.0000E+00  0.7111E-07  0.2348E-05  0.3852E-01  0.0000E+00  0.7111E-07  0.2348E-05
      0.981  0.1106E-05  0.0000E+00  0.1423E-02  0.1249E-09  0.1423E-02  0.1249E-09  0.1423E-02  0.1249E-09  0.7179E-03  0.6089E-15  0.7179E-03  0.6089E-15  0.1241E-03  0.7990E-09  0.7179E-03  0.6091E-15  0.1241E-03  0.7990E-09
      1.043  0.7744E-03  0.1296E-16  0.4545E-01  0.5031E-15  0.4545E-01  0.4927E-15  0.4545E-01  0.4927E-15  0.7671E-06  0.1062E-09  0.7671E-06  0.1062E-09  0.1200E-01  0.1343E-13  0.7671E-06  0.1062E-09  0.1200E-01  0.1343E-13
      1.106  0.3168E-01  0.4938E-11  0.1118E+00  0.6488E-14  0.1118E+00  0.6495E-14  0.1118E+00  0.6488E-14  0.4154E-10  0.8975E-06  0.4154E-10  0.8975E-06  0.7986E-01  0.0000E+00  0.4154E-10  0.8975E-06  0.7986E-01  0.0000E+00
      1.168  0.9736E-01  0.1570E-06  0.2425E-01  0.9856E-09  0.2425E-01  0.9856E-09  0.2425E-01  0.9856E-09  0.1085E-15  0.3931E-03  0.1087E-15  0.3931E-03  0.4629E-01  0.3202E-14  0.1087E-15  0.3931E-03  0.4629E-01  0.3206E-14
      1.230  0.2647E-01  0.2496E-03  0.3774E-03  0.7345E-05  0.3774E-03  0.7345E-05  0.3774E-03  0.7345E-05  0.0000E+00  0.1040E-01  0.0000E+00  0.1040E-01  0.2146E-02  0.3172E-09  0.0000E+00  0.1040E-01  0.2146E-02  0.3172E-09
      1.293  0.5296E-03  0.2207E-01  0.3329E-06  0.2850E-02  0.3329E-06  0.2850E-02  0.3329E-06  0.2850E-02  0.0000E+00  0.2156E-01  0.0000E+00  0.2156E-01  0.6109E-05  0.1536E-05  0.0000E+00  0.2156E-01  0.6109E-05  0.1536E-05
      1.355  0.6103E-06  0.1356E+00  0.1481E-10  0.6738E-01  0.1481E-10  0.6738E-01  0.1481E-10  0.6738E-01  0.0000E+00  0.3925E-02  0.0000E+00  0.3925E-02  0.9086E-09  0.3931E-03  0.0000E+00  0.3925E-02  0.9086E-09  0.3931E-03
      1.417  0.3572E-10  0.7284E-01  0.5551E-16  0.1263E+00  0.4163E-16  0.1263E+00  0.5551E-16  0.1263E+00  0.9421E-15  0.5026E-04  0.9421E-15  0.5026E-04  0.6579E-14  0.6340E-02  0.9421E-15  0.5026E-04  0.6580E-14  0.6340E-02
      1.480  0.1032E-15  0.3104E-02  0.0000E+00  0.2069E-01  0.0000E+00  0.2069E-01  0.0000E+00  0.2069E-01  0.1967E-09  0.3605E-07  0.1967E-09  0.3605E-07  0.4551E-13  0.8392E-02  0.1967E-09  0.3605E-07  0.4552E-13  0.8392E-02
      1.542  0.0000E+00  0.8062E-05  0.0000E+00  0.2358E-03  0.0000E+00  0.2358E-03  0.0000E+00  0.2358E-03  0.1982E-05  0.1297E-11  0.1982E-05  0.1297E-11  0.4967E-08  0.9532E-03  0.1982E-05  0.1297E-11  0.4967E-08  0.9532E-03
      1.604  0.1106E-22  0.1090E-08  0.8330E-16  0.1495E-06  0.8330E-16  0.1495E-06  0.8330E-16  0.1495E-06  0.1030E-02  0.0000E+00  0.1030E-02  0.0000E+00  0.2648E-04  0.7239E-05  0.1030E-02  0.0000E+00  0.2648E-04  0.7239E-05
      1.667  0.5654E-17  0.7168E-14  0.2776E-10  0.4741E-11  0.2776E-10  0.4741E-11  0.2776E-10  0.4741E-11  0.3193E-01  0.5239E-15  0.3193E-01  0.5204E-15  0.7440E-02  0.2994E-08  0.3193E-01  0.5135E-15  0.7440E-02  0.2994E-08
      1.729  0.2698E-11  0.0000E+00  0.4421E-06  0.0000E+00  0.4421E-06  0.0000E+00  0.4421E-06  0.0000E+00  0.7640E-01  0.1019E-09  0.7640E-01  0.1019E-09  0.1306E+00  0.6138E-13  0.7640E-01  0.1019E-09  0.1306E+00  0.6140E-13
      1.791  0.8093E-07  0.0000E+00  0.3582E-03  0.1748E-16  0.3582E-03  0.1748E-16  0.3582E-03  0.1746E-16  0.1611E-01  0.9479E-06  0.1611E-01  0.9479E-06  0.1869E+00  0.0000E+00  0.1611E-01  0.9479E-06  0.1869E+00  0.0000E+00
      1.854  0.1216E-03  0.5299E-17  0.1679E-01  0.8368E-11  0.1679E-01  0.8368E-11  0.1679E-01  0.8368E-11  0.2430E-03  0.4556E-03  0.2430E-03  0.4556E-03  0.2306E-01  0.0000E+00  0.2430E-03  0.4556E-03  0.2306E-01  0.0000E+00
      1.916  0.1019E-01  0.1976E-11  0.5831E-01  0.1890E-06  0.5831E-01  0.1890E-06  0.5831E-01  0.1890E-06  0.2073E-06  0.1313E-01  0.2073E-06  0.1313E-01  0.1918E-03  0.1626E-18  0.2073E-06  0.1313E-01  0.1918E-03  0.2168E-18
      1.978  0.5969E-01  0.6310E-07  0.1792E-01  0.2152E-03  0.1792E-01  0.2152E-03  0.1792E-01  0.2152E-03  0.8914E-11  0.2943E-01  0.8914E-11  0.2943E-01  0.8733E-07  0.4220E-18  0.8914E-11  0.2943E-01  0.8733E-07  0.4220E-18
      2.040  0.3060E-01  0.1007E-03  0.4109E-03  0.1389E-01  0.4109E-03  0.1389E-01  0.4109E-03  0.1389E-01  0.2728E-15  0.5803E-02  0.2728E-15  0.5803E-02  0.1975E-11  0.8321E-19  0.2737E-15  0.5803E-02  0.1975E-11  0.8321E-19
      2.103  0.1239E-02  0.8944E-02  0.5479E-06  0.6427E-01  0.5479E-06  0.6427E-01  0.5479E-06  0.6427E-01  0.3503E-17  0.8122E-04  0.3497E-17  0.8122E-04  0.2025E-22  0.3120E-12  0.3497E-17  0.8122E-04  0.2025E-22  0.3120E-12
      2.165  0.3044E-05  0.5517E-01  0.3724E-10  0.2622E-01  0.3724E-10  0.2622E-01  0.3724E-10  0.2622E-01  0.6947E-16  0.6402E-07  0.6947E-16  0.6402E-07  0.0000E+00  0.1934E-07  0.6947E-16  0.6402E-07  0.0000E+00  0.1934E-07
      2.227  0.3887E-09  0.2973E-01  0.2986E-14  0.8243E-03  0.2986E-14  0.8243E-03  0.2986E-14  0.8243E-03  0.2865E-10  0.2538E-11  0.2865E-10  0.2538E-11  0.0000E+00  0.5916E-04  0.2865E-10  0.2538E-11  0.0000E+00  0.5916E-04
      2.290  0.2419E-14  0.1271E-02  0.4578E-09  0.1541E-05  0.4578E-09  0.1541E-05  0.4578E-09  0.1541E-05  0.6721E-06  0.5457E-17  0.6721E-06  0.5457E-17  0.0000E+00  0.9751E-02  0.6721E-06  0.5457E-17  0.0000E+00  0.9751E-02
      2.352  0.0000E+00  0.3316E-05  0.3558E-05  0.1485E-09  0.3558E-05  0.1485E-09  0.3558E-05  0.1485E-09  0.7941E-03  0.1084E-18  0.7941E-03  0.3253E-18  0.0000E+00  0.1052E+00  0.7941E-03  0.2168E-18  0.0000E+00  0.1052E+00
      2.414  0.7000E-15  0.4505E-09  0.1438E-02  0.6905E-15  0.1438E-02  0.6906E-15  0.1438E-02  0.6909E-15  0.5305E-01  0.0000E+00  0.5305E-01  0.0000E+00  0.0000E+00  0.9618E-01  0.5305E-01  0.0000E+00  0.0000E+00  0.9618E-01
      2.477  0.1366E-09  0.2981E-14  0.3528E-01  0.2291E-13  0.3528E-01  0.2291E-13  0.3528E-01  0.2291E-13  0.2533E+00  0.0000E+00  0.2533E+00  0.0000E+00  0.0000E+00  0.7337E-02  0.2533E+00  0.0000E+00  0.0000E+00  0.7337E-02
      2.539  0.1289E-05  0.5514E-14  0.6840E-01  0.2243E-08  0.6840E-01  0.2243E-08  0.6840E-01  0.2243E-08  0.1065E+00  0.0000E+00  0.1065E+00  0.0000E+00  0.1751E-16  0.3596E-04  0.1065E+00  0.0000E+00  0.1751E-16  0.3596E-04
      2.601  0.6279E-03  0.7072E-09  0.1161E-01  0.1074E-04  0.1161E-01  0.1074E-04  0.1161E-01  0.1074E-04  0.3464E-02  0.0000E+00  0.3464E-02  0.0000E+00  0.8143E-11  0.9405E-08  0.3464E-02  0.0000E+00  0.8143E-11  0.9405E-08
      2.664  0.1832E-01  0.4420E-05  0.1375E-03  0.2721E-02  0.1375E-03  0.2721E-02  0.1375E-03  0.2721E-02  0.6718E-05  0.8117E-14  0.6718E-05  0.8117E-14  0.1851E-06  0.1209E-12  0.6718E-05  0.8117E-14  0.1851E-06  0.1209E-12
      2.726  0.4155E-01  0.1447E-02  0.9087E-07  0.4347E-01  0.9087E-07  0.4347E-01  0.9087E-07  0.4347E-01  0.6719E-09  0.1275E-08  0.6719E-09  0.1275E-08  0.2122E-03  0.0000E+00  0.6719E-09  0.1275E-08  0.2122E-03  0.0000E+00
      2.788  0.8288E-02  0.2925E-01  0.3006E-11  0.5703E-01  0.3006E-11  0.5703E-01  0.3006E-11  0.5703E-01  0.3242E-14  0.9723E-05  0.3242E-14  0.9723E-05  0.1378E-01  0.5152E-15  0.3242E-14  0.9723E-05  0.1378E-01  0.5091E-15
      2.851  0.1175E-03  0.4756E-01  0.2242E-15  0.6417E-02  0.2251E-15  0.6417E-02  0.2251E-15  0.6417E-02  0.0000E+00  0.3857E-02  0.0000E+00  0.3857E-02  0.6411E-01  0.1204E-09  0.0000E+00  0.3857E-02  0.6411E-01  0.1204E-09
      2.913  0.9394E-07  0.6716E-02  0.4614E-10  0.4823E-04  0.4614E-10  0.4823E-04  0.4614E-10  0.4823E-04  0.0000E+00  0.9306E-01  0.0000E+00  0.9306E-01  0.2630E-01  0.1364E-05  0.0000E+00  0.9306E-01  0.2630E-01  0.1364E-05
      2.975  0.3776E-11  0.6489E-04  0.4593E-06  0.1974E-07  0.4593E-06  0.1974E-07  0.4593E-06  0.1974E-07  0.0000E+00  0.1777E+00  0.0000E+00  0.1777E+00  0.8315E-03  0.7941E-03  0.0000E+00  0.1777E+00  0.8315E-03  0.7941E-03
      3.038  0.7650E-17  0.3457E-07  0.2359E-03  0.4002E-12  0.2359E-03  0.4002E-12  0.2359E-03  0.4002E-12  0.0000E+00  0.2968E-01  0.0000E+00  0.2968E-01  0.1565E-05  0.2734E-01  0.0000E+00  0.2968E-01  0.1565E-05  0.2734E-01
      3.100  0.4816E-20  0.9180E-12  0.7227E-02  0.3017E-13  0.7227E-02  0.3017E-13  0.7227E-02  0.3017E-13  0.0000E+00  0.3454E-03  0.0000E+00  0.3454E-03  0.1534E-09  0.7194E-01  0.0000E+00  0.3454E-03  0.1534E-09  0.7194E-01
      3.162  0.3068E-13  0.5767E-20  0.1714E-01  0.1171E-08  0.1714E-01  0.1171E-08  0.1714E-01  0.1171E-08  0.4668E-19  0.2240E-06  0.4663E-19  0.2240E-06  0.1185E-07  0.1671E-01  0.4664E-19  0.2240E-06  0.1185E-07  0.1671E-01
      3.225  0.3369E-08  0.1415E-20  0.8535E-02  0.2265E-05  0.8535E-02  0.2265E-05  0.8535E-02  0.2265E-05  0.1985E-14  0.7270E-11  0.1985E-14  0.7270E-11  0.4496E-05  0.2808E-03  0.1985E-14  0.7270E-11  0.4496E-05  0.2808E-03
      3.287  0.1807E-04  0.9282E-17  0.9067E-01  0.2414E-03  0.9067E-01  0.2414E-03  0.9067E-01  0.2414E-03  0.3323E-09  0.4178E-21  0.3323E-09  0.4176E-21  0.1041E-03  0.2687E-06  0.3323E-09  0.4177E-21  0.1041E-03  0.2687E-06
      3.349  0.5104E-02  0.6111E-11  0.1344E+00  0.2160E-02  0.1344E+00  0.2160E-02  0.1344E+00  0.2160E-02  0.2704E-05  0.4510E-19  0.2704E-05  0.4574E-19  0.1915E-03  0.1094E-06  0.2704E-05  0.4510E-19  0.1915E-03  0.1094E-06
      3.412  0.9010E-01  0.1687E-06  0.1721E-01  0.2911E-01  0.1721E-01  0.2911E-01  0.1721E-01  0.2911E-01  0.1142E-02  0.1025E-14  0.1142E-02  0.1026E-14  0.3076E-04  0.4740E-05  0.1142E-02  0.1026E-14  0.3076E-04  0.4740E-05
      3.474  0.1295E+00  0.2337E-03  0.1493E-03  0.1371E+00  0.1493E-03  0.1371E+00  0.1493E-03  0.1371E+00  0.2920E-01  0.2146E-09  0.2920E-01  0.2146E-09  0.3429E-06  0.1533E-04  0.2920E-01  0.2146E-09  0.3429E-06  0.1533E-04
      3.536  0.1606E-01  0.1814E-01  0.7101E-07  0.5902E-01  0.7101E-07  0.5902E-01  0.7101E-07  0.5902E-01  0.5875E-01  0.2179E-05  0.5875E-01  0.2179E-05  0.2124E-09  0.4388E-05  0.5875E-01  0.2179E-05  0.2124E-09  0.4388E-05
      3.598  0.1343E-03  0.9913E-01  0.1679E-11  0.1970E-02  0.1679E-11  0.1970E-02  0.1679E-11  0.1970E-02  0.1036E-01  0.1141E-02  0.1036E-01  0.1141E-02  0.6581E-14  0.9298E-07  0.1036E-01  0.1141E-02  0.6581E-14  0.9298E-07
      3.661  0.6151E-07  0.4754E-01  0.0000E+00  0.3931E-05  0.0000E+00  0.3931E-05  0.0000E+00  0.3931E-05  0.1281E-03  0.3558E-01  0.1281E-03  0.3558E-01  0.2314E-23  0.1139E-09  0.1281E-03  0.3558E-01  0.2223E-23  0.1139E-09
      3.723  0.1399E-11  0.1788E-02  0.0000E+00  0.4049E-09  0.0000E+00  0.4049E-09  0.0000E+00  0.4049E-09  0.8858E-07  0.8564E-01  0.8858E-07  0.8564E-01  0.1749E-26  0.7107E-14  0.8858E-07  0.8564E-01  0.1754E-26  0.7107E-14
      3.785  0.0000E+00  0.4055E-05  0.1183E-29  0.2011E-14  0.9861E-30  0.2011E-14  0.9861E-30  0.2011E-14  0.3069E-11  0.1817E-01  0.3069E-11  0.1817E-01  0.6972E-31  0.1288E-17  0.3069E-11  0.1817E-01  0.7020E-31  0.1288E-17
      3.848  0.0000E+00  0.4769E-09  0.1552E-35  0.2962E-21  0.1505E-35  0.2962E-21  0.1505E-35  0.2962E-21  0.0000E+00  0.2759E-03  0.0000E+00  0.2759E-03  0.1505E-35  0.1922E-19  0.0000E+00  0.2759E-03  0.0000E+00  0.1922E-19
      3.910  0.0000E+00  0.2723E-14  0.0000E+00  0.2546E-24  0.0000E+00  0.2546E-24  0.0000E+00  0.2546E-24  0.0000E+00  0.2371E-06  0.0000E+00  0.2371E-06  0.0000E+00  0.1652E-22  0.0000E+00  0.2371E-06  0.0000E+00  0.1652E-22
      3.972  0.0000E+00  0.6179E-28  0.0000E+00  0.1102E-28  0.0000E+00  0.1102E-28  0.0000E+00  0.1102E-28  0.0000E+00  0.1027E-10  0.0000E+00  0.1027E-10  0.0000E+00  0.7153E-27  0.0000E+00  0.1027E-10  0.0000E+00  0.7153E-27
      4.035  0.0000E+00  0.1882E-33  0.0000E+00  0.3357E-34  0.0000E+00  0.3357E-34  0.0000E+00  0.3357E-34  0.0000E+00  0.3127E-16  0.0000E+00  0.3127E-16  0.0000E+00  0.2178E-32  0.0000E+00  0.3127E-16  0.0000E+00  0.2178E-32
      4.097  0.0000E+00  0.0000E+00  0.0000E+00  0.0000E+00  0.0000E+00  0.0000E+00  0.0000E+00  0.0000E+00  0.0000E+00  0.0000E+00  0.0000E+00  0.0000E+00  0.0000E+00  0.0000E+00  0.0000E+00  0.0000E+00  0.0000E+00  0.0000E+00
      4.159  0.0000E+00  0.0000E+00  0.0000E+00  0.0000E+00  0.0000E+00  0.0000E+00  0.0000E+00  0.0000E+00  0.0000E+00  0.0000E+00  0.0000E+00  0.0000E+00  0.0000E+00  0.0000E+00  0.0000E+00  0.0000E+00  0.0000E+00  0.0000E+00
      4.222  0.0000E+00  0.0000E+00  0.0000E+00  0.0000E+00  0.0000E+00  0.0000E+00  0.0000E+00  0.0000E+00  0.0000E+00  0.0000E+00  0.0000E+00  0.0000E+00  0.0000E+00  0.0000E+00  0.0000E+00  0.0000E+00  0.0000E+00  0.0000E+00
      4.284  0.0000E+00  0.0000E+00  0.0000E+00  0.0000E+00  0.0000E+00  0.0000E+00  0.0000E+00  0.0000E+00  0.0000E+00  0.0000E+00  0.0000E+00  0.0000E+00  0.0000E+00  0.0000E+00  0.0000E+00  0.0000E+00  0.0000E+00  0.0000E+00
      4.346  0.0000E+00  0.0000E+00  0.0000E+00  0.0000E+00  0.0000E+00  0.0000E+00  0.0000E+00  0.0000E+00  0.0000E+00  0.0000E+00  0.0000E+00  0.0000E+00  0.0000E+00  0.0000E+00  0.0000E+00  0.0000E+00  0.0000E+00  0.0000E+00
      4.409  0.0000E+00  0.0000E+00  0.0000E+00  0.0000E+00  0.0000E+00  0.0000E+00  0.0000E+00  0.0000E+00  0.0000E+00  0.0000E+00  0.0000E+00  0.0000E+00  0.0000E+00  0.0000E+00  0.0000E+00  0.0000E+00  0.0000E+00  0.0000E+00
      4.471  0.0000E+00  0.0000E+00  0.0000E+00  0.0000E+00  0.0000E+00  0.0000E+00  0.0000E+00  0.0000E+00  0.0000E+00  0.0000E+00  0.0000E+00  0.0000E+00  0.0000E+00  0.0000E+00  0.0000E+00  0.0000E+00  0.0000E+00  0.0000E+00
      4.533  0.0000E+00  0.0000E+00  0.0000E+00  0.0000E+00  0.0000E+00  0.0000E+00  0.0000E+00  0.0000E+00  0.0000E+00  0.0000E+00  0.0000E+00  0.0000E+00  0.0000E+00  0.0000E+00  0.0000E+00  0.0000E+00  0.0000E+00  0.0000E+00
