       N       E                     dE             d eps       ncg     rms          rms(c)
DAV:   1     0.177660169647E+02    0.17766E+02   -0.59407E+02   256   0.255E+01
DAV:   2     0.242865907771E-01   -0.17742E+02   -0.17435E+02   384   0.440E+00
DAV:   3    -0.488378350928E+00   -0.51266E+00   -0.51263E+00   256   0.136E+00
DAV:   4    -0.494123934391E+00   -0.57456E-02   -0.57456E-02   512   0.171E-01
DAV:   5    -0.494124363605E+00   -0.42921E-06   -0.42925E-06   256   0.212E-03    0.404E+00
DAV:   6     0.290984452182E+01    0.34040E+01   -0.11875E+01   256   0.157E+00    0.175E+00
DAV:   7     0.139548935180E+01   -0.15144E+01   -0.54058E-01   256   0.381E-01    0.931E-01
DAV:   8    -0.221646012960E-01   -0.14177E+01   -0.78747E-01   320   0.449E-01    0.745E-01
DAV:   9    -0.561157708637E+00   -0.53899E+00   -0.19234E-01   256   0.251E-01    0.428E-01
DAV:  10    -0.933197770625E+00   -0.37204E+00   -0.11899E-01   256   0.208E-01    0.301E-01
DAV:  11    -0.132237526600E+01   -0.38918E+00   -0.21505E-01   320   0.234E-01    0.145E-01
DAV:  12    -0.133961214583E+01   -0.17237E-01   -0.44846E-03   320   0.686E-02    0.964E-02
DAV:  13    -0.139882946457E+01   -0.59217E-01   -0.17874E-02   256   0.730E-02    0.378E-02
DAV:  14    -0.141733829434E+01   -0.18509E-01   -0.35704E-03   320   0.258E-02    0.201E-02
DAV:  15    -0.142752323345E+01   -0.10185E-01   -0.16289E-03   320   0.148E-02    0.191E-02
DAV:  16    -0.142870229189E+01   -0.11791E-02   -0.14985E-04   384   0.618E-03    0.118E-02
DAV:  17    -0.142958916847E+01   -0.88688E-03   -0.73512E-05   256   0.466E-03    0.925E-03
DAV:  18    -0.142985978974E+01   -0.27062E-03   -0.52589E-06   256   0.191E-03    0.550E-03
DAV:  19    -0.142990168493E+01   -0.41895E-04   -0.89854E-06   320   0.236E-03
   1 F= -.14299017E+01 E0= -.14299017E+01  d E =-.125734E-10  mag=     2.9997
