   1   1   1   0
  0.3375000E+04  0.1500000E-08  0.1500000E-08  0.1500000E-08  0.5000000E-15
  1.000000000000000E-004
  CAR 
 unknown system                          
      4.68334329    -19.01412420  301     -5.92148161      1.00000000
    -19.014  0.0000E+00  0.0000E+00  0.0000E+00  0.0000E+00
    -18.935  0.0000E+00  0.0000E+00  0.0000E+00  0.0000E+00
    -18.856  0.0000E+00  0.0000E+00  0.0000E+00  0.0000E+00
    -18.777  0.0000E+00  0.0000E+00  0.0000E+00  0.0000E+00
    -18.698  0.0000E+00  0.0000E+00  0.0000E+00  0.0000E+00
    -18.619  0.0000E+00  0.0000E+00  0.0000E+00  0.0000E+00
    -18.540  0.0000E+00  0.0000E+00  0.0000E+00  0.0000E+00
    -18.461  0.0000E+00  0.0000E+00  0.0000E+00  0.0000E+00
    -18.382  0.0000E+00  0.0000E+00  0.0000E+00  0.0000E+00
    -18.303  0.0000E+00  0.0000E+00  0.0000E+00  0.0000E+00
    -18.224  0.2811E-14  0.0000E+00  0.2220E-15  0.0000E+00
    -18.145  0.2441E-07  0.0000E+00  0.1928E-08  0.0000E+00
    -18.066  0.1622E-02  0.0000E+00  0.1281E-03  0.0000E+00
    -17.987  0.9801E+00  0.0000E+00  0.7755E-01  0.0000E+00
    -17.908  0.9041E+01  0.0000E+00  0.7917E+00  0.0000E+00
    -17.829  0.2622E+01  0.0000E+00  0.9988E+00  0.0000E+00
    -17.750  0.1465E-01  0.0000E+00  0.1000E+01  0.0000E+00
    -17.671  0.8138E-06  0.0000E+00  0.1000E+01  0.0000E+00
    -17.592  0.3598E-12  0.0000E+00  0.1000E+01  0.0000E+00
    -17.513  0.0000E+00  0.0000E+00  0.1000E+01  0.0000E+00
    -17.434  0.0000E+00  0.0000E+00  0.1000E+01  0.0000E+00
    -17.355  0.0000E+00  0.0000E+00  0.1000E+01  0.0000E+00
    -17.276  0.0000E+00  0.0000E+00  0.1000E+01  0.0000E+00
    -17.197  0.0000E+00  0.0000E+00  0.1000E+01  0.0000E+00
    -17.118  0.0000E+00  0.0000E+00  0.1000E+01  0.0000E+00
    -17.039  0.0000E+00  0.0000E+00  0.1000E+01  0.0000E+00
    -16.960  0.0000E+00  0.0000E+00  0.1000E+01  0.0000E+00
    -16.881  0.0000E+00  0.0000E+00  0.1000E+01  0.0000E+00
    -16.802  0.0000E+00  0.0000E+00  0.1000E+01  0.0000E+00
    -16.723  0.0000E+00  0.0000E+00  0.1000E+01  0.0000E+00
    -16.644  0.0000E+00  0.0000E+00  0.1000E+01  0.0000E+00
    -16.565  0.0000E+00  0.0000E+00  0.1000E+01  0.0000E+00
    -16.486  0.0000E+00  0.0000E+00  0.1000E+01  0.0000E+00
    -16.407  0.0000E+00  0.0000E+00  0.1000E+01  0.0000E+00
    -16.328  0.0000E+00  0.4596E-12  0.1000E+01  0.3630E-13
    -16.249  0.0000E+00  0.9684E-06  0.1000E+01  0.7649E-07
    -16.170  0.0000E+00  0.1628E-01  0.1000E+01  0.1286E-02
    -16.091  0.0000E+00  0.2738E+01  0.1000E+01  0.2176E+00
    -16.012  0.0000E+00  0.8981E+01  0.1000E+01  0.9270E+00
    -15.933  0.0000E+00  0.9229E+00  0.1000E+01  0.9999E+00
    -15.854  0.0000E+00  0.1431E-02  0.1000E+01  0.1000E+01
    -15.775  0.0000E+00  0.2011E-07  0.1000E+01  0.1000E+01
    -15.696  0.0000E+00  0.2811E-14  0.1000E+01  0.1000E+01
    -15.617  0.0000E+00  0.0000E+00  0.1000E+01  0.1000E+01
    -15.538  0.0000E+00  0.0000E+00  0.1000E+01  0.1000E+01
    -15.460  0.0000E+00  0.0000E+00  0.1000E+01  0.1000E+01
    -15.381  0.0000E+00  0.0000E+00  0.1000E+01  0.1000E+01
    -15.302  0.0000E+00  0.0000E+00  0.1000E+01  0.1000E+01
    -15.223  0.0000E+00  0.0000E+00  0.1000E+01  0.1000E+01
    -15.144  0.0000E+00  0.0000E+00  0.1000E+01  0.1000E+01
    -15.065  0.0000E+00  0.0000E+00  0.1000E+01  0.1000E+01
    -14.986  0.0000E+00  0.0000E+00  0.1000E+01  0.1000E+01
    -14.907  0.0000E+00  0.0000E+00  0.1000E+01  0.1000E+01
    -14.828  0.0000E+00  0.0000E+00  0.1000E+01  0.1000E+01
    -14.749  0.0000E+00  0.0000E+00  0.1000E+01  0.1000E+01
    -14.670  0.0000E+00  0.0000E+00  0.1000E+01  0.1000E+01
    -14.591  0.0000E+00  0.0000E+00  0.1000E+01  0.1000E+01
    -14.512  0.0000E+00  0.0000E+00  0.1000E+01  0.1000E+01
    -14.433  0.0000E+00  0.0000E+00  0.1000E+01  0.1000E+01
    -14.354  0.0000E+00  0.0000E+00  0.1000E+01  0.1000E+01
    -14.275  0.0000E+00  0.0000E+00  0.1000E+01  0.1000E+01
    -14.196  0.0000E+00  0.0000E+00  0.1000E+01  0.1000E+01
    -14.117  0.0000E+00  0.0000E+00  0.1000E+01  0.1000E+01
    -14.038  0.0000E+00  0.0000E+00  0.1000E+01  0.1000E+01
    -13.959  0.0000E+00  0.0000E+00  0.1000E+01  0.1000E+01
    -13.880  0.0000E+00  0.0000E+00  0.1000E+01  0.1000E+01
    -13.801  0.0000E+00  0.0000E+00  0.1000E+01  0.1000E+01
    -13.722  0.0000E+00  0.0000E+00  0.1000E+01  0.1000E+01
    -13.643  0.0000E+00  0.0000E+00  0.1000E+01  0.1000E+01
    -13.564  0.0000E+00  0.0000E+00  0.1000E+01  0.1000E+01
    -13.485  0.0000E+00  0.0000E+00  0.1000E+01  0.1000E+01
    -13.406  0.0000E+00  0.0000E+00  0.1000E+01  0.1000E+01
    -13.327  0.0000E+00  0.0000E+00  0.1000E+01  0.1000E+01
    -13.248  0.0000E+00  0.0000E+00  0.1000E+01  0.1000E+01
    -13.169  0.0000E+00  0.0000E+00  0.1000E+01  0.1000E+01
    -13.090  0.0000E+00  0.0000E+00  0.1000E+01  0.1000E+01
    -13.011  0.0000E+00  0.0000E+00  0.1000E+01  0.1000E+01
    -12.932  0.0000E+00  0.0000E+00  0.1000E+01  0.1000E+01
    -12.853  0.0000E+00  0.0000E+00  0.1000E+01  0.1000E+01
    -12.774  0.0000E+00  0.0000E+00  0.1000E+01  0.1000E+01
    -12.695  0.0000E+00  0.0000E+00  0.1000E+01  0.1000E+01
    -12.616  0.0000E+00  0.0000E+00  0.1000E+01  0.1000E+01
    -12.537  0.0000E+00  0.0000E+00  0.1000E+01  0.1000E+01
    -12.458  0.0000E+00  0.0000E+00  0.1000E+01  0.1000E+01
    -12.379  0.0000E+00  0.0000E+00  0.1000E+01  0.1000E+01
    -12.300  0.0000E+00  0.0000E+00  0.1000E+01  0.1000E+01
    -12.221  0.0000E+00  0.0000E+00  0.1000E+01  0.1000E+01
    -12.142  0.0000E+00  0.0000E+00  0.1000E+01  0.1000E+01
    -12.063  0.0000E+00  0.0000E+00  0.1000E+01  0.1000E+01
    -11.984  0.0000E+00  0.0000E+00  0.1000E+01  0.1000E+01
    -11.905  0.0000E+00  0.0000E+00  0.1000E+01  0.1000E+01
    -11.826  0.0000E+00  0.0000E+00  0.1000E+01  0.1000E+01
    -11.747  0.0000E+00  0.0000E+00  0.1000E+01  0.1000E+01
    -11.668  0.0000E+00  0.0000E+00  0.1000E+01  0.1000E+01
    -11.589  0.0000E+00  0.0000E+00  0.1000E+01  0.1000E+01
    -11.510  0.0000E+00  0.0000E+00  0.1000E+01  0.1000E+01
    -11.431  0.0000E+00  0.0000E+00  0.1000E+01  0.1000E+01
    -11.352  0.0000E+00  0.0000E+00  0.1000E+01  0.1000E+01
    -11.273  0.0000E+00  0.0000E+00  0.1000E+01  0.1000E+01
    -11.194  0.0000E+00  0.0000E+00  0.1000E+01  0.1000E+01
    -11.115  0.0000E+00  0.0000E+00  0.1000E+01  0.1000E+01
    -11.036  0.0000E+00  0.0000E+00  0.1000E+01  0.1000E+01
    -10.957  0.0000E+00  0.0000E+00  0.1000E+01  0.1000E+01
    -10.878  0.0000E+00  0.0000E+00  0.1000E+01  0.1000E+01
    -10.799  0.0000E+00  0.0000E+00  0.1000E+01  0.1000E+01
    -10.720  0.0000E+00  0.0000E+00  0.1000E+01  0.1000E+01
    -10.641  0.0000E+00  0.0000E+00  0.1000E+01  0.1000E+01
    -10.562  0.0000E+00  0.0000E+00  0.1000E+01  0.1000E+01
    -10.483  0.0000E+00  0.0000E+00  0.1000E+01  0.1000E+01
    -10.404  0.0000E+00  0.0000E+00  0.1000E+01  0.1000E+01
    -10.325  0.0000E+00  0.0000E+00  0.1000E+01  0.1000E+01
    -10.246  0.0000E+00  0.0000E+00  0.1000E+01  0.1000E+01
    -10.167  0.0000E+00  0.0000E+00  0.1000E+01  0.1000E+01
    -10.088  0.0000E+00  0.0000E+00  0.1000E+01  0.1000E+01
    -10.009  0.0000E+00  0.0000E+00  0.1000E+01  0.1000E+01
     -9.930  0.0000E+00  0.0000E+00  0.1000E+01  0.1000E+01
     -9.851  0.0000E+00  0.0000E+00  0.1000E+01  0.1000E+01
     -9.772  0.0000E+00  0.0000E+00  0.1000E+01  0.1000E+01
     -9.693  0.0000E+00  0.0000E+00  0.1000E+01  0.1000E+01
     -9.614  0.0000E+00  0.0000E+00  0.1000E+01  0.1000E+01
     -9.535  0.0000E+00  0.0000E+00  0.1000E+01  0.1000E+01
     -9.456  0.0000E+00  0.0000E+00  0.1000E+01  0.1000E+01
     -9.377  0.0000E+00  0.0000E+00  0.1000E+01  0.1000E+01
     -9.298  0.0000E+00  0.0000E+00  0.1000E+01  0.1000E+01
     -9.219  0.0000E+00  0.0000E+00  0.1000E+01  0.1000E+01
     -9.140  0.0000E+00  0.0000E+00  0.1000E+01  0.1000E+01
     -9.061  0.0000E+00  0.0000E+00  0.1000E+01  0.1000E+01
     -8.982  0.0000E+00  0.0000E+00  0.1000E+01  0.1000E+01
     -8.903  0.0000E+00  0.0000E+00  0.1000E+01  0.1000E+01
     -8.824  0.0000E+00  0.0000E+00  0.1000E+01  0.1000E+01
     -8.745  0.0000E+00  0.0000E+00  0.1000E+01  0.1000E+01
     -8.666  0.0000E+00  0.0000E+00  0.1000E+01  0.1000E+01
     -8.587  0.0000E+00  0.0000E+00  0.1000E+01  0.1000E+01
     -8.508  0.0000E+00  0.0000E+00  0.1000E+01  0.1000E+01
     -8.429  0.0000E+00  0.0000E+00  0.1000E+01  0.1000E+01
     -8.350  0.0000E+00  0.0000E+00  0.1000E+01  0.1000E+01
     -8.271  0.0000E+00  0.0000E+00  0.1000E+01  0.1000E+01
     -8.192  0.0000E+00  0.0000E+00  0.1000E+01  0.1000E+01
     -8.113  0.0000E+00  0.0000E+00  0.1000E+01  0.1000E+01
     -8.034  0.0000E+00  0.0000E+00  0.1000E+01  0.1000E+01
     -7.955  0.0000E+00  0.0000E+00  0.1000E+01  0.1000E+01
     -7.876  0.6047E-10  0.0000E+00  0.1000E+01  0.1000E+01
     -7.797  0.4158E-04  0.0000E+00  0.1000E+01  0.1000E+01
     -7.718  0.2352E+00  0.0000E+00  0.1019E+01  0.1000E+01
     -7.639  0.1476E+02  0.0000E+00  0.2185E+01  0.1000E+01
     -7.560  0.2205E+02  0.0000E+00  0.3926E+01  0.1000E+01
     -7.481  0.9323E+00  0.0000E+00  0.4000E+01  0.1000E+01
     -7.402  0.5029E-03  0.0000E+00  0.4000E+01  0.1000E+01
     -7.323  0.2329E-08  0.0000E+00  0.4000E+01  0.1000E+01
     -7.244  0.0000E+00  0.0000E+00  0.4000E+01  0.1000E+01
     -7.165  0.0000E+00  0.0000E+00  0.4000E+01  0.1000E+01
     -7.086  0.0000E+00  0.0000E+00  0.4000E+01  0.1000E+01
     -7.007  0.0000E+00  0.0000E+00  0.4000E+01  0.1000E+01
     -6.928  0.0000E+00  0.0000E+00  0.4000E+01  0.1000E+01
     -6.849  0.0000E+00  0.0000E+00  0.4000E+01  0.1000E+01
     -6.770  0.0000E+00  0.0000E+00  0.4000E+01  0.1000E+01
     -6.691  0.0000E+00  0.0000E+00  0.4000E+01  0.1000E+01
     -6.612  0.0000E+00  0.0000E+00  0.4000E+01  0.1000E+01
     -6.533  0.0000E+00  0.0000E+00  0.4000E+01  0.1000E+01
     -6.454  0.0000E+00  0.0000E+00  0.4000E+01  0.1000E+01
     -6.375  0.0000E+00  0.0000E+00  0.4000E+01  0.1000E+01
     -6.296  0.0000E+00  0.0000E+00  0.4000E+01  0.1000E+01
     -6.217  0.0000E+00  0.0000E+00  0.4000E+01  0.1000E+01
     -6.139  0.0000E+00  0.9623E-09  0.4000E+01  0.1000E+01
     -6.060  0.0000E+00  0.2771E-03  0.4000E+01  0.1000E+01
     -5.981  0.0000E+00  0.6774E+00  0.4000E+01  0.1054E+01
     -5.902  0.0000E+00  0.2033E+02  0.4000E+01  0.2660E+01
     -5.823  0.0000E+00  0.1663E+02  0.4000E+01  0.3973E+01
     -5.744  0.0000E+00  0.3396E+00  0.4000E+01  0.4000E+01
     -5.665  0.0000E+00  0.7940E-04  0.4000E+01  0.4000E+01
     -5.586  0.0000E+00  0.1542E-09  0.4000E+01  0.4000E+01
     -5.507  0.0000E+00  0.0000E+00  0.4000E+01  0.4000E+01
     -5.428  0.0000E+00  0.0000E+00  0.4000E+01  0.4000E+01
     -5.349  0.0000E+00  0.0000E+00  0.4000E+01  0.4000E+01
     -5.270  0.0000E+00  0.0000E+00  0.4000E+01  0.4000E+01
     -5.191  0.0000E+00  0.0000E+00  0.4000E+01  0.4000E+01
     -5.112  0.0000E+00  0.0000E+00  0.4000E+01  0.4000E+01
     -5.033  0.0000E+00  0.0000E+00  0.4000E+01  0.4000E+01
     -4.954  0.0000E+00  0.0000E+00  0.4000E+01  0.4000E+01
     -4.875  0.0000E+00  0.0000E+00  0.4000E+01  0.4000E+01
     -4.796  0.0000E+00  0.0000E+00  0.4000E+01  0.4000E+01
     -4.717  0.0000E+00  0.0000E+00  0.4000E+01  0.4000E+01
     -4.638  0.0000E+00  0.0000E+00  0.4000E+01  0.4000E+01
     -4.559  0.0000E+00  0.0000E+00  0.4000E+01  0.4000E+01
     -4.480  0.0000E+00  0.0000E+00  0.4000E+01  0.4000E+01
     -4.401  0.0000E+00  0.0000E+00  0.4000E+01  0.4000E+01
     -4.322  0.0000E+00  0.0000E+00  0.4000E+01  0.4000E+01
     -4.243  0.0000E+00  0.0000E+00  0.4000E+01  0.4000E+01
     -4.164  0.0000E+00  0.0000E+00  0.4000E+01  0.4000E+01
     -4.085  0.0000E+00  0.0000E+00  0.4000E+01  0.4000E+01
     -4.006  0.0000E+00  0.0000E+00  0.4000E+01  0.4000E+01
     -3.927  0.0000E+00  0.0000E+00  0.4000E+01  0.4000E+01
     -3.848  0.0000E+00  0.0000E+00  0.4000E+01  0.4000E+01
     -3.769  0.0000E+00  0.0000E+00  0.4000E+01  0.4000E+01
     -3.690  0.0000E+00  0.0000E+00  0.4000E+01  0.4000E+01
     -3.611  0.0000E+00  0.0000E+00  0.4000E+01  0.4000E+01
     -3.532  0.0000E+00  0.0000E+00  0.4000E+01  0.4000E+01
     -3.453  0.0000E+00  0.0000E+00  0.4000E+01  0.4000E+01
     -3.374  0.0000E+00  0.0000E+00  0.4000E+01  0.4000E+01
     -3.295  0.0000E+00  0.0000E+00  0.4000E+01  0.4000E+01
     -3.216  0.0000E+00  0.0000E+00  0.4000E+01  0.4000E+01
     -3.137  0.0000E+00  0.0000E+00  0.4000E+01  0.4000E+01
     -3.058  0.0000E+00  0.0000E+00  0.4000E+01  0.4000E+01
     -2.979  0.0000E+00  0.0000E+00  0.4000E+01  0.4000E+01
     -2.900  0.0000E+00  0.0000E+00  0.4000E+01  0.4000E+01
     -2.821  0.0000E+00  0.0000E+00  0.4000E+01  0.4000E+01
     -2.742  0.0000E+00  0.0000E+00  0.4000E+01  0.4000E+01
     -2.663  0.0000E+00  0.0000E+00  0.4000E+01  0.4000E+01
     -2.584  0.0000E+00  0.0000E+00  0.4000E+01  0.4000E+01
     -2.505  0.0000E+00  0.0000E+00  0.4000E+01  0.4000E+01
     -2.426  0.0000E+00  0.0000E+00  0.4000E+01  0.4000E+01
     -2.347  0.0000E+00  0.0000E+00  0.4000E+01  0.4000E+01
     -2.268  0.0000E+00  0.0000E+00  0.4000E+01  0.4000E+01
     -2.189  0.0000E+00  0.0000E+00  0.4000E+01  0.4000E+01
     -2.110  0.0000E+00  0.0000E+00  0.4000E+01  0.4000E+01
     -2.031  0.0000E+00  0.0000E+00  0.4000E+01  0.4000E+01
     -1.952  0.0000E+00  0.0000E+00  0.4000E+01  0.4000E+01
     -1.873  0.0000E+00  0.0000E+00  0.4000E+01  0.4000E+01
     -1.794  0.0000E+00  0.0000E+00  0.4000E+01  0.4000E+01
     -1.715  0.0000E+00  0.0000E+00  0.4000E+01  0.4000E+01
     -1.636  0.0000E+00  0.0000E+00  0.4000E+01  0.4000E+01
     -1.557  0.0000E+00  0.0000E+00  0.4000E+01  0.4000E+01
     -1.478  0.0000E+00  0.0000E+00  0.4000E+01  0.4000E+01
     -1.399  0.0000E+00  0.0000E+00  0.4000E+01  0.4000E+01
     -1.320  0.0000E+00  0.0000E+00  0.4000E+01  0.4000E+01
     -1.241  0.0000E+00  0.0000E+00  0.4000E+01  0.4000E+01
     -1.162  0.0000E+00  0.0000E+00  0.4000E+01  0.4000E+01
     -1.083  0.0000E+00  0.0000E+00  0.4000E+01  0.4000E+01
     -1.004  0.0000E+00  0.0000E+00  0.4000E+01  0.4000E+01
     -0.925  0.0000E+00  0.0000E+00  0.4000E+01  0.4000E+01
     -0.846  0.0000E+00  0.0000E+00  0.4000E+01  0.4000E+01
     -0.767  0.0000E+00  0.0000E+00  0.4000E+01  0.4000E+01
     -0.688  0.2811E-13  0.0000E+00  0.4000E+01  0.4000E+01
     -0.609  0.1290E-06  0.0000E+00  0.4000E+01  0.4000E+01
     -0.530  0.4681E-02  0.0000E+00  0.4000E+01  0.4000E+01
     -0.451  0.1604E+01  0.1301E-08  0.4127E+01  0.4000E+01
     -0.372  0.9316E+01  0.2368E-03  0.4863E+01  0.4000E+01
     -0.293  0.1729E+01  0.3728E+00  0.5000E+01  0.4029E+01
     -0.214  0.5533E-02  0.7668E+01  0.5000E+01  0.4635E+01
     -0.135  0.1684E-06  0.4556E+01  0.5000E+01  0.4995E+01
     -0.056  0.3935E-13  0.6257E-01  0.5000E+01  0.5000E+01
      0.023  0.8405E-10  0.9365E-05  0.5000E+01  0.5000E+01
      0.102  0.3710E-04  0.7511E-09  0.5000E+01  0.5000E+01
      0.181  0.1368E+00  0.1623E-03  0.5011E+01  0.5000E+01
      0.260  0.5875E+01  0.3054E+00  0.5475E+01  0.5024E+01
      0.339  0.6458E+01  0.7319E+01  0.5985E+01  0.5602E+01
      0.418  0.2397E+00  0.4955E+01  0.6004E+01  0.5994E+01
      0.497  0.8322E+01  0.2397E+00  0.6661E+01  0.6013E+01
      0.576  0.2798E+02  0.1291E+02  0.8871E+01  0.7033E+01
      0.655  0.1930E+02  0.2425E+02  0.1040E+02  0.8949E+01
      0.734  0.7574E+01  0.1594E+02  0.1099E+02  0.1021E+02
      0.813  0.7473E-01  0.9875E+01  0.1100E+02  0.1099E+02
      0.892  0.8122E-05  0.1584E+00  0.1100E+02  0.1100E+02
      0.971  0.1368E-01  0.7190E-04  0.1100E+02  0.1100E+02
      1.050  0.4763E+01  0.2503E+00  0.1138E+02  0.1102E+02
      1.129  0.3061E+02  0.1710E+02  0.1380E+02  0.1237E+02
      1.208  0.3891E+02  0.3648E+02  0.1687E+02  0.1525E+02
      1.287  0.3755E+02  0.3069E+02  0.1983E+02  0.1768E+02
      1.366  0.2748E+02  0.2093E+02  0.2200E+02  0.1933E+02
      1.445  0.1245E+02  0.3471E+02  0.2299E+02  0.2207E+02
      1.524  0.1439E+00  0.1165E+02  0.2300E+02  0.2299E+02
      1.603  0.1788E-04  0.1156E+00  0.2300E+02  0.2300E+02
      1.682  0.5379E-02  0.1318E-04  0.2300E+02  0.2300E+02
      1.761  0.3089E+01  0.2438E-01  0.2324E+02  0.2300E+02
      1.840  0.3014E+02  0.6159E+01  0.2563E+02  0.2349E+02
      1.919  0.3871E+02  0.3374E+02  0.2868E+02  0.2615E+02
      1.998  0.2000E+02  0.3966E+02  0.3026E+02  0.2929E+02
      2.077  0.1693E+02  0.2019E+02  0.3160E+02  0.3088E+02
      2.156  0.1676E+02  0.1496E+01  0.3292E+02  0.3100E+02
      2.235  0.9650E+00  0.3952E-01  0.3300E+02  0.3100E+02
      2.314  0.7782E-03  0.5742E+01  0.3300E+02  0.3146E+02
      2.393  0.2477E-04  0.1781E+02  0.3300E+02  0.3286E+02
      2.472  0.1745E+00  0.1724E+01  0.3301E+02  0.3300E+02
      2.551  0.1333E+02  0.8813E+00  0.3407E+02  0.3307E+02
      2.630  0.2740E+02  0.2181E+02  0.3623E+02  0.3479E+02
      2.709  0.3749E+02  0.1989E+02  0.3919E+02  0.3636E+02
      2.788  0.1017E+02  0.7737E+01  0.4000E+02  0.3697E+02
      2.867  0.1588E+01  0.3456E+01  0.4012E+02  0.3725E+02
      2.946  0.1754E+02  0.3224E+02  0.4151E+02  0.3979E+02
      3.025  0.6229E+01  0.2578E+02  0.4200E+02  0.4183E+02
      3.104  0.6304E+01  0.2186E+01  0.4250E+02  0.4200E+02
      3.183  0.3680E+02  0.9996E+01  0.4540E+02  0.4279E+02
      3.261  0.4255E+02  0.5522E+02  0.4876E+02  0.4715E+02
      3.340  0.7543E+02  0.4127E+02  0.5472E+02  0.5041E+02
      3.419  0.7521E+02  0.7396E+02  0.6066E+02  0.5626E+02
      3.498  0.4302E+01  0.5126E+02  0.6100E+02  0.6031E+02
      3.577  0.7922E+01  0.1662E+02  0.6163E+02  0.6162E+02
      3.656  0.2710E+02  0.2720E+02  0.6377E+02  0.6377E+02
      3.735  0.2913E+01  0.2940E+01  0.6400E+02  0.6400E+02
      3.814  0.4773E-02  0.4865E-02  0.6400E+02  0.6400E+02
      3.893  0.7111E-07  0.7324E-07  0.6400E+02  0.6400E+02
      3.972  0.8433E-14  0.8433E-14  0.6400E+02  0.6400E+02
      4.051  0.0000E+00  0.0000E+00  0.6400E+02  0.6400E+02
      4.130  0.0000E+00  0.0000E+00  0.6400E+02  0.6400E+02
      4.209  0.0000E+00  0.0000E+00  0.6400E+02  0.6400E+02
      4.288  0.0000E+00  0.0000E+00  0.6400E+02  0.6400E+02
      4.367  0.0000E+00  0.0000E+00  0.6400E+02  0.6400E+02
      4.446  0.0000E+00  0.0000E+00  0.6400E+02  0.6400E+02
      4.525  0.0000E+00  0.0000E+00  0.6400E+02  0.6400E+02
      4.604  0.0000E+00  0.0000E+00  0.6400E+02  0.6400E+02
      4.683  0.0000E+00  0.0000E+00  0.6400E+02  0.6400E+02
      4.68334329    -19.01412420  301     -5.92148161      1.00000000
    -19.014  0.0000E+00  0.0000E+00  0.0000E+00  0.0000E+00  0.0000E+00  0.0000E+00  0.0000E+00  0.0000E+00  0.0000E+00  0.0000E+00  0.0000E+00  0.0000E+00  0.0000E+00  0.0000E+00  0.0000E+00  0.0000E+00  0.0000E+00  0.0000E+00
    -18.935  0.0000E+00  0.0000E+00  0.0000E+00  0.0000E+00  0.0000E+00  0.0000E+00  0.0000E+00  0.0000E+00  0.0000E+00  0.0000E+00  0.0000E+00  0.0000E+00  0.0000E+00  0.0000E+00  0.0000E+00  0.0000E+00  0.0000E+00  0.0000E+00
    -18.856  0.0000E+00  0.0000E+00  0.0000E+00  0.0000E+00  0.0000E+00  0.0000E+00  0.0000E+00  0.0000E+00  0.0000E+00  0.0000E+00  0.0000E+00  0.0000E+00  0.0000E+00  0.0000E+00  0.0000E+00  0.0000E+00  0.0000E+00  0.0000E+00
    -18.777  0.0000E+00  0.0000E+00  0.0000E+00  0.0000E+00  0.0000E+00  0.0000E+00  0.0000E+00  0.0000E+00  0.0000E+00  0.0000E+00  0.0000E+00  0.0000E+00  0.0000E+00  0.0000E+00  0.0000E+00  0.0000E+00  0.0000E+00  0.0000E+00
    -18.698  0.0000E+00  0.0000E+00  0.0000E+00  0.0000E+00  0.0000E+00  0.0000E+00  0.0000E+00  0.0000E+00  0.0000E+00  0.0000E+00  0.0000E+00  0.0000E+00  0.0000E+00  0.0000E+00  0.0000E+00  0.0000E+00  0.0000E+00  0.0000E+00
    -18.619  0.0000E+00  0.0000E+00  0.0000E+00  0.0000E+00  0.0000E+00  0.0000E+00  0.0000E+00  0.0000E+00  0.0000E+00  0.0000E+00  0.0000E+00  0.0000E+00  0.0000E+00  0.0000E+00  0.0000E+00  0.0000E+00  0.0000E+00  0.0000E+00
    -18.540  0.0000E+00  0.0000E+00  0.0000E+00  0.0000E+00  0.0000E+00  0.0000E+00  0.0000E+00  0.0000E+00  0.0000E+00  0.0000E+00  0.0000E+00  0.0000E+00  0.0000E+00  0.0000E+00  0.0000E+00  0.0000E+00  0.0000E+00  0.0000E+00
    -18.461  0.0000E+00  0.0000E+00  0.0000E+00  0.0000E+00  0.0000E+00  0.0000E+00  0.0000E+00  0.0000E+00  0.0000E+00  0.0000E+00  0.0000E+00  0.0000E+00  0.0000E+00  0.0000E+00  0.0000E+00  0.0000E+00  0.0000E+00  0.0000E+00
    -18.382  0.0000E+00  0.0000E+00  0.0000E+00  0.0000E+00  0.0000E+00  0.0000E+00  0.0000E+00  0.0000E+00  0.0000E+00  0.0000E+00  0.0000E+00  0.0000E+00  0.0000E+00  0.0000E+00  0.0000E+00  0.0000E+00  0.0000E+00  0.0000E+00
    -18.303  0.0000E+00  0.0000E+00  0.0000E+00  0.0000E+00  0.0000E+00  0.0000E+00  0.0000E+00  0.0000E+00  0.0000E+00  0.0000E+00  0.0000E+00  0.0000E+00  0.0000E+00  0.0000E+00  0.0000E+00  0.0000E+00  0.0000E+00  0.0000E+00
    -18.224  0.2002E-14  0.0000E+00  0.1379E-38  0.0000E+00  0.1379E-38  0.0000E+00  0.1379E-38  0.0000E+00  0.0000E+00  0.0000E+00  0.0000E+00  0.0000E+00  0.0000E+00  0.0000E+00  0.0000E+00  0.0000E+00  0.0000E+00  0.0000E+00
    -18.145  0.1739E-07  0.0000E+00  0.1198E-31  0.0000E+00  0.1198E-31  0.0000E+00  0.1198E-31  0.0000E+00  0.0000E+00  0.0000E+00  0.0000E+00  0.0000E+00  0.0000E+00  0.0000E+00  0.0000E+00  0.0000E+00  0.0000E+00  0.0000E+00
    -18.066  0.1155E-02  0.0000E+00  0.7955E-27  0.0000E+00  0.7955E-27  0.0000E+00  0.7955E-27  0.0000E+00  0.0000E+00  0.0000E+00  0.0000E+00  0.0000E+00  0.0000E+00  0.0000E+00  0.0000E+00  0.0000E+00  0.0000E+00  0.0000E+00
    -17.987  0.6979E+00  0.0000E+00  0.4808E-24  0.0000E+00  0.4808E-24  0.0000E+00  0.4808E-24  0.0000E+00  0.0000E+00  0.0000E+00  0.0000E+00  0.0000E+00  0.0000E+00  0.0000E+00  0.0000E+00  0.0000E+00  0.0000E+00  0.0000E+00
    -17.908  0.6439E+01  0.0000E+00  0.4435E-23  0.0000E+00  0.4435E-23  0.0000E+00  0.4435E-23  0.0000E+00  0.0000E+00  0.0000E+00  0.0000E+00  0.0000E+00  0.0000E+00  0.0000E+00  0.0000E+00  0.0000E+00  0.0000E+00  0.0000E+00
    -17.829  0.1867E+01  0.0000E+00  0.1286E-23  0.0000E+00  0.1286E-23  0.0000E+00  0.1286E-23  0.0000E+00  0.0000E+00  0.0000E+00  0.0000E+00  0.0000E+00  0.0000E+00  0.0000E+00  0.0000E+00  0.0000E+00  0.0000E+00  0.0000E+00
    -17.750  0.1043E-01  0.0000E+00  0.7185E-26  0.0000E+00  0.7185E-26  0.0000E+00  0.7185E-26  0.0000E+00  0.0000E+00  0.0000E+00  0.0000E+00  0.0000E+00  0.0000E+00  0.0000E+00  0.0000E+00  0.0000E+00  0.0000E+00  0.0000E+00
    -17.671  0.5795E-06  0.0000E+00  0.3992E-30  0.0000E+00  0.3992E-30  0.0000E+00  0.3992E-30  0.0000E+00  0.0000E+00  0.0000E+00  0.0000E+00  0.0000E+00  0.0000E+00  0.0000E+00  0.0000E+00  0.0000E+00  0.0000E+00  0.0000E+00
    -17.592  0.2562E-12  0.0000E+00  0.1765E-36  0.0000E+00  0.1765E-36  0.0000E+00  0.1765E-36  0.0000E+00  0.0000E+00  0.0000E+00  0.0000E+00  0.0000E+00  0.0000E+00  0.0000E+00  0.0000E+00  0.0000E+00  0.0000E+00  0.0000E+00
    -17.513  0.0000E+00  0.0000E+00  0.0000E+00  0.0000E+00  0.0000E+00  0.0000E+00  0.0000E+00  0.0000E+00  0.0000E+00  0.0000E+00  0.0000E+00  0.0000E+00  0.0000E+00  0.0000E+00  0.0000E+00  0.0000E+00  0.0000E+00  0.0000E+00
    -17.434  0.0000E+00  0.0000E+00  0.0000E+00  0.0000E+00  0.0000E+00  0.0000E+00  0.0000E+00  0.0000E+00  0.0000E+00  0.0000E+00  0.0000E+00  0.0000E+00  0.0000E+00  0.0000E+00  0.0000E+00  0.0000E+00  0.0000E+00  0.0000E+00
    -17.355  0.0000E+00  0.0000E+00  0.0000E+00  0.0000E+00  0.0000E+00  0.0000E+00  0.0000E+00  0.0000E+00  0.0000E+00  0.0000E+00  0.0000E+00  0.0000E+00  0.0000E+00  0.0000E+00  0.0000E+00  0.0000E+00  0.0000E+00  0.0000E+00
    -17.276  0.0000E+00  0.0000E+00  0.0000E+00  0.0000E+00  0.0000E+00  0.0000E+00  0.0000E+00  0.0000E+00  0.0000E+00  0.0000E+00  0.0000E+00  0.0000E+00  0.0000E+00  0.0000E+00  0.0000E+00  0.0000E+00  0.0000E+00  0.0000E+00
    -17.197  0.0000E+00  0.0000E+00  0.0000E+00  0.0000E+00  0.0000E+00  0.0000E+00  0.0000E+00  0.0000E+00  0.0000E+00  0.0000E+00  0.0000E+00  0.0000E+00  0.0000E+00  0.0000E+00  0.0000E+00  0.0000E+00  0.0000E+00  0.0000E+00
    -17.118  0.0000E+00  0.0000E+00  0.0000E+00  0.0000E+00  0.0000E+00  0.0000E+00  0.0000E+00  0.0000E+00  0.0000E+00  0.0000E+00  0.0000E+00  0.0000E+00  0.0000E+00  0.0000E+00  0.0000E+00  0.0000E+00  0.0000E+00  0.0000E+00
    -17.039  0.0000E+00  0.0000E+00  0.0000E+00  0.0000E+00  0.0000E+00  0.0000E+00  0.0000E+00  0.0000E+00  0.0000E+00  0.0000E+00  0.0000E+00  0.0000E+00  0.0000E+00  0.0000E+00  0.0000E+00  0.0000E+00  0.0000E+00  0.0000E+00
    -16.960  0.0000E+00  0.0000E+00  0.0000E+00  0.0000E+00  0.0000E+00  0.0000E+00  0.0000E+00  0.0000E+00  0.0000E+00  0.0000E+00  0.0000E+00  0.0000E+00  0.0000E+00  0.0000E+00  0.0000E+00  0.0000E+00  0.0000E+00  0.0000E+00
    -16.881  0.0000E+00  0.0000E+00  0.0000E+00  0.0000E+00  0.0000E+00  0.0000E+00  0.0000E+00  0.0000E+00  0.0000E+00  0.0000E+00  0.0000E+00  0.0000E+00  0.0000E+00  0.0000E+00  0.0000E+00  0.0000E+00  0.0000E+00  0.0000E+00
    -16.802  0.0000E+00  0.0000E+00  0.0000E+00  0.0000E+00  0.0000E+00  0.0000E+00  0.0000E+00  0.0000E+00  0.0000E+00  0.0000E+00  0.0000E+00  0.0000E+00  0.0000E+00  0.0000E+00  0.0000E+00  0.0000E+00  0.0000E+00  0.0000E+00
    -16.723  0.0000E+00  0.0000E+00  0.0000E+00  0.0000E+00  0.0000E+00  0.0000E+00  0.0000E+00  0.0000E+00  0.0000E+00  0.0000E+00  0.0000E+00  0.0000E+00  0.0000E+00  0.0000E+00  0.0000E+00  0.0000E+00  0.0000E+00  0.0000E+00
    -16.644  0.0000E+00  0.0000E+00  0.0000E+00  0.0000E+00  0.0000E+00  0.0000E+00  0.0000E+00  0.0000E+00  0.0000E+00  0.0000E+00  0.0000E+00  0.0000E+00  0.0000E+00  0.0000E+00  0.0000E+00  0.0000E+00  0.0000E+00  0.0000E+00
    -16.565  0.0000E+00  0.0000E+00  0.0000E+00  0.0000E+00  0.0000E+00  0.0000E+00  0.0000E+00  0.0000E+00  0.0000E+00  0.0000E+00  0.0000E+00  0.0000E+00  0.0000E+00  0.0000E+00  0.0000E+00  0.0000E+00  0.0000E+00  0.0000E+00
    -16.486  0.0000E+00  0.0000E+00  0.0000E+00  0.0000E+00  0.0000E+00  0.0000E+00  0.0000E+00  0.0000E+00  0.0000E+00  0.0000E+00  0.0000E+00  0.0000E+00  0.0000E+00  0.0000E+00  0.0000E+00  0.0000E+00  0.0000E+00  0.0000E+00
    -16.407  0.0000E+00  0.0000E+00  0.0000E+00  0.0000E+00  0.0000E+00  0.0000E+00  0.0000E+00  0.0000E+00  0.0000E+00  0.0000E+00  0.0000E+00  0.0000E+00  0.0000E+00  0.0000E+00  0.0000E+00  0.0000E+00  0.0000E+00  0.0000E+00
    -16.328  0.0000E+00  0.3160E-12  0.0000E+00  0.2140E-35  0.0000E+00  0.2140E-35  0.0000E+00  0.2140E-35  0.0000E+00  0.0000E+00  0.0000E+00  0.0000E+00  0.0000E+00  0.0000E+00  0.0000E+00  0.0000E+00  0.0000E+00  0.0000E+00
    -16.249  0.0000E+00  0.6658E-06  0.0000E+00  0.4509E-29  0.0000E+00  0.4509E-29  0.0000E+00  0.4509E-29  0.0000E+00  0.0000E+00  0.0000E+00  0.0000E+00  0.0000E+00  0.0000E+00  0.0000E+00  0.0000E+00  0.0000E+00  0.0000E+00
    -16.170  0.0000E+00  0.1119E-01  0.0000E+00  0.7581E-25  0.0000E+00  0.7581E-25  0.0000E+00  0.7581E-25  0.0000E+00  0.0000E+00  0.0000E+00  0.0000E+00  0.0000E+00  0.0000E+00  0.0000E+00  0.0000E+00  0.0000E+00  0.0000E+00
    -16.091  0.0000E+00  0.1882E+01  0.0000E+00  0.1275E-22  0.0000E+00  0.1275E-22  0.0000E+00  0.1275E-22  0.0000E+00  0.0000E+00  0.0000E+00  0.0000E+00  0.0000E+00  0.0000E+00  0.0000E+00  0.0000E+00  0.0000E+00  0.0000E+00
    -16.012  0.0000E+00  0.6175E+01  0.0000E+00  0.4182E-22  0.0000E+00  0.4182E-22  0.0000E+00  0.4182E-22  0.0000E+00  0.0000E+00  0.0000E+00  0.0000E+00  0.0000E+00  0.0000E+00  0.0000E+00  0.0000E+00  0.0000E+00  0.0000E+00
    -15.933  0.0000E+00  0.6345E+00  0.0000E+00  0.4297E-23  0.0000E+00  0.4297E-23  0.0000E+00  0.4297E-23  0.0000E+00  0.0000E+00  0.0000E+00  0.0000E+00  0.0000E+00  0.0000E+00  0.0000E+00  0.0000E+00  0.0000E+00  0.0000E+00
    -15.854  0.0000E+00  0.9838E-03  0.0000E+00  0.6663E-26  0.0000E+00  0.6663E-26  0.0000E+00  0.6663E-26  0.0000E+00  0.0000E+00  0.0000E+00  0.0000E+00  0.0000E+00  0.0000E+00  0.0000E+00  0.0000E+00  0.0000E+00  0.0000E+00
    -15.775  0.0000E+00  0.1383E-07  0.0000E+00  0.9365E-31  0.0000E+00  0.9365E-31  0.0000E+00  0.9365E-31  0.0000E+00  0.0000E+00  0.0000E+00  0.0000E+00  0.0000E+00  0.0000E+00  0.0000E+00  0.0000E+00  0.0000E+00  0.0000E+00
    -15.696  0.0000E+00  0.1933E-14  0.0000E+00  0.1309E-37  0.0000E+00  0.1309E-37  0.0000E+00  0.1309E-37  0.0000E+00  0.0000E+00  0.0000E+00  0.0000E+00  0.0000E+00  0.0000E+00  0.0000E+00  0.0000E+00  0.0000E+00  0.0000E+00
    -15.617  0.0000E+00  0.0000E+00  0.0000E+00  0.0000E+00  0.0000E+00  0.0000E+00  0.0000E+00  0.0000E+00  0.0000E+00  0.0000E+00  0.0000E+00  0.0000E+00  0.0000E+00  0.0000E+00  0.0000E+00  0.0000E+00  0.0000E+00  0.0000E+00
    -15.538  0.0000E+00  0.0000E+00  0.0000E+00  0.0000E+00  0.0000E+00  0.0000E+00  0.0000E+00  0.0000E+00  0.0000E+00  0.0000E+00  0.0000E+00  0.0000E+00  0.0000E+00  0.0000E+00  0.0000E+00  0.0000E+00  0.0000E+00  0.0000E+00
    -15.460  0.0000E+00  0.0000E+00  0.0000E+00  0.0000E+00  0.0000E+00  0.0000E+00  0.0000E+00  0.0000E+00  0.0000E+00  0.0000E+00  0.0000E+00  0.0000E+00  0.0000E+00  0.0000E+00  0.0000E+00  0.0000E+00  0.0000E+00  0.0000E+00
    -15.381  0.0000E+00  0.0000E+00  0.0000E+00  0.0000E+00  0.0000E+00  0.0000E+00  0.0000E+00  0.0000E+00  0.0000E+00  0.0000E+00  0.0000E+00  0.0000E+00  0.0000E+00  0.0000E+00  0.0000E+00  0.0000E+00  0.0000E+00  0.0000E+00
    -15.302  0.0000E+00  0.0000E+00  0.0000E+00  0.0000E+00  0.0000E+00  0.0000E+00  0.0000E+00  0.0000E+00  0.0000E+00  0.0000E+00  0.0000E+00  0.0000E+00  0.0000E+00  0.0000E+00  0.0000E+00  0.0000E+00  0.0000E+00  0.0000E+00
    -15.223  0.0000E+00  0.0000E+00  0.0000E+00  0.0000E+00  0.0000E+00  0.0000E+00  0.0000E+00  0.0000E+00  0.0000E+00  0.0000E+00  0.0000E+00  0.0000E+00  0.0000E+00  0.0000E+00  0.0000E+00  0.0000E+00  0.0000E+00  0.0000E+00
    -15.144  0.0000E+00  0.0000E+00  0.0000E+00  0.0000E+00  0.0000E+00  0.0000E+00  0.0000E+00  0.0000E+00  0.0000E+00  0.0000E+00  0.0000E+00  0.0000E+00  0.0000E+00  0.0000E+00  0.0000E+00  0.0000E+00  0.0000E+00  0.0000E+00
    -15.065  0.0000E+00  0.0000E+00  0.0000E+00  0.0000E+00  0.0000E+00  0.0000E+00  0.0000E+00  0.0000E+00  0.0000E+00  0.0000E+00  0.0000E+00  0.0000E+00  0.0000E+00  0.0000E+00  0.0000E+00  0.0000E+00  0.0000E+00  0.0000E+00
    -14.986  0.0000E+00  0.0000E+00  0.0000E+00  0.0000E+00  0.0000E+00  0.0000E+00  0.0000E+00  0.0000E+00  0.0000E+00  0.0000E+00  0.0000E+00  0.0000E+00  0.0000E+00  0.0000E+00  0.0000E+00  0.0000E+00  0.0000E+00  0.0000E+00
    -14.907  0.0000E+00  0.0000E+00  0.0000E+00  0.0000E+00  0.0000E+00  0.0000E+00  0.0000E+00  0.0000E+00  0.0000E+00  0.0000E+00  0.0000E+00  0.0000E+00  0.0000E+00  0.0000E+00  0.0000E+00  0.0000E+00  0.0000E+00  0.0000E+00
    -14.828  0.0000E+00  0.0000E+00  0.0000E+00  0.0000E+00  0.0000E+00  0.0000E+00  0.0000E+00  0.0000E+00  0.0000E+00  0.0000E+00  0.0000E+00  0.0000E+00  0.0000E+00  0.0000E+00  0.0000E+00  0.0000E+00  0.0000E+00  0.0000E+00
    -14.749  0.0000E+00  0.0000E+00  0.0000E+00  0.0000E+00  0.0000E+00  0.0000E+00  0.0000E+00  0.0000E+00  0.0000E+00  0.0000E+00  0.0000E+00  0.0000E+00  0.0000E+00  0.0000E+00  0.0000E+00  0.0000E+00  0.0000E+00  0.0000E+00
    -14.670  0.0000E+00  0.0000E+00  0.0000E+00  0.0000E+00  0.0000E+00  0.0000E+00  0.0000E+00  0.0000E+00  0.0000E+00  0.0000E+00  0.0000E+00  0.0000E+00  0.0000E+00  0.0000E+00  0.0000E+00  0.0000E+00  0.0000E+00  0.0000E+00
    -14.591  0.0000E+00  0.0000E+00  0.0000E+00  0.0000E+00  0.0000E+00  0.0000E+00  0.0000E+00  0.0000E+00  0.0000E+00  0.0000E+00  0.0000E+00  0.0000E+00  0.0000E+00  0.0000E+00  0.0000E+00  0.0000E+00  0.0000E+00  0.0000E+00
    -14.512  0.0000E+00  0.0000E+00  0.0000E+00  0.0000E+00  0.0000E+00  0.0000E+00  0.0000E+00  0.0000E+00  0.0000E+00  0.0000E+00  0.0000E+00  0.0000E+00  0.0000E+00  0.0000E+00  0.0000E+00  0.0000E+00  0.0000E+00  0.0000E+00
    -14.433  0.0000E+00  0.0000E+00  0.0000E+00  0.0000E+00  0.0000E+00  0.0000E+00  0.0000E+00  0.0000E+00  0.0000E+00  0.0000E+00  0.0000E+00  0.0000E+00  0.0000E+00  0.0000E+00  0.0000E+00  0.0000E+00  0.0000E+00  0.0000E+00
    -14.354  0.0000E+00  0.0000E+00  0.0000E+00  0.0000E+00  0.0000E+00  0.0000E+00  0.0000E+00  0.0000E+00  0.0000E+00  0.0000E+00  0.0000E+00  0.0000E+00  0.0000E+00  0.0000E+00  0.0000E+00  0.0000E+00  0.0000E+00  0.0000E+00
    -14.275  0.0000E+00  0.0000E+00  0.0000E+00  0.0000E+00  0.0000E+00  0.0000E+00  0.0000E+00  0.0000E+00  0.0000E+00  0.0000E+00  0.0000E+00  0.0000E+00  0.0000E+00  0.0000E+00  0.0000E+00  0.0000E+00  0.0000E+00  0.0000E+00
    -14.196  0.0000E+00  0.0000E+00  0.0000E+00  0.0000E+00  0.0000E+00  0.0000E+00  0.0000E+00  0.0000E+00  0.0000E+00  0.0000E+00  0.0000E+00  0.0000E+00  0.0000E+00  0.0000E+00  0.0000E+00  0.0000E+00  0.0000E+00  0.0000E+00
    -14.117  0.0000E+00  0.0000E+00  0.0000E+00  0.0000E+00  0.0000E+00  0.0000E+00  0.0000E+00  0.0000E+00  0.0000E+00  0.0000E+00  0.0000E+00  0.0000E+00  0.0000E+00  0.0000E+00  0.0000E+00  0.0000E+00  0.0000E+00  0.0000E+00
    -14.038  0.0000E+00  0.0000E+00  0.0000E+00  0.0000E+00  0.0000E+00  0.0000E+00  0.0000E+00  0.0000E+00  0.0000E+00  0.0000E+00  0.0000E+00  0.0000E+00  0.0000E+00  0.0000E+00  0.0000E+00  0.0000E+00  0.0000E+00  0.0000E+00
    -13.959  0.0000E+00  0.0000E+00  0.0000E+00  0.0000E+00  0.0000E+00  0.0000E+00  0.0000E+00  0.0000E+00  0.0000E+00  0.0000E+00  0.0000E+00  0.0000E+00  0.0000E+00  0.0000E+00  0.0000E+00  0.0000E+00  0.0000E+00  0.0000E+00
    -13.880  0.0000E+00  0.0000E+00  0.0000E+00  0.0000E+00  0.0000E+00  0.0000E+00  0.0000E+00  0.0000E+00  0.0000E+00  0.0000E+00  0.0000E+00  0.0000E+00  0.0000E+00  0.0000E+00  0.0000E+00  0.0000E+00  0.0000E+00  0.0000E+00
    -13.801  0.0000E+00  0.0000E+00  0.0000E+00  0.0000E+00  0.0000E+00  0.0000E+00  0.0000E+00  0.0000E+00  0.0000E+00  0.0000E+00  0.0000E+00  0.0000E+00  0.0000E+00  0.0000E+00  0.0000E+00  0.0000E+00  0.0000E+00  0.0000E+00
    -13.722  0.0000E+00  0.0000E+00  0.0000E+00  0.0000E+00  0.0000E+00  0.0000E+00  0.0000E+00  0.0000E+00  0.0000E+00  0.0000E+00  0.0000E+00  0.0000E+00  0.0000E+00  0.0000E+00  0.0000E+00  0.0000E+00  0.0000E+00  0.0000E+00
    -13.643  0.0000E+00  0.0000E+00  0.0000E+00  0.0000E+00  0.0000E+00  0.0000E+00  0.0000E+00  0.0000E+00  0.0000E+00  0.0000E+00  0.0000E+00  0.0000E+00  0.0000E+00  0.0000E+00  0.0000E+00  0.0000E+00  0.0000E+00  0.0000E+00
    -13.564  0.0000E+00  0.0000E+00  0.0000E+00  0.0000E+00  0.0000E+00  0.0000E+00  0.0000E+00  0.0000E+00  0.0000E+00  0.0000E+00  0.0000E+00  0.0000E+00  0.0000E+00  0.0000E+00  0.0000E+00  0.0000E+00  0.0000E+00  0.0000E+00
    -13.485  0.0000E+00  0.0000E+00  0.0000E+00  0.0000E+00  0.0000E+00  0.0000E+00  0.0000E+00  0.0000E+00  0.0000E+00  0.0000E+00  0.0000E+00  0.0000E+00  0.0000E+00  0.0000E+00  0.0000E+00  0.0000E+00  0.0000E+00  0.0000E+00
    -13.406  0.0000E+00  0.0000E+00  0.0000E+00  0.0000E+00  0.0000E+00  0.0000E+00  0.0000E+00  0.0000E+00  0.0000E+00  0.0000E+00  0.0000E+00  0.0000E+00  0.0000E+00  0.0000E+00  0.0000E+00  0.0000E+00  0.0000E+00  0.0000E+00
    -13.327  0.0000E+00  0.0000E+00  0.0000E+00  0.0000E+00  0.0000E+00  0.0000E+00  0.0000E+00  0.0000E+00  0.0000E+00  0.0000E+00  0.0000E+00  0.0000E+00  0.0000E+00  0.0000E+00  0.0000E+00  0.0000E+00  0.0000E+00  0.0000E+00
    -13.248  0.0000E+00  0.0000E+00  0.0000E+00  0.0000E+00  0.0000E+00  0.0000E+00  0.0000E+00  0.0000E+00  0.0000E+00  0.0000E+00  0.0000E+00  0.0000E+00  0.0000E+00  0.0000E+00  0.0000E+00  0.0000E+00  0.0000E+00  0.0000E+00
    -13.169  0.0000E+00  0.0000E+00  0.0000E+00  0.0000E+00  0.0000E+00  0.0000E+00  0.0000E+00  0.0000E+00  0.0000E+00  0.0000E+00  0.0000E+00  0.0000E+00  0.0000E+00  0.0000E+00  0.0000E+00  0.0000E+00  0.0000E+00  0.0000E+00
    -13.090  0.0000E+00  0.0000E+00  0.0000E+00  0.0000E+00  0.0000E+00  0.0000E+00  0.0000E+00  0.0000E+00  0.0000E+00  0.0000E+00  0.0000E+00  0.0000E+00  0.0000E+00  0.0000E+00  0.0000E+00  0.0000E+00  0.0000E+00  0.0000E+00
    -13.011  0.0000E+00  0.0000E+00  0.0000E+00  0.0000E+00  0.0000E+00  0.0000E+00  0.0000E+00  0.0000E+00  0.0000E+00  0.0000E+00  0.0000E+00  0.0000E+00  0.0000E+00  0.0000E+00  0.0000E+00  0.0000E+00  0.0000E+00  0.0000E+00
    -12.932  0.0000E+00  0.0000E+00  0.0000E+00  0.0000E+00  0.0000E+00  0.0000E+00  0.0000E+00  0.0000E+00  0.0000E+00  0.0000E+00  0.0000E+00  0.0000E+00  0.0000E+00  0.0000E+00  0.0000E+00  0.0000E+00  0.0000E+00  0.0000E+00
    -12.853  0.0000E+00  0.0000E+00  0.0000E+00  0.0000E+00  0.0000E+00  0.0000E+00  0.0000E+00  0.0000E+00  0.0000E+00  0.0000E+00  0.0000E+00  0.0000E+00  0.0000E+00  0.0000E+00  0.0000E+00  0.0000E+00  0.0000E+00  0.0000E+00
    -12.774  0.0000E+00  0.0000E+00  0.0000E+00  0.0000E+00  0.0000E+00  0.0000E+00  0.0000E+00  0.0000E+00  0.0000E+00  0.0000E+00  0.0000E+00  0.0000E+00  0.0000E+00  0.0000E+00  0.0000E+00  0.0000E+00  0.0000E+00  0.0000E+00
    -12.695  0.0000E+00  0.0000E+00  0.0000E+00  0.0000E+00  0.0000E+00  0.0000E+00  0.0000E+00  0.0000E+00  0.0000E+00  0.0000E+00  0.0000E+00  0.0000E+00  0.0000E+00  0.0000E+00  0.0000E+00  0.0000E+00  0.0000E+00  0.0000E+00
    -12.616  0.0000E+00  0.0000E+00  0.0000E+00  0.0000E+00  0.0000E+00  0.0000E+00  0.0000E+00  0.0000E+00  0.0000E+00  0.0000E+00  0.0000E+00  0.0000E+00  0.0000E+00  0.0000E+00  0.0000E+00  0.0000E+00  0.0000E+00  0.0000E+00
    -12.537  0.0000E+00  0.0000E+00  0.0000E+00  0.0000E+00  0.0000E+00  0.0000E+00  0.0000E+00  0.0000E+00  0.0000E+00  0.0000E+00  0.0000E+00  0.0000E+00  0.0000E+00  0.0000E+00  0.0000E+00  0.0000E+00  0.0000E+00  0.0000E+00
    -12.458  0.0000E+00  0.0000E+00  0.0000E+00  0.0000E+00  0.0000E+00  0.0000E+00  0.0000E+00  0.0000E+00  0.0000E+00  0.0000E+00  0.0000E+00  0.0000E+00  0.0000E+00  0.0000E+00  0.0000E+00  0.0000E+00  0.0000E+00  0.0000E+00
    -12.379  0.0000E+00  0.0000E+00  0.0000E+00  0.0000E+00  0.0000E+00  0.0000E+00  0.0000E+00  0.0000E+00  0.0000E+00  0.0000E+00  0.0000E+00  0.0000E+00  0.0000E+00  0.0000E+00  0.0000E+00  0.0000E+00  0.0000E+00  0.0000E+00
    -12.300  0.0000E+00  0.0000E+00  0.0000E+00  0.0000E+00  0.0000E+00  0.0000E+00  0.0000E+00  0.0000E+00  0.0000E+00  0.0000E+00  0.0000E+00  0.0000E+00  0.0000E+00  0.0000E+00  0.0000E+00  0.0000E+00  0.0000E+00  0.0000E+00
    -12.221  0.0000E+00  0.0000E+00  0.0000E+00  0.0000E+00  0.0000E+00  0.0000E+00  0.0000E+00  0.0000E+00  0.0000E+00  0.0000E+00  0.0000E+00  0.0000E+00  0.0000E+00  0.0000E+00  0.0000E+00  0.0000E+00  0.0000E+00  0.0000E+00
    -12.142  0.0000E+00  0.0000E+00  0.0000E+00  0.0000E+00  0.0000E+00  0.0000E+00  0.0000E+00  0.0000E+00  0.0000E+00  0.0000E+00  0.0000E+00  0.0000E+00  0.0000E+00  0.0000E+00  0.0000E+00  0.0000E+00  0.0000E+00  0.0000E+00
    -12.063  0.0000E+00  0.0000E+00  0.0000E+00  0.0000E+00  0.0000E+00  0.0000E+00  0.0000E+00  0.0000E+00  0.0000E+00  0.0000E+00  0.0000E+00  0.0000E+00  0.0000E+00  0.0000E+00  0.0000E+00  0.0000E+00  0.0000E+00  0.0000E+00
    -11.984  0.0000E+00  0.0000E+00  0.0000E+00  0.0000E+00  0.0000E+00  0.0000E+00  0.0000E+00  0.0000E+00  0.0000E+00  0.0000E+00  0.0000E+00  0.0000E+00  0.0000E+00  0.0000E+00  0.0000E+00  0.0000E+00  0.0000E+00  0.0000E+00
    -11.905  0.0000E+00  0.0000E+00  0.0000E+00  0.0000E+00  0.0000E+00  0.0000E+00  0.0000E+00  0.0000E+00  0.0000E+00  0.0000E+00  0.0000E+00  0.0000E+00  0.0000E+00  0.0000E+00  0.0000E+00  0.0000E+00  0.0000E+00  0.0000E+00
    -11.826  0.0000E+00  0.0000E+00  0.0000E+00  0.0000E+00  0.0000E+00  0.0000E+00  0.0000E+00  0.0000E+00  0.0000E+00  0.0000E+00  0.0000E+00  0.0000E+00  0.0000E+00  0.0000E+00  0.0000E+00  0.0000E+00  0.0000E+00  0.0000E+00
    -11.747  0.0000E+00  0.0000E+00  0.0000E+00  0.0000E+00  0.0000E+00  0.0000E+00  0.0000E+00  0.0000E+00  0.0000E+00  0.0000E+00  0.0000E+00  0.0000E+00  0.0000E+00  0.0000E+00  0.0000E+00  0.0000E+00  0.0000E+00  0.0000E+00
    -11.668  0.0000E+00  0.0000E+00  0.0000E+00  0.0000E+00  0.0000E+00  0.0000E+00  0.0000E+00  0.0000E+00  0.0000E+00  0.0000E+00  0.0000E+00  0.0000E+00  0.0000E+00  0.0000E+00  0.0000E+00  0.0000E+00  0.0000E+00  0.0000E+00
    -11.589  0.0000E+00  0.0000E+00  0.0000E+00  0.0000E+00  0.0000E+00  0.0000E+00  0.0000E+00  0.0000E+00  0.0000E+00  0.0000E+00  0.0000E+00  0.0000E+00  0.0000E+00  0.0000E+00  0.0000E+00  0.0000E+00  0.0000E+00  0.0000E+00
    -11.510  0.0000E+00  0.0000E+00  0.0000E+00  0.0000E+00  0.0000E+00  0.0000E+00  0.0000E+00  0.0000E+00  0.0000E+00  0.0000E+00  0.0000E+00  0.0000E+00  0.0000E+00  0.0000E+00  0.0000E+00  0.0000E+00  0.0000E+00  0.0000E+00
    -11.431  0.0000E+00  0.0000E+00  0.0000E+00  0.0000E+00  0.0000E+00  0.0000E+00  0.0000E+00  0.0000E+00  0.0000E+00  0.0000E+00  0.0000E+00  0.0000E+00  0.0000E+00  0.0000E+00  0.0000E+00  0.0000E+00  0.0000E+00  0.0000E+00
    -11.352  0.0000E+00  0.0000E+00  0.0000E+00  0.0000E+00  0.0000E+00  0.0000E+00  0.0000E+00  0.0000E+00  0.0000E+00  0.0000E+00  0.0000E+00  0.0000E+00  0.0000E+00  0.0000E+00  0.0000E+00  0.0000E+00  0.0000E+00  0.0000E+00
    -11.273  0.0000E+00  0.0000E+00  0.0000E+00  0.0000E+00  0.0000E+00  0.0000E+00  0.0000E+00  0.0000E+00  0.0000E+00  0.0000E+00  0.0000E+00  0.0000E+00  0.0000E+00  0.0000E+00  0.0000E+00  0.0000E+00  0.0000E+00  0.0000E+00
    -11.194  0.0000E+00  0.0000E+00  0.0000E+00  0.0000E+00  0.0000E+00  0.0000E+00  0.0000E+00  0.0000E+00  0.0000E+00  0.0000E+00  0.0000E+00  0.0000E+00  0.0000E+00  0.0000E+00  0.0000E+00  0.0000E+00  0.0000E+00  0.0000E+00
    -11.115  0.0000E+00  0.0000E+00  0.0000E+00  0.0000E+00  0.0000E+00  0.0000E+00  0.0000E+00  0.0000E+00  0.0000E+00  0.0000E+00  0.0000E+00  0.0000E+00  0.0000E+00  0.0000E+00  0.0000E+00  0.0000E+00  0.0000E+00  0.0000E+00
    -11.036  0.0000E+00  0.0000E+00  0.0000E+00  0.0000E+00  0.0000E+00  0.0000E+00  0.0000E+00  0.0000E+00  0.0000E+00  0.0000E+00  0.0000E+00  0.0000E+00  0.0000E+00  0.0000E+00  0.0000E+00  0.0000E+00  0.0000E+00  0.0000E+00
    -10.957  0.0000E+00  0.0000E+00  0.0000E+00  0.0000E+00  0.0000E+00  0.0000E+00  0.0000E+00  0.0000E+00  0.0000E+00  0.0000E+00  0.0000E+00  0.0000E+00  0.0000E+00  0.0000E+00  0.0000E+00  0.0000E+00  0.0000E+00  0.0000E+00
    -10.878  0.0000E+00  0.0000E+00  0.0000E+00  0.0000E+00  0.0000E+00  0.0000E+00  0.0000E+00  0.0000E+00  0.0000E+00  0.0000E+00  0.0000E+00  0.0000E+00  0.0000E+00  0.0000E+00  0.0000E+00  0.0000E+00  0.0000E+00  0.0000E+00
    -10.799  0.0000E+00  0.0000E+00  0.0000E+00  0.0000E+00  0.0000E+00  0.0000E+00  0.0000E+00  0.0000E+00  0.0000E+00  0.0000E+00  0.0000E+00  0.0000E+00  0.0000E+00  0.0000E+00  0.0000E+00  0.0000E+00  0.0000E+00  0.0000E+00
    -10.720  0.0000E+00  0.0000E+00  0.0000E+00  0.0000E+00  0.0000E+00  0.0000E+00  0.0000E+00  0.0000E+00  0.0000E+00  0.0000E+00  0.0000E+00  0.0000E+00  0.0000E+00  0.0000E+00  0.0000E+00  0.0000E+00  0.0000E+00  0.0000E+00
    -10.641  0.0000E+00  0.0000E+00  0.0000E+00  0.0000E+00  0.0000E+00  0.0000E+00  0.0000E+00  0.0000E+00  0.0000E+00  0.0000E+00  0.0000E+00  0.0000E+00  0.0000E+00  0.0000E+00  0.0000E+00  0.0000E+00  0.0000E+00  0.0000E+00
    -10.562  0.0000E+00  0.0000E+00  0.0000E+00  0.0000E+00  0.0000E+00  0.0000E+00  0.0000E+00  0.0000E+00  0.0000E+00  0.0000E+00  0.0000E+00  0.0000E+00  0.0000E+00  0.0000E+00  0.0000E+00  0.0000E+00  0.0000E+00  0.0000E+00
    -10.483  0.0000E+00  0.0000E+00  0.0000E+00  0.0000E+00  0.0000E+00  0.0000E+00  0.0000E+00  0.0000E+00  0.0000E+00  0.0000E+00  0.0000E+00  0.0000E+00  0.0000E+00  0.0000E+00  0.0000E+00  0.0000E+00  0.0000E+00  0.0000E+00
    -10.404  0.0000E+00  0.0000E+00  0.0000E+00  0.0000E+00  0.0000E+00  0.0000E+00  0.0000E+00  0.0000E+00  0.0000E+00  0.0000E+00  0.0000E+00  0.0000E+00  0.0000E+00  0.0000E+00  0.0000E+00  0.0000E+00  0.0000E+00  0.0000E+00
    -10.325  0.0000E+00  0.0000E+00  0.0000E+00  0.0000E+00  0.0000E+00  0.0000E+00  0.0000E+00  0.0000E+00  0.0000E+00  0.0000E+00  0.0000E+00  0.0000E+00  0.0000E+00  0.0000E+00  0.0000E+00  0.0000E+00  0.0000E+00  0.0000E+00
    -10.246  0.0000E+00  0.0000E+00  0.0000E+00  0.0000E+00  0.0000E+00  0.0000E+00  0.0000E+00  0.0000E+00  0.0000E+00  0.0000E+00  0.0000E+00  0.0000E+00  0.0000E+00  0.0000E+00  0.0000E+00  0.0000E+00  0.0000E+00  0.0000E+00
    -10.167  0.0000E+00  0.0000E+00  0.0000E+00  0.0000E+00  0.0000E+00  0.0000E+00  0.0000E+00  0.0000E+00  0.0000E+00  0.0000E+00  0.0000E+00  0.0000E+00  0.0000E+00  0.0000E+00  0.0000E+00  0.0000E+00  0.0000E+00  0.0000E+00
    -10.088  0.0000E+00  0.0000E+00  0.0000E+00  0.0000E+00  0.0000E+00  0.0000E+00  0.0000E+00  0.0000E+00  0.0000E+00  0.0000E+00  0.0000E+00  0.0000E+00  0.0000E+00  0.0000E+00  0.0000E+00  0.0000E+00  0.0000E+00  0.0000E+00
    -10.009  0.0000E+00  0.0000E+00  0.0000E+00  0.0000E+00  0.0000E+00  0.0000E+00  0.0000E+00  0.0000E+00  0.0000E+00  0.0000E+00  0.0000E+00  0.0000E+00  0.0000E+00  0.0000E+00  0.0000E+00  0.0000E+00  0.0000E+00  0.0000E+00
     -9.930  0.0000E+00  0.0000E+00  0.0000E+00  0.0000E+00  0.0000E+00  0.0000E+00  0.0000E+00  0.0000E+00  0.0000E+00  0.0000E+00  0.0000E+00  0.0000E+00  0.0000E+00  0.0000E+00  0.0000E+00  0.0000E+00  0.0000E+00  0.0000E+00
     -9.851  0.0000E+00  0.0000E+00  0.0000E+00  0.0000E+00  0.0000E+00  0.0000E+00  0.0000E+00  0.0000E+00  0.0000E+00  0.0000E+00  0.0000E+00  0.0000E+00  0.0000E+00  0.0000E+00  0.0000E+00  0.0000E+00  0.0000E+00  0.0000E+00
     -9.772  0.0000E+00  0.0000E+00  0.0000E+00  0.0000E+00  0.0000E+00  0.0000E+00  0.0000E+00  0.0000E+00  0.0000E+00  0.0000E+00  0.0000E+00  0.0000E+00  0.0000E+00  0.0000E+00  0.0000E+00  0.0000E+00  0.0000E+00  0.0000E+00
     -9.693  0.0000E+00  0.0000E+00  0.0000E+00  0.0000E+00  0.0000E+00  0.0000E+00  0.0000E+00  0.0000E+00  0.0000E+00  0.0000E+00  0.0000E+00  0.0000E+00  0.0000E+00  0.0000E+00  0.0000E+00  0.0000E+00  0.0000E+00  0.0000E+00
     -9.614  0.0000E+00  0.0000E+00  0.0000E+00  0.0000E+00  0.0000E+00  0.0000E+00  0.0000E+00  0.0000E+00  0.0000E+00  0.0000E+00  0.0000E+00  0.0000E+00  0.0000E+00  0.0000E+00  0.0000E+00  0.0000E+00  0.0000E+00  0.0000E+00
     -9.535  0.0000E+00  0.0000E+00  0.0000E+00  0.0000E+00  0.0000E+00  0.0000E+00  0.0000E+00  0.0000E+00  0.0000E+00  0.0000E+00  0.0000E+00  0.0000E+00  0.0000E+00  0.0000E+00  0.0000E+00  0.0000E+00  0.0000E+00  0.0000E+00
     -9.456  0.0000E+00  0.0000E+00  0.0000E+00  0.0000E+00  0.0000E+00  0.0000E+00  0.0000E+00  0.0000E+00  0.0000E+00  0.0000E+00  0.0000E+00  0.0000E+00  0.0000E+00  0.0000E+00  0.0000E+00  0.0000E+00  0.0000E+00  0.0000E+00
     -9.377  0.0000E+00  0.0000E+00  0.0000E+00  0.0000E+00  0.0000E+00  0.0000E+00  0.0000E+00  0.0000E+00  0.0000E+00  0.0000E+00  0.0000E+00  0.0000E+00  0.0000E+00  0.0000E+00  0.0000E+00  0.0000E+00  0.0000E+00  0.0000E+00
     -9.298  0.0000E+00  0.0000E+00  0.0000E+00  0.0000E+00  0.0000E+00  0.0000E+00  0.0000E+00  0.0000E+00  0.0000E+00  0.0000E+00  0.0000E+00  0.0000E+00  0.0000E+00  0.0000E+00  0.0000E+00  0.0000E+00  0.0000E+00  0.0000E+00
     -9.219  0.0000E+00  0.0000E+00  0.0000E+00  0.0000E+00  0.0000E+00  0.0000E+00  0.0000E+00  0.0000E+00  0.0000E+00  0.0000E+00  0.0000E+00  0.0000E+00  0.0000E+00  0.0000E+00  0.0000E+00  0.0000E+00  0.0000E+00  0.0000E+00
     -9.140  0.0000E+00  0.0000E+00  0.0000E+00  0.0000E+00  0.0000E+00  0.0000E+00  0.0000E+00  0.0000E+00  0.0000E+00  0.0000E+00  0.0000E+00  0.0000E+00  0.0000E+00  0.0000E+00  0.0000E+00  0.0000E+00  0.0000E+00  0.0000E+00
     -9.061  0.0000E+00  0.0000E+00  0.0000E+00  0.0000E+00  0.0000E+00  0.0000E+00  0.0000E+00  0.0000E+00  0.0000E+00  0.0000E+00  0.0000E+00  0.0000E+00  0.0000E+00  0.0000E+00  0.0000E+00  0.0000E+00  0.0000E+00  0.0000E+00
     -8.982  0.0000E+00  0.0000E+00  0.0000E+00  0.0000E+00  0.0000E+00  0.0000E+00  0.0000E+00  0.0000E+00  0.0000E+00  0.0000E+00  0.0000E+00  0.0000E+00  0.0000E+00  0.0000E+00  0.0000E+00  0.0000E+00  0.0000E+00  0.0000E+00
     -8.903  0.0000E+00  0.0000E+00  0.0000E+00  0.0000E+00  0.0000E+00  0.0000E+00  0.0000E+00  0.0000E+00  0.0000E+00  0.0000E+00  0.0000E+00  0.0000E+00  0.0000E+00  0.0000E+00  0.0000E+00  0.0000E+00  0.0000E+00  0.0000E+00
     -8.824  0.0000E+00  0.0000E+00  0.0000E+00  0.0000E+00  0.0000E+00  0.0000E+00  0.0000E+00  0.0000E+00  0.0000E+00  0.0000E+00  0.0000E+00  0.0000E+00  0.0000E+00  0.0000E+00  0.0000E+00  0.0000E+00  0.0000E+00  0.0000E+00
     -8.745  0.0000E+00  0.0000E+00  0.0000E+00  0.0000E+00  0.0000E+00  0.0000E+00  0.0000E+00  0.0000E+00  0.0000E+00  0.0000E+00  0.0000E+00  0.0000E+00  0.0000E+00  0.0000E+00  0.0000E+00  0.0000E+00  0.0000E+00  0.0000E+00
     -8.666  0.0000E+00  0.0000E+00  0.0000E+00  0.0000E+00  0.0000E+00  0.0000E+00  0.0000E+00  0.0000E+00  0.0000E+00  0.0000E+00  0.0000E+00  0.0000E+00  0.0000E+00  0.0000E+00  0.0000E+00  0.0000E+00  0.0000E+00  0.0000E+00
     -8.587  0.0000E+00  0.0000E+00  0.0000E+00  0.0000E+00  0.0000E+00  0.0000E+00  0.0000E+00  0.0000E+00  0.0000E+00  0.0000E+00  0.0000E+00  0.0000E+00  0.0000E+00  0.0000E+00  0.0000E+00  0.0000E+00  0.0000E+00  0.0000E+00
     -8.508  0.0000E+00  0.0000E+00  0.0000E+00  0.0000E+00  0.0000E+00  0.0000E+00  0.0000E+00  0.0000E+00  0.0000E+00  0.0000E+00  0.0000E+00  0.0000E+00  0.0000E+00  0.0000E+00  0.0000E+00  0.0000E+00  0.0000E+00  0.0000E+00
     -8.429  0.0000E+00  0.0000E+00  0.0000E+00  0.0000E+00  0.0000E+00  0.0000E+00  0.0000E+00  0.0000E+00  0.0000E+00  0.0000E+00  0.0000E+00  0.0000E+00  0.0000E+00  0.0000E+00  0.0000E+00  0.0000E+00  0.0000E+00  0.0000E+00
     -8.350  0.0000E+00  0.0000E+00  0.0000E+00  0.0000E+00  0.0000E+00  0.0000E+00  0.0000E+00  0.0000E+00  0.0000E+00  0.0000E+00  0.0000E+00  0.0000E+00  0.0000E+00  0.0000E+00  0.0000E+00  0.0000E+00  0.0000E+00  0.0000E+00
     -8.271  0.0000E+00  0.0000E+00  0.0000E+00  0.0000E+00  0.0000E+00  0.0000E+00  0.0000E+00  0.0000E+00  0.0000E+00  0.0000E+00  0.0000E+00  0.0000E+00  0.0000E+00  0.0000E+00  0.0000E+00  0.0000E+00  0.0000E+00  0.0000E+00
     -8.192  0.0000E+00  0.0000E+00  0.0000E+00  0.0000E+00  0.0000E+00  0.0000E+00  0.0000E+00  0.0000E+00  0.0000E+00  0.0000E+00  0.0000E+00  0.0000E+00  0.0000E+00  0.0000E+00  0.0000E+00  0.0000E+00  0.0000E+00  0.0000E+00
     -8.113  0.0000E+00  0.0000E+00  0.0000E+00  0.0000E+00  0.0000E+00  0.0000E+00  0.0000E+00  0.0000E+00  0.0000E+00  0.0000E+00  0.0000E+00  0.0000E+00  0.0000E+00  0.0000E+00  0.0000E+00  0.0000E+00  0.0000E+00  0.0000E+00
     -8.034  0.0000E+00  0.0000E+00  0.0000E+00  0.0000E+00  0.0000E+00  0.0000E+00  0.0000E+00  0.0000E+00  0.0000E+00  0.0000E+00  0.0000E+00  0.0000E+00  0.0000E+00  0.0000E+00  0.0000E+00  0.0000E+00  0.0000E+00  0.0000E+00
     -7.955  0.0000E+00  0.0000E+00  0.0000E+00  0.0000E+00  0.0000E+00  0.0000E+00  0.0000E+00  0.0000E+00  0.0000E+00  0.0000E+00  0.0000E+00  0.0000E+00  0.0000E+00  0.0000E+00  0.0000E+00  0.0000E+00  0.0000E+00  0.0000E+00
     -7.876  0.2713E-33  0.0000E+00  0.1071E-10  0.0000E+00  0.1071E-10  0.0000E+00  0.1071E-10  0.0000E+00  0.0000E+00  0.0000E+00  0.0000E+00  0.0000E+00  0.0000E+00  0.0000E+00  0.0000E+00  0.0000E+00  0.0000E+00  0.0000E+00
     -7.797  0.1865E-27  0.0000E+00  0.7363E-05  0.0000E+00  0.7363E-05  0.0000E+00  0.7363E-05  0.0000E+00  0.0000E+00  0.0000E+00  0.0000E+00  0.0000E+00  0.0000E+00  0.0000E+00  0.0000E+00  0.0000E+00  0.0000E+00  0.0000E+00
     -7.718  0.1055E-23  0.0000E+00  0.4165E-01  0.0000E+00  0.4165E-01  0.0000E+00  0.4165E-01  0.0000E+00  0.0000E+00  0.0000E+00  0.0000E+00  0.0000E+00  0.0000E+00  0.0000E+00  0.0000E+00  0.0000E+00  0.0000E+00  0.0000E+00
     -7.639  0.6623E-22  0.0000E+00  0.2614E+01  0.0000E+00  0.2614E+01  0.0000E+00  0.2614E+01  0.0000E+00  0.0000E+00  0.0000E+00  0.0000E+00  0.0000E+00  0.0000E+00  0.0000E+00  0.0000E+00  0.0000E+00  0.0000E+00  0.0000E+00
     -7.560  0.9893E-22  0.0000E+00  0.3905E+01  0.0000E+00  0.3905E+01  0.0000E+00  0.3905E+01  0.0000E+00  0.0000E+00  0.0000E+00  0.0000E+00  0.0000E+00  0.0000E+00  0.0000E+00  0.0000E+00  0.0000E+00  0.0000E+00  0.0000E+00
     -7.481  0.4183E-23  0.0000E+00  0.1651E+00  0.0000E+00  0.1651E+00  0.0000E+00  0.1651E+00  0.0000E+00  0.0000E+00  0.0000E+00  0.0000E+00  0.0000E+00  0.0000E+00  0.0000E+00  0.0000E+00  0.0000E+00  0.0000E+00  0.0000E+00
     -7.402  0.2256E-26  0.0000E+00  0.8906E-04  0.0000E+00  0.8906E-04  0.0000E+00  0.8906E-04  0.0000E+00  0.0000E+00  0.0000E+00  0.0000E+00  0.0000E+00  0.0000E+00  0.0000E+00  0.0000E+00  0.0000E+00  0.0000E+00  0.0000E+00
     -7.323  0.1045E-31  0.0000E+00  0.4125E-09  0.0000E+00  0.4125E-09  0.0000E+00  0.4125E-09  0.0000E+00  0.0000E+00  0.0000E+00  0.0000E+00  0.0000E+00  0.0000E+00  0.0000E+00  0.0000E+00  0.0000E+00  0.0000E+00  0.0000E+00
     -7.244  0.0000E+00  0.0000E+00  0.0000E+00  0.0000E+00  0.0000E+00  0.0000E+00  0.0000E+00  0.0000E+00  0.0000E+00  0.0000E+00  0.0000E+00  0.0000E+00  0.0000E+00  0.0000E+00  0.0000E+00  0.0000E+00  0.0000E+00  0.0000E+00
     -7.165  0.0000E+00  0.0000E+00  0.0000E+00  0.0000E+00  0.0000E+00  0.0000E+00  0.0000E+00  0.0000E+00  0.0000E+00  0.0000E+00  0.0000E+00  0.0000E+00  0.0000E+00  0.0000E+00  0.0000E+00  0.0000E+00  0.0000E+00  0.0000E+00
     -7.086  0.0000E+00  0.0000E+00  0.0000E+00  0.0000E+00  0.0000E+00  0.0000E+00  0.0000E+00  0.0000E+00  0.0000E+00  0.0000E+00  0.0000E+00  0.0000E+00  0.0000E+00  0.0000E+00  0.0000E+00  0.0000E+00  0.0000E+00  0.0000E+00
     -7.007  0.0000E+00  0.0000E+00  0.0000E+00  0.0000E+00  0.0000E+00  0.0000E+00  0.0000E+00  0.0000E+00  0.0000E+00  0.0000E+00  0.0000E+00  0.0000E+00  0.0000E+00  0.0000E+00  0.0000E+00  0.0000E+00  0.0000E+00  0.0000E+00
     -6.928  0.0000E+00  0.0000E+00  0.0000E+00  0.0000E+00  0.0000E+00  0.0000E+00  0.0000E+00  0.0000E+00  0.0000E+00  0.0000E+00  0.0000E+00  0.0000E+00  0.0000E+00  0.0000E+00  0.0000E+00  0.0000E+00  0.0000E+00  0.0000E+00
     -6.849  0.0000E+00  0.0000E+00  0.0000E+00  0.0000E+00  0.0000E+00  0.0000E+00  0.0000E+00  0.0000E+00  0.0000E+00  0.0000E+00  0.0000E+00  0.0000E+00  0.0000E+00  0.0000E+00  0.0000E+00  0.0000E+00  0.0000E+00  0.0000E+00
     -6.770  0.0000E+00  0.0000E+00  0.0000E+00  0.0000E+00  0.0000E+00  0.0000E+00  0.0000E+00  0.0000E+00  0.0000E+00  0.0000E+00  0.0000E+00  0.0000E+00  0.0000E+00  0.0000E+00  0.0000E+00  0.0000E+00  0.0000E+00  0.0000E+00
     -6.691  0.0000E+00  0.0000E+00  0.0000E+00  0.0000E+00  0.0000E+00  0.0000E+00  0.0000E+00  0.0000E+00  0.0000E+00  0.0000E+00  0.0000E+00  0.0000E+00  0.0000E+00  0.0000E+00  0.0000E+00  0.0000E+00  0.0000E+00  0.0000E+00
     -6.612  0.0000E+00  0.0000E+00  0.0000E+00  0.0000E+00  0.0000E+00  0.0000E+00  0.0000E+00  0.0000E+00  0.0000E+00  0.0000E+00  0.0000E+00  0.0000E+00  0.0000E+00  0.0000E+00  0.0000E+00  0.0000E+00  0.0000E+00  0.0000E+00
     -6.533  0.0000E+00  0.0000E+00  0.0000E+00  0.0000E+00  0.0000E+00  0.0000E+00  0.0000E+00  0.0000E+00  0.0000E+00  0.0000E+00  0.0000E+00  0.0000E+00  0.0000E+00  0.0000E+00  0.0000E+00  0.0000E+00  0.0000E+00  0.0000E+00
     -6.454  0.0000E+00  0.0000E+00  0.0000E+00  0.0000E+00  0.0000E+00  0.0000E+00  0.0000E+00  0.0000E+00  0.0000E+00  0.0000E+00  0.0000E+00  0.0000E+00  0.0000E+00  0.0000E+00  0.0000E+00  0.0000E+00  0.0000E+00  0.0000E+00
     -6.375  0.0000E+00  0.0000E+00  0.0000E+00  0.0000E+00  0.0000E+00  0.0000E+00  0.0000E+00  0.0000E+00  0.0000E+00  0.0000E+00  0.0000E+00  0.0000E+00  0.0000E+00  0.0000E+00  0.0000E+00  0.0000E+00  0.0000E+00  0.0000E+00
     -6.296  0.0000E+00  0.0000E+00  0.0000E+00  0.0000E+00  0.0000E+00  0.0000E+00  0.0000E+00  0.0000E+00  0.0000E+00  0.0000E+00  0.0000E+00  0.0000E+00  0.0000E+00  0.0000E+00  0.0000E+00  0.0000E+00  0.0000E+00  0.0000E+00
     -6.217  0.0000E+00  0.0000E+00  0.0000E+00  0.0000E+00  0.0000E+00  0.0000E+00  0.0000E+00  0.0000E+00  0.0000E+00  0.0000E+00  0.0000E+00  0.0000E+00  0.0000E+00  0.0000E+00  0.0000E+00  0.0000E+00  0.0000E+00  0.0000E+00
     -6.139  0.0000E+00  0.3688E-32  0.0000E+00  0.1606E-09  0.0000E+00  0.1606E-09  0.0000E+00  0.1606E-09  0.0000E+00  0.0000E+00  0.0000E+00  0.0000E+00  0.0000E+00  0.0000E+00  0.0000E+00  0.0000E+00  0.0000E+00  0.0000E+00
     -6.060  0.0000E+00  0.1062E-26  0.0000E+00  0.4624E-04  0.0000E+00  0.4624E-04  0.0000E+00  0.4624E-04  0.0000E+00  0.0000E+00  0.0000E+00  0.0000E+00  0.0000E+00  0.0000E+00  0.0000E+00  0.0000E+00  0.0000E+00  0.0000E+00
     -5.981  0.0000E+00  0.2596E-23  0.0000E+00  0.1130E+00  0.0000E+00  0.1130E+00  0.0000E+00  0.1130E+00  0.0000E+00  0.0000E+00  0.0000E+00  0.0000E+00  0.0000E+00  0.0000E+00  0.0000E+00  0.0000E+00  0.0000E+00  0.0000E+00
     -5.902  0.0000E+00  0.7793E-22  0.0000E+00  0.3393E+01  0.0000E+00  0.3393E+01  0.0000E+00  0.3393E+01  0.0000E+00  0.0000E+00  0.0000E+00  0.0000E+00  0.0000E+00  0.0000E+00  0.0000E+00  0.0000E+00  0.0000E+00  0.0000E+00
     -5.823  0.0000E+00  0.6374E-22  0.0000E+00  0.2775E+01  0.0000E+00  0.2775E+01  0.0000E+00  0.2775E+01  0.0000E+00  0.0000E+00  0.0000E+00  0.0000E+00  0.0000E+00  0.0000E+00  0.0000E+00  0.0000E+00  0.0000E+00  0.0000E+00
     -5.744  0.0000E+00  0.1302E-23  0.0000E+00  0.5667E-01  0.0000E+00  0.5667E-01  0.0000E+00  0.5667E-01  0.0000E+00  0.0000E+00  0.0000E+00  0.0000E+00  0.0000E+00  0.0000E+00  0.0000E+00  0.0000E+00  0.0000E+00  0.0000E+00
     -5.665  0.0000E+00  0.3043E-27  0.0000E+00  0.1325E-04  0.0000E+00  0.1325E-04  0.0000E+00  0.1325E-04  0.0000E+00  0.0000E+00  0.0000E+00  0.0000E+00  0.0000E+00  0.0000E+00  0.0000E+00  0.0000E+00  0.0000E+00  0.0000E+00
     -5.586  0.0000E+00  0.5912E-33  0.0000E+00  0.2574E-10  0.0000E+00  0.2574E-10  0.0000E+00  0.2574E-10  0.0000E+00  0.0000E+00  0.0000E+00  0.0000E+00  0.0000E+00  0.0000E+00  0.0000E+00  0.0000E+00  0.0000E+00  0.0000E+00
     -5.507  0.0000E+00  0.0000E+00  0.0000E+00  0.0000E+00  0.0000E+00  0.0000E+00  0.0000E+00  0.0000E+00  0.0000E+00  0.0000E+00  0.0000E+00  0.0000E+00  0.0000E+00  0.0000E+00  0.0000E+00  0.0000E+00  0.0000E+00  0.0000E+00
     -5.428  0.0000E+00  0.0000E+00  0.0000E+00  0.0000E+00  0.0000E+00  0.0000E+00  0.0000E+00  0.0000E+00  0.0000E+00  0.0000E+00  0.0000E+00  0.0000E+00  0.0000E+00  0.0000E+00  0.0000E+00  0.0000E+00  0.0000E+00  0.0000E+00
     -5.349  0.0000E+00  0.0000E+00  0.0000E+00  0.0000E+00  0.0000E+00  0.0000E+00  0.0000E+00  0.0000E+00  0.0000E+00  0.0000E+00  0.0000E+00  0.0000E+00  0.0000E+00  0.0000E+00  0.0000E+00  0.0000E+00  0.0000E+00  0.0000E+00
     -5.270  0.0000E+00  0.0000E+00  0.0000E+00  0.0000E+00  0.0000E+00  0.0000E+00  0.0000E+00  0.0000E+00  0.0000E+00  0.0000E+00  0.0000E+00  0.0000E+00  0.0000E+00  0.0000E+00  0.0000E+00  0.0000E+00  0.0000E+00  0.0000E+00
     -5.191  0.0000E+00  0.0000E+00  0.0000E+00  0.0000E+00  0.0000E+00  0.0000E+00  0.0000E+00  0.0000E+00  0.0000E+00  0.0000E+00  0.0000E+00  0.0000E+00  0.0000E+00  0.0000E+00  0.0000E+00  0.0000E+00  0.0000E+00  0.0000E+00
     -5.112  0.0000E+00  0.0000E+00  0.0000E+00  0.0000E+00  0.0000E+00  0.0000E+00  0.0000E+00  0.0000E+00  0.0000E+00  0.0000E+00  0.0000E+00  0.0000E+00  0.0000E+00  0.0000E+00  0.0000E+00  0.0000E+00  0.0000E+00  0.0000E+00
     -5.033  0.0000E+00  0.0000E+00  0.0000E+00  0.0000E+00  0.0000E+00  0.0000E+00  0.0000E+00  0.0000E+00  0.0000E+00  0.0000E+00  0.0000E+00  0.0000E+00  0.0000E+00  0.0000E+00  0.0000E+00  0.0000E+00  0.0000E+00  0.0000E+00
     -4.954  0.0000E+00  0.0000E+00  0.0000E+00  0.0000E+00  0.0000E+00  0.0000E+00  0.0000E+00  0.0000E+00  0.0000E+00  0.0000E+00  0.0000E+00  0.0000E+00  0.0000E+00  0.0000E+00  0.0000E+00  0.0000E+00  0.0000E+00  0.0000E+00
     -4.875  0.0000E+00  0.0000E+00  0.0000E+00  0.0000E+00  0.0000E+00  0.0000E+00  0.0000E+00  0.0000E+00  0.0000E+00  0.0000E+00  0.0000E+00  0.0000E+00  0.0000E+00  0.0000E+00  0.0000E+00  0.0000E+00  0.0000E+00  0.0000E+00
     -4.796  0.0000E+00  0.0000E+00  0.0000E+00  0.0000E+00  0.0000E+00  0.0000E+00  0.0000E+00  0.0000E+00  0.0000E+00  0.0000E+00  0.0000E+00  0.0000E+00  0.0000E+00  0.0000E+00  0.0000E+00  0.0000E+00  0.0000E+00  0.0000E+00
     -4.717  0.0000E+00  0.0000E+00  0.0000E+00  0.0000E+00  0.0000E+00  0.0000E+00  0.0000E+00  0.0000E+00  0.0000E+00  0.0000E+00  0.0000E+00  0.0000E+00  0.0000E+00  0.0000E+00  0.0000E+00  0.0000E+00  0.0000E+00  0.0000E+00
     -4.638  0.0000E+00  0.0000E+00  0.0000E+00  0.0000E+00  0.0000E+00  0.0000E+00  0.0000E+00  0.0000E+00  0.0000E+00  0.0000E+00  0.0000E+00  0.0000E+00  0.0000E+00  0.0000E+00  0.0000E+00  0.0000E+00  0.0000E+00  0.0000E+00
     -4.559  0.0000E+00  0.0000E+00  0.0000E+00  0.0000E+00  0.0000E+00  0.0000E+00  0.0000E+00  0.0000E+00  0.0000E+00  0.0000E+00  0.0000E+00  0.0000E+00  0.0000E+00  0.0000E+00  0.0000E+00  0.0000E+00  0.0000E+00  0.0000E+00
     -4.480  0.0000E+00  0.0000E+00  0.0000E+00  0.0000E+00  0.0000E+00  0.0000E+00  0.0000E+00  0.0000E+00  0.0000E+00  0.0000E+00  0.0000E+00  0.0000E+00  0.0000E+00  0.0000E+00  0.0000E+00  0.0000E+00  0.0000E+00  0.0000E+00
     -4.401  0.0000E+00  0.0000E+00  0.0000E+00  0.0000E+00  0.0000E+00  0.0000E+00  0.0000E+00  0.0000E+00  0.0000E+00  0.0000E+00  0.0000E+00  0.0000E+00  0.0000E+00  0.0000E+00  0.0000E+00  0.0000E+00  0.0000E+00  0.0000E+00
     -4.322  0.0000E+00  0.0000E+00  0.0000E+00  0.0000E+00  0.0000E+00  0.0000E+00  0.0000E+00  0.0000E+00  0.0000E+00  0.0000E+00  0.0000E+00  0.0000E+00  0.0000E+00  0.0000E+00  0.0000E+00  0.0000E+00  0.0000E+00  0.0000E+00
     -4.243  0.0000E+00  0.0000E+00  0.0000E+00  0.0000E+00  0.0000E+00  0.0000E+00  0.0000E+00  0.0000E+00  0.0000E+00  0.0000E+00  0.0000E+00  0.0000E+00  0.0000E+00  0.0000E+00  0.0000E+00  0.0000E+00  0.0000E+00  0.0000E+00
     -4.164  0.0000E+00  0.0000E+00  0.0000E+00  0.0000E+00  0.0000E+00  0.0000E+00  0.0000E+00  0.0000E+00  0.0000E+00  0.0000E+00  0.0000E+00  0.0000E+00  0.0000E+00  0.0000E+00  0.0000E+00  0.0000E+00  0.0000E+00  0.0000E+00
     -4.085  0.0000E+00  0.0000E+00  0.0000E+00  0.0000E+00  0.0000E+00  0.0000E+00  0.0000E+00  0.0000E+00  0.0000E+00  0.0000E+00  0.0000E+00  0.0000E+00  0.0000E+00  0.0000E+00  0.0000E+00  0.0000E+00  0.0000E+00  0.0000E+00
     -4.006  0.0000E+00  0.0000E+00  0.0000E+00  0.0000E+00  0.0000E+00  0.0000E+00  0.0000E+00  0.0000E+00  0.0000E+00  0.0000E+00  0.0000E+00  0.0000E+00  0.0000E+00  0.0000E+00  0.0000E+00  0.0000E+00  0.0000E+00  0.0000E+00
     -3.927  0.0000E+00  0.0000E+00  0.0000E+00  0.0000E+00  0.0000E+00  0.0000E+00  0.0000E+00  0.0000E+00  0.0000E+00  0.0000E+00  0.0000E+00  0.0000E+00  0.0000E+00  0.0000E+00  0.0000E+00  0.0000E+00  0.0000E+00  0.0000E+00
     -3.848  0.0000E+00  0.0000E+00  0.0000E+00  0.0000E+00  0.0000E+00  0.0000E+00  0.0000E+00  0.0000E+00  0.0000E+00  0.0000E+00  0.0000E+00  0.0000E+00  0.0000E+00  0.0000E+00  0.0000E+00  0.0000E+00  0.0000E+00  0.0000E+00
     -3.769  0.0000E+00  0.0000E+00  0.0000E+00  0.0000E+00  0.0000E+00  0.0000E+00  0.0000E+00  0.0000E+00  0.0000E+00  0.0000E+00  0.0000E+00  0.0000E+00  0.0000E+00  0.0000E+00  0.0000E+00  0.0000E+00  0.0000E+00  0.0000E+00
     -3.690  0.0000E+00  0.0000E+00  0.0000E+00  0.0000E+00  0.0000E+00  0.0000E+00  0.0000E+00  0.0000E+00  0.0000E+00  0.0000E+00  0.0000E+00  0.0000E+00  0.0000E+00  0.0000E+00  0.0000E+00  0.0000E+00  0.0000E+00  0.0000E+00
     -3.611  0.0000E+00  0.0000E+00  0.0000E+00  0.0000E+00  0.0000E+00  0.0000E+00  0.0000E+00  0.0000E+00  0.0000E+00  0.0000E+00  0.0000E+00  0.0000E+00  0.0000E+00  0.0000E+00  0.0000E+00  0.0000E+00  0.0000E+00  0.0000E+00
     -3.532  0.0000E+00  0.0000E+00  0.0000E+00  0.0000E+00  0.0000E+00  0.0000E+00  0.0000E+00  0.0000E+00  0.0000E+00  0.0000E+00  0.0000E+00  0.0000E+00  0.0000E+00  0.0000E+00  0.0000E+00  0.0000E+00  0.0000E+00  0.0000E+00
     -3.453  0.0000E+00  0.0000E+00  0.0000E+00  0.0000E+00  0.0000E+00  0.0000E+00  0.0000E+00  0.0000E+00  0.0000E+00  0.0000E+00  0.0000E+00  0.0000E+00  0.0000E+00  0.0000E+00  0.0000E+00  0.0000E+00  0.0000E+00  0.0000E+00
     -3.374  0.0000E+00  0.0000E+00  0.0000E+00  0.0000E+00  0.0000E+00  0.0000E+00  0.0000E+00  0.0000E+00  0.0000E+00  0.0000E+00  0.0000E+00  0.0000E+00  0.0000E+00  0.0000E+00  0.0000E+00  0.0000E+00  0.0000E+00  0.0000E+00
     -3.295  0.0000E+00  0.0000E+00  0.0000E+00  0.0000E+00  0.0000E+00  0.0000E+00  0.0000E+00  0.0000E+00  0.0000E+00  0.0000E+00  0.0000E+00  0.0000E+00  0.0000E+00  0.0000E+00  0.0000E+00  0.0000E+00  0.0000E+00  0.0000E+00
     -3.216  0.0000E+00  0.0000E+00  0.0000E+00  0.0000E+00  0.0000E+00  0.0000E+00  0.0000E+00  0.0000E+00  0.0000E+00  0.0000E+00  0.0000E+00  0.0000E+00  0.0000E+00  0.0000E+00  0.0000E+00  0.0000E+00  0.0000E+00  0.0000E+00
     -3.137  0.0000E+00  0.0000E+00  0.0000E+00  0.0000E+00  0.0000E+00  0.0000E+00  0.0000E+00  0.0000E+00  0.0000E+00  0.0000E+00  0.0000E+00  0.0000E+00  0.0000E+00  0.0000E+00  0.0000E+00  0.0000E+00  0.0000E+00  0.0000E+00
     -3.058  0.0000E+00  0.0000E+00  0.0000E+00  0.0000E+00  0.0000E+00  0.0000E+00  0.0000E+00  0.0000E+00  0.0000E+00  0.0000E+00  0.0000E+00  0.0000E+00  0.0000E+00  0.0000E+00  0.0000E+00  0.0000E+00  0.0000E+00  0.0000E+00
     -2.979  0.0000E+00  0.0000E+00  0.0000E+00  0.0000E+00  0.0000E+00  0.0000E+00  0.0000E+00  0.0000E+00  0.0000E+00  0.0000E+00  0.0000E+00  0.0000E+00  0.0000E+00  0.0000E+00  0.0000E+00  0.0000E+00  0.0000E+00  0.0000E+00
     -2.900  0.0000E+00  0.0000E+00  0.0000E+00  0.0000E+00  0.0000E+00  0.0000E+00  0.0000E+00  0.0000E+00  0.0000E+00  0.0000E+00  0.0000E+00  0.0000E+00  0.0000E+00  0.0000E+00  0.0000E+00  0.0000E+00  0.0000E+00  0.0000E+00
     -2.821  0.0000E+00  0.0000E+00  0.0000E+00  0.0000E+00  0.0000E+00  0.0000E+00  0.0000E+00  0.0000E+00  0.0000E+00  0.0000E+00  0.0000E+00  0.0000E+00  0.0000E+00  0.0000E+00  0.0000E+00  0.0000E+00  0.0000E+00  0.0000E+00
     -2.742  0.0000E+00  0.0000E+00  0.0000E+00  0.0000E+00  0.0000E+00  0.0000E+00  0.0000E+00  0.0000E+00  0.0000E+00  0.0000E+00  0.0000E+00  0.0000E+00  0.0000E+00  0.0000E+00  0.0000E+00  0.0000E+00  0.0000E+00  0.0000E+00
     -2.663  0.0000E+00  0.0000E+00  0.0000E+00  0.0000E+00  0.0000E+00  0.0000E+00  0.0000E+00  0.0000E+00  0.0000E+00  0.0000E+00  0.0000E+00  0.0000E+00  0.0000E+00  0.0000E+00  0.0000E+00  0.0000E+00  0.0000E+00  0.0000E+00
     -2.584  0.0000E+00  0.0000E+00  0.0000E+00  0.0000E+00  0.0000E+00  0.0000E+00  0.0000E+00  0.0000E+00  0.0000E+00  0.0000E+00  0.0000E+00  0.0000E+00  0.0000E+00  0.0000E+00  0.0000E+00  0.0000E+00  0.0000E+00  0.0000E+00
     -2.505  0.0000E+00  0.0000E+00  0.0000E+00  0.0000E+00  0.0000E+00  0.0000E+00  0.0000E+00  0.0000E+00  0.0000E+00  0.0000E+00  0.0000E+00  0.0000E+00  0.0000E+00  0.0000E+00  0.0000E+00  0.0000E+00  0.0000E+00  0.0000E+00
     -2.426  0.0000E+00  0.0000E+00  0.0000E+00  0.0000E+00  0.0000E+00  0.0000E+00  0.0000E+00  0.0000E+00  0.0000E+00  0.0000E+00  0.0000E+00  0.0000E+00  0.0000E+00  0.0000E+00  0.0000E+00  0.0000E+00  0.0000E+00  0.0000E+00
     -2.347  0.0000E+00  0.0000E+00  0.0000E+00  0.0000E+00  0.0000E+00  0.0000E+00  0.0000E+00  0.0000E+00  0.0000E+00  0.0000E+00  0.0000E+00  0.0000E+00  0.0000E+00  0.0000E+00  0.0000E+00  0.0000E+00  0.0000E+00  0.0000E+00
     -2.268  0.0000E+00  0.0000E+00  0.0000E+00  0.0000E+00  0.0000E+00  0.0000E+00  0.0000E+00  0.0000E+00  0.0000E+00  0.0000E+00  0.0000E+00  0.0000E+00  0.0000E+00  0.0000E+00  0.0000E+00  0.0000E+00  0.0000E+00  0.0000E+00
     -2.189  0.0000E+00  0.0000E+00  0.0000E+00  0.0000E+00  0.0000E+00  0.0000E+00  0.0000E+00  0.0000E+00  0.0000E+00  0.0000E+00  0.0000E+00  0.0000E+00  0.0000E+00  0.0000E+00  0.0000E+00  0.0000E+00  0.0000E+00  0.0000E+00
     -2.110  0.0000E+00  0.0000E+00  0.0000E+00  0.0000E+00  0.0000E+00  0.0000E+00  0.0000E+00  0.0000E+00  0.0000E+00  0.0000E+00  0.0000E+00  0.0000E+00  0.0000E+00  0.0000E+00  0.0000E+00  0.0000E+00  0.0000E+00  0.0000E+00
     -2.031  0.0000E+00  0.0000E+00  0.0000E+00  0.0000E+00  0.0000E+00  0.0000E+00  0.0000E+00  0.0000E+00  0.0000E+00  0.0000E+00  0.0000E+00  0.0000E+00  0.0000E+00  0.0000E+00  0.0000E+00  0.0000E+00  0.0000E+00  0.0000E+00
     -1.952  0.0000E+00  0.0000E+00  0.0000E+00  0.0000E+00  0.0000E+00  0.0000E+00  0.0000E+00  0.0000E+00  0.0000E+00  0.0000E+00  0.0000E+00  0.0000E+00  0.0000E+00  0.0000E+00  0.0000E+00  0.0000E+00  0.0000E+00  0.0000E+00
     -1.873  0.0000E+00  0.0000E+00  0.0000E+00  0.0000E+00  0.0000E+00  0.0000E+00  0.0000E+00  0.0000E+00  0.0000E+00  0.0000E+00  0.0000E+00  0.0000E+00  0.0000E+00  0.0000E+00  0.0000E+00  0.0000E+00  0.0000E+00  0.0000E+00
     -1.794  0.0000E+00  0.0000E+00  0.0000E+00  0.0000E+00  0.0000E+00  0.0000E+00  0.0000E+00  0.0000E+00  0.0000E+00  0.0000E+00  0.0000E+00  0.0000E+00  0.0000E+00  0.0000E+00  0.0000E+00  0.0000E+00  0.0000E+00  0.0000E+00
     -1.715  0.0000E+00  0.0000E+00  0.0000E+00  0.0000E+00  0.0000E+00  0.0000E+00  0.0000E+00  0.0000E+00  0.0000E+00  0.0000E+00  0.0000E+00  0.0000E+00  0.0000E+00  0.0000E+00  0.0000E+00  0.0000E+00  0.0000E+00  0.0000E+00
     -1.636  0.0000E+00  0.0000E+00  0.0000E+00  0.0000E+00  0.0000E+00  0.0000E+00  0.0000E+00  0.0000E+00  0.0000E+00  0.0000E+00  0.0000E+00  0.0000E+00  0.0000E+00  0.0000E+00  0.0000E+00  0.0000E+00  0.0000E+00  0.0000E+00
     -1.557  0.0000E+00  0.0000E+00  0.0000E+00  0.0000E+00  0.0000E+00  0.0000E+00  0.0000E+00  0.0000E+00  0.0000E+00  0.0000E+00  0.0000E+00  0.0000E+00  0.0000E+00  0.0000E+00  0.0000E+00  0.0000E+00  0.0000E+00  0.0000E+00
     -1.478  0.0000E+00  0.0000E+00  0.0000E+00  0.0000E+00  0.0000E+00  0.0000E+00  0.0000E+00  0.0000E+00  0.0000E+00  0.0000E+00  0.0000E+00  0.0000E+00  0.0000E+00  0.0000E+00  0.0000E+00  0.0000E+00  0.0000E+00  0.0000E+00
     -1.399  0.0000E+00  0.0000E+00  0.0000E+00  0.0000E+00  0.0000E+00  0.0000E+00  0.0000E+00  0.0000E+00  0.0000E+00  0.0000E+00  0.0000E+00  0.0000E+00  0.0000E+00  0.0000E+00  0.0000E+00  0.0000E+00  0.0000E+00  0.0000E+00
     -1.320  0.0000E+00  0.0000E+00  0.0000E+00  0.0000E+00  0.0000E+00  0.0000E+00  0.0000E+00  0.0000E+00  0.0000E+00  0.0000E+00  0.0000E+00  0.0000E+00  0.0000E+00  0.0000E+00  0.0000E+00  0.0000E+00  0.0000E+00  0.0000E+00
     -1.241  0.0000E+00  0.0000E+00  0.0000E+00  0.0000E+00  0.0000E+00  0.0000E+00  0.0000E+00  0.0000E+00  0.0000E+00  0.0000E+00  0.0000E+00  0.0000E+00  0.0000E+00  0.0000E+00  0.0000E+00  0.0000E+00  0.0000E+00  0.0000E+00
     -1.162  0.0000E+00  0.0000E+00  0.0000E+00  0.0000E+00  0.0000E+00  0.0000E+00  0.0000E+00  0.0000E+00  0.0000E+00  0.0000E+00  0.0000E+00  0.0000E+00  0.0000E+00  0.0000E+00  0.0000E+00  0.0000E+00  0.0000E+00  0.0000E+00
     -1.083  0.0000E+00  0.0000E+00  0.0000E+00  0.0000E+00  0.0000E+00  0.0000E+00  0.0000E+00  0.0000E+00  0.0000E+00  0.0000E+00  0.0000E+00  0.0000E+00  0.0000E+00  0.0000E+00  0.0000E+00  0.0000E+00  0.0000E+00  0.0000E+00
     -1.004  0.0000E+00  0.0000E+00  0.0000E+00  0.0000E+00  0.0000E+00  0.0000E+00  0.0000E+00  0.0000E+00  0.0000E+00  0.0000E+00  0.0000E+00  0.0000E+00  0.0000E+00  0.0000E+00  0.0000E+00  0.0000E+00  0.0000E+00  0.0000E+00
     -0.925  0.0000E+00  0.0000E+00  0.0000E+00  0.0000E+00  0.0000E+00  0.0000E+00  0.0000E+00  0.0000E+00  0.0000E+00  0.0000E+00  0.0000E+00  0.0000E+00  0.0000E+00  0.0000E+00  0.0000E+00  0.0000E+00  0.0000E+00  0.0000E+00
     -0.846  0.0000E+00  0.0000E+00  0.0000E+00  0.0000E+00  0.0000E+00  0.0000E+00  0.0000E+00  0.0000E+00  0.0000E+00  0.0000E+00  0.0000E+00  0.0000E+00  0.0000E+00  0.0000E+00  0.0000E+00  0.0000E+00  0.0000E+00  0.0000E+00
     -0.767  0.0000E+00  0.0000E+00  0.0000E+00  0.0000E+00  0.0000E+00  0.0000E+00  0.0000E+00  0.0000E+00  0.0000E+00  0.0000E+00  0.0000E+00  0.0000E+00  0.0000E+00  0.0000E+00  0.0000E+00  0.0000E+00  0.0000E+00  0.0000E+00
     -0.688  0.5796E-15  0.0000E+00  0.5010E-33  0.0000E+00  0.5010E-33  0.0000E+00  0.5010E-33  0.0000E+00  0.0000E+00  0.0000E+00  0.0000E+00  0.0000E+00  0.0000E+00  0.0000E+00  0.0000E+00  0.0000E+00  0.0000E+00  0.0000E+00
     -0.609  0.2660E-08  0.0000E+00  0.2300E-26  0.0000E+00  0.2300E-26  0.0000E+00  0.2300E-26  0.0000E+00  0.0000E+00  0.0000E+00  0.0000E+00  0.0000E+00  0.0000E+00  0.0000E+00  0.0000E+00  0.0000E+00  0.0000E+00  0.0000E+00
     -0.530  0.9651E-04  0.0000E+00  0.8343E-22  0.0000E+00  0.8343E-22  0.0000E+00  0.8343E-22  0.0000E+00  0.0000E+00  0.0000E+00  0.0000E+00  0.0000E+00  0.0000E+00  0.0000E+00  0.0000E+00  0.0000E+00  0.0000E+00  0.0000E+00
     -0.451  0.3307E-01  0.1761E-10  0.2859E-19  0.1774E-30  0.2859E-19  0.1774E-30  0.2859E-19  0.1774E-30  0.0000E+00  0.0000E+00  0.0000E+00  0.0000E+00  0.0000E+00  0.0000E+00  0.0000E+00  0.0000E+00  0.0000E+00  0.0000E+00
     -0.372  0.1921E+00  0.3205E-05  0.1660E-18  0.3228E-25  0.1660E-18  0.3228E-25  0.1660E-18  0.3228E-25  0.0000E+00  0.0000E+00  0.0000E+00  0.0000E+00  0.0000E+00  0.0000E+00  0.0000E+00  0.0000E+00  0.0000E+00  0.0000E+00
     -0.293  0.3564E-01  0.5045E-02  0.3081E-19  0.5082E-22  0.3081E-19  0.5082E-22  0.3081E-19  0.5082E-22  0.0000E+00  0.0000E+00  0.0000E+00  0.0000E+00  0.0000E+00  0.0000E+00  0.0000E+00  0.0000E+00  0.0000E+00  0.0000E+00
     -0.214  0.1141E-03  0.1038E+00  0.9862E-22  0.1045E-20  0.9862E-22  0.1045E-20  0.9862E-22  0.1045E-20  0.0000E+00  0.0000E+00  0.0000E+00  0.0000E+00  0.0000E+00  0.0000E+00  0.0000E+00  0.0000E+00  0.0000E+00  0.0000E+00
     -0.135  0.3473E-08  0.6165E-01  0.3002E-26  0.6211E-21  0.3002E-26  0.6211E-21  0.3002E-26  0.6211E-21  0.0000E+00  0.0000E+00  0.0000E+00  0.0000E+00  0.0000E+00  0.0000E+00  0.0000E+00  0.0000E+00  0.0000E+00  0.0000E+00
     -0.056  0.8116E-15  0.8467E-03  0.7014E-33  0.8530E-23  0.7014E-33  0.8530E-23  0.7014E-33  0.8530E-23  0.0000E+00  0.0000E+00  0.0000E+00  0.0000E+00  0.0000E+00  0.0000E+00  0.0000E+00  0.0000E+00  0.0000E+00  0.0000E+00
      0.023  0.6013E-12  0.1267E-06  0.5162E-29  0.1277E-26  0.5162E-29  0.1277E-26  0.5162E-29  0.1277E-26  0.0000E+00  0.0000E+00  0.0000E+00  0.0000E+00  0.0000E+00  0.0000E+00  0.0000E+00  0.0000E+00  0.0000E+00  0.0000E+00
      0.102  0.2654E-06  0.5957E-11  0.2278E-23  0.2306E-30  0.2278E-23  0.2306E-30  0.2278E-23  0.2306E-30  0.0000E+00  0.0000E+00  0.0000E+00  0.0000E+00  0.0000E+00  0.0000E+00  0.0000E+00  0.0000E+00  0.0000E+00  0.0000E+00
      0.181  0.9784E-03  0.1273E-05  0.8398E-20  0.5025E-25  0.8398E-20  0.5025E-25  0.8398E-20  0.5025E-25  0.0000E+00  0.0000E+00  0.0000E+00  0.0000E+00  0.0000E+00  0.0000E+00  0.0000E+00  0.0000E+00  0.0000E+00  0.0000E+00
      0.260  0.4203E-01  0.2396E-02  0.5754E-14  0.9459E-22  0.5754E-14  0.9459E-22  0.5754E-14  0.9459E-22  0.0000E+00  0.0000E+00  0.0000E+00  0.0000E+00  0.0000E+00  0.0000E+00  0.0000E+00  0.0000E+00  0.0000E+00  0.0000E+00
      0.339  0.4620E-01  0.5741E-01  0.1187E-07  0.7179E-13  0.1187E-07  0.7179E-13  0.1187E-07  0.7179E-13  0.0000E+00  0.0000E+00  0.0000E+00  0.0000E+00  0.0000E+00  0.0000E+00  0.0000E+00  0.0000E+00  0.0000E+00  0.0000E+00
      0.418  0.1354E-02  0.3886E-01  0.1955E-03  0.6612E-07  0.1955E-03  0.6612E-07  0.1955E-03  0.6612E-07  0.0000E+00  0.0000E+00  0.0000E+00  0.0000E+00  0.0000E+00  0.0000E+00  0.0000E+00  0.0000E+00  0.0000E+00  0.0000E+00
      0.497  0.4779E-06  0.6279E-03  0.3225E-01  0.4967E-03  0.3225E-01  0.4967E-03  0.3225E-01  0.4967E-03  0.0000E+00  0.0000E+00  0.0000E+00  0.0000E+00  0.0000E+00  0.0000E+00  0.0000E+00  0.0000E+00  0.0000E+00  0.0000E+00
      0.576  0.1423E-11  0.1127E-06  0.1042E+00  0.4018E-01  0.1042E+00  0.4018E-01  0.1042E+00  0.4018E-01  0.0000E+00  0.0000E+00  0.0000E+00  0.0000E+00  0.0000E+00  0.0000E+00  0.0000E+00  0.0000E+00  0.0000E+00  0.0000E+00
      0.655  0.1421E-16  0.1666E-12  0.1054E-01  0.7355E-01  0.1054E-01  0.7355E-01  0.1054E-01  0.7355E-01  0.0000E+00  0.0000E+00  0.0000E+00  0.0000E+00  0.0000E+00  0.0000E+00  0.0000E+00  0.0000E+00  0.0000E+00  0.0000E+00
      0.734  0.5539E-17  0.1661E-18  0.1602E-04  0.3942E-02  0.1602E-04  0.3942E-02  0.1602E-04  0.3942E-02  0.0000E+00  0.0000E+00  0.0000E+00  0.0000E+00  0.0000E+00  0.0000E+00  0.0000E+00  0.0000E+00  0.0000E+00  0.0000E+00
      0.813  0.5465E-19  0.1095E-18  0.2204E-09  0.2809E-05  0.2204E-09  0.2809E-05  0.2204E-09  0.2809E-05  0.0000E+00  0.0000E+00  0.0000E+00  0.0000E+00  0.0000E+00  0.0000E+00  0.0000E+00  0.0000E+00  0.0000E+00  0.0000E+00
      0.892  0.3751E-15  0.1018E-14  0.1356E-08  0.1764E-10  0.1356E-08  0.1764E-10  0.1356E-08  0.1764E-10  0.0000E+00  0.0000E+00  0.0000E+00  0.0000E+00  0.0000E+00  0.0000E+00  0.0000E+00  0.0000E+00  0.0000E+00  0.0000E+00
      0.971  0.1369E-08  0.3013E-08  0.4998E-04  0.1600E-06  0.4998E-04  0.1600E-06  0.4998E-04  0.1600E-06  0.0000E+00  0.0000E+00  0.0000E+00  0.0000E+00  0.0000E+00  0.0000E+00  0.0000E+00  0.0000E+00  0.0000E+00  0.0000E+00
      1.050  0.3931E-04  0.7042E-04  0.1738E-01  0.8898E-03  0.1738E-01  0.8898E-03  0.1738E-01  0.8898E-03  0.0000E+00  0.0000E+00  0.0000E+00  0.0000E+00  0.0000E+00  0.0000E+00  0.0000E+00  0.0000E+00  0.0000E+00  0.0000E+00
      1.129  0.1083E-01  0.1604E-01  0.1021E+00  0.5500E-01  0.1021E+00  0.5500E-01  0.1021E+00  0.5500E-01  0.0000E+00  0.0000E+00  0.0000E+00  0.0000E+00  0.0000E+00  0.0000E+00  0.0000E+00  0.0000E+00  0.0000E+00  0.0000E+00
      1.208  0.5278E-01  0.6707E-01  0.1917E-01  0.8115E-01  0.1917E-01  0.8115E-01  0.1917E-01  0.8115E-01  0.0000E+00  0.0000E+00  0.0000E+00  0.0000E+00  0.0000E+00  0.0000E+00  0.0000E+00  0.0000E+00  0.0000E+00  0.0000E+00
      1.287  0.8205E-02  0.8908E-02  0.6224E-04  0.3382E-02  0.6224E-04  0.3382E-02  0.6224E-04  0.3382E-02  0.0000E+00  0.0000E+00  0.0000E+00  0.0000E+00  0.0000E+00  0.0000E+00  0.0000E+00  0.0000E+00  0.0000E+00  0.0000E+00
      1.366  0.2110E-04  0.1888E-04  0.1924E-08  0.1794E-05  0.1924E-08  0.1794E-05  0.1924E-08  0.1794E-05  0.0000E+00  0.0000E+00  0.0000E+00  0.0000E+00  0.0000E+00  0.0000E+00  0.0000E+00  0.0000E+00  0.0000E+00  0.0000E+00
      1.445  0.5082E-09  0.3699E-09  0.4622E-15  0.8165E-11  0.4622E-15  0.8165E-11  0.4622E-15  0.8165E-11  0.0000E+00  0.0000E+00  0.0000E+00  0.0000E+00  0.0000E+00  0.0000E+00  0.0000E+00  0.0000E+00  0.0000E+00  0.0000E+00
      1.524  0.9576E-16  0.6157E-16  0.6333E-25  0.4111E-23  0.6333E-25  0.4111E-23  0.6333E-25  0.4111E-23  0.0000E+00  0.0000E+00  0.0000E+00  0.0000E+00  0.0000E+00  0.0000E+00  0.0000E+00  0.0000E+00  0.0000E+00  0.0000E+00
      1.603  0.1440E-24  0.2098E-20  0.1193E-16  0.4132E-25  0.1193E-16  0.4132E-25  0.1193E-16  0.4132E-25  0.0000E+00  0.0000E+00  0.0000E+00  0.0000E+00  0.0000E+00  0.0000E+00  0.0000E+00  0.0000E+00  0.0000E+00  0.0000E+00
      1.682  0.1787E-13  0.2223E-24  0.1230E-09  0.4856E-15  0.1230E-09  0.4856E-15  0.1230E-09  0.4856E-15  0.0000E+00  0.0000E+00  0.0000E+00  0.0000E+00  0.0000E+00  0.0000E+00  0.0000E+00  0.0000E+00  0.0000E+00  0.0000E+00
      1.761  0.1851E-07  0.4743E-15  0.8512E-05  0.1732E-08  0.8512E-05  0.1732E-08  0.8512E-05  0.1732E-08  0.0000E+00  0.0000E+00  0.0000E+00  0.0000E+00  0.0000E+00  0.0000E+00  0.0000E+00  0.0000E+00  0.0000E+00  0.0000E+00
      1.840  0.1558E-03  0.1466E-08  0.5349E-02  0.4864E-04  0.5349E-02  0.4864E-04  0.5349E-02  0.4864E-04  0.0000E+00  0.0000E+00  0.0000E+00  0.0000E+00  0.0000E+00  0.0000E+00  0.0000E+00  0.0000E+00  0.0000E+00  0.0000E+00
      1.919  0.1396E-01  0.3588E-04  0.5095E-01  0.1313E-01  0.5095E-01  0.1313E-01  0.5095E-01  0.1313E-01  0.0000E+00  0.0000E+00  0.0000E+00  0.0000E+00  0.0000E+00  0.0000E+00  0.0000E+00  0.0000E+00  0.0000E+00  0.0000E+00
      1.998  0.2774E-01  0.8530E-02  0.1522E-01  0.6293E-01  0.1522E-01  0.6293E-01  0.1522E-01  0.6293E-01  0.0000E+00  0.0000E+00  0.0000E+00  0.0000E+00  0.0000E+00  0.0000E+00  0.0000E+00  0.0000E+00  0.0000E+00  0.0000E+00
      2.077  0.1634E-02  0.3690E-01  0.8830E-04  0.9620E-02  0.8830E-04  0.9620E-02  0.8830E-04  0.9620E-02  0.0000E+00  0.0000E+00  0.0000E+00  0.0000E+00  0.0000E+00  0.0000E+00  0.0000E+00  0.0000E+00  0.0000E+00  0.0000E+00
      2.156  0.1301E-05  0.5078E-02  0.5111E-08  0.2424E-04  0.5111E-08  0.2424E-04  0.5111E-08  0.2424E-04  0.0000E+00  0.0000E+00  0.0000E+00  0.0000E+00  0.0000E+00  0.0000E+00  0.0000E+00  0.0000E+00  0.0000E+00  0.0000E+00
      2.235  0.9052E-11  0.1124E-04  0.2354E-14  0.5709E-09  0.2354E-14  0.5709E-09  0.2354E-14  0.5709E-09  0.0000E+00  0.0000E+00  0.0000E+00  0.0000E+00  0.0000E+00  0.0000E+00  0.0000E+00  0.0000E+00  0.0000E+00  0.0000E+00
      2.314  0.4963E-23  0.2307E-09  0.5974E-13  0.1047E-15  0.5974E-13  0.1047E-15  0.5974E-13  0.1047E-15  0.0000E+00  0.0000E+00  0.0000E+00  0.0000E+00  0.0000E+00  0.0000E+00  0.0000E+00  0.0000E+00  0.0000E+00  0.0000E+00
      2.393  0.1786E-16  0.3368E-16  0.5151E-07  0.3899E-11  0.5151E-07  0.3899E-11  0.5151E-07  0.3899E-11  0.0000E+00  0.0000E+00  0.0000E+00  0.0000E+00  0.0000E+00  0.0000E+00  0.0000E+00  0.0000E+00  0.0000E+00  0.0000E+00
      2.472  0.1267E-09  0.4334E-13  0.3629E-03  0.8888E-06  0.3629E-03  0.8888E-06  0.3629E-03  0.8888E-06  0.0000E+00  0.0000E+00  0.0000E+00  0.0000E+00  0.0000E+00  0.0000E+00  0.0000E+00  0.0000E+00  0.0000E+00  0.0000E+00
      2.551  0.6767E-05  0.3192E-07  0.2771E-01  0.1735E-02  0.2771E-01  0.1735E-02  0.2771E-01  0.1735E-02  0.0000E+00  0.0000E+00  0.0000E+00  0.0000E+00  0.0000E+00  0.0000E+00  0.0000E+00  0.0000E+00  0.0000E+00  0.0000E+00
      2.630  0.3331E-02  0.1930E-03  0.4845E-01  0.4292E-01  0.4845E-01  0.4292E-01  0.4845E-01  0.4292E-01  0.0000E+00  0.0000E+00  0.0000E+00  0.0000E+00  0.0000E+00  0.0000E+00  0.0000E+00  0.0000E+00  0.0000E+00  0.0000E+00
      2.709  0.2597E-01  0.1286E-01  0.2462E-02  0.2984E-01  0.2462E-02  0.2984E-01  0.2462E-02  0.2984E-01  0.0000E+00  0.0000E+00  0.0000E+00  0.0000E+00  0.0000E+00  0.0000E+00  0.0000E+00  0.0000E+00  0.0000E+00  0.0000E+00
      2.788  0.6421E-02  0.2014E-01  0.1648E-05  0.4984E-03  0.1648E-05  0.4984E-03  0.1648E-05  0.4984E-03  0.0000E+00  0.0000E+00  0.0000E+00  0.0000E+00  0.0000E+00  0.0000E+00  0.0000E+00  0.0000E+00  0.0000E+00  0.0000E+00
      2.867  0.2938E-04  0.9008E-03  0.9561E-11  0.9287E-07  0.9561E-11  0.9287E-07  0.9561E-11  0.9287E-07  0.0000E+00  0.0000E+00  0.0000E+00  0.0000E+00  0.0000E+00  0.0000E+00  0.0000E+00  0.0000E+00  0.0000E+00  0.0000E+00
      2.946  0.1315E-08  0.5189E-06  0.4697E-08  0.1460E-12  0.4697E-08  0.1460E-12  0.4697E-08  0.1460E-12  0.0000E+00  0.0000E+00  0.0000E+00  0.0000E+00  0.0000E+00  0.0000E+00  0.0000E+00  0.0000E+00  0.0000E+00  0.0000E+00
      3.025  0.4688E-15  0.2574E-11  0.1205E-03  0.8244E-08  0.1205E-03  0.8244E-08  0.1205E-03  0.8244E-08  0.0000E+00  0.0000E+00  0.0000E+00  0.0000E+00  0.0000E+00  0.0000E+00  0.0000E+00  0.0000E+00  0.0000E+00  0.0000E+00
      3.104  0.1750E-12  0.9710E-16  0.2994E-01  0.1643E-03  0.2994E-01  0.1643E-03  0.2994E-01  0.1643E-03  0.0000E+00  0.0000E+00  0.0000E+00  0.0000E+00  0.0000E+00  0.0000E+00  0.0000E+00  0.0000E+00  0.0000E+00  0.0000E+00
      3.183  0.1294E-06  0.5754E-09  0.1342E+00  0.3230E-01  0.1342E+00  0.3230E-01  0.1342E+00  0.3230E-01  0.0000E+00  0.0000E+00  0.0000E+00  0.0000E+00  0.0000E+00  0.0000E+00  0.0000E+00  0.0000E+00  0.0000E+00  0.0000E+00
      3.261  0.7856E-03  0.2602E-04  0.2289E-01  0.1210E+00  0.2289E-01  0.1210E+00  0.2289E-01  0.1210E+00  0.0000E+00  0.0000E+00  0.0000E+00  0.0000E+00  0.0000E+00  0.0000E+00  0.0000E+00  0.0000E+00  0.0000E+00  0.0000E+00
      3.340  0.5251E-01  0.1095E-01  0.8762E-02  0.3478E-01  0.8762E-02  0.3478E-01  0.8762E-02  0.3478E-01  0.0000E+00  0.0000E+00  0.0000E+00  0.0000E+00  0.0000E+00  0.0000E+00  0.0000E+00  0.0000E+00  0.0000E+00  0.0000E+00
      3.419  0.8252E-01  0.7518E-01  0.6141E-03  0.1272E-01  0.6141E-03  0.1272E-01  0.6141E-03  0.1272E-01  0.0000E+00  0.0000E+00  0.0000E+00  0.0000E+00  0.0000E+00  0.0000E+00  0.0000E+00  0.0000E+00  0.0000E+00  0.0000E+00
      3.498  0.3703E-02  0.1644E-01  0.6048E-06  0.1815E-03  0.6048E-06  0.1815E-03  0.6048E-06  0.1815E-03  0.0000E+00  0.0000E+00  0.0000E+00  0.0000E+00  0.0000E+00  0.0000E+00  0.0000E+00  0.0000E+00  0.0000E+00  0.0000E+00
      3.577  0.2142E-05  0.6454E-04  0.5265E-11  0.2841E-07  0.5265E-11  0.2841E-07  0.5265E-11  0.2841E-07  0.0000E+00  0.0000E+00  0.0000E+00  0.0000E+00  0.0000E+00  0.0000E+00  0.0000E+00  0.0000E+00  0.0000E+00  0.0000E+00
      3.656  0.1067E-10  0.2447E-08  0.8076E-22  0.3645E-13  0.8076E-22  0.3645E-13  0.8076E-22  0.3645E-13  0.0000E+00  0.0000E+00  0.0000E+00  0.0000E+00  0.0000E+00  0.0000E+00  0.0000E+00  0.0000E+00  0.0000E+00  0.0000E+00
      3.735  0.2679E-17  0.7415E-15  0.8683E-23  0.1776E-21  0.8683E-23  0.1776E-21  0.8683E-23  0.1776E-21  0.0000E+00  0.0000E+00  0.0000E+00  0.0000E+00  0.0000E+00  0.0000E+00  0.0000E+00  0.0000E+00  0.0000E+00  0.0000E+00
      3.814  0.4389E-20  0.1985E-19  0.1423E-25  0.2938E-24  0.1423E-25  0.2938E-24  0.1423E-25  0.2938E-24  0.0000E+00  0.0000E+00  0.0000E+00  0.0000E+00  0.0000E+00  0.0000E+00  0.0000E+00  0.0000E+00  0.0000E+00  0.0000E+00
      3.893  0.6539E-25  0.2989E-24  0.2119E-30  0.4424E-29  0.2119E-30  0.4424E-29  0.2119E-30  0.4424E-29  0.0000E+00  0.0000E+00  0.0000E+00  0.0000E+00  0.0000E+00  0.0000E+00  0.0000E+00  0.0000E+00  0.0000E+00  0.0000E+00
      3.972  0.7755E-32  0.3441E-31  0.2513E-37  0.5093E-36  0.2513E-37  0.5093E-36  0.2513E-37  0.5093E-36  0.0000E+00  0.0000E+00  0.0000E+00  0.0000E+00  0.0000E+00  0.0000E+00  0.0000E+00  0.0000E+00  0.0000E+00  0.0000E+00
      4.051  0.0000E+00  0.0000E+00  0.0000E+00  0.0000E+00  0.0000E+00  0.0000E+00  0.0000E+00  0.0000E+00  0.0000E+00  0.0000E+00  0.0000E+00  0.0000E+00  0.0000E+00  0.0000E+00  0.0000E+00  0.0000E+00  0.0000E+00  0.0000E+00
      4.130  0.0000E+00  0.0000E+00  0.0000E+00  0.0000E+00  0.0000E+00  0.0000E+00  0.0000E+00  0.0000E+00  0.0000E+00  0.0000E+00  0.0000E+00  0.0000E+00  0.0000E+00  0.0000E+00  0.0000E+00  0.0000E+00  0.0000E+00  0.0000E+00
      4.209  0.0000E+00  0.0000E+00  0.0000E+00  0.0000E+00  0.0000E+00  0.0000E+00  0.0000E+00  0.0000E+00  0.0000E+00  0.0000E+00  0.0000E+00  0.0000E+00  0.0000E+00  0.0000E+00  0.0000E+00  0.0000E+00  0.0000E+00  0.0000E+00
      4.288  0.0000E+00  0.0000E+00  0.0000E+00  0.0000E+00  0.0000E+00  0.0000E+00  0.0000E+00  0.0000E+00  0.0000E+00  0.0000E+00  0.0000E+00  0.0000E+00  0.0000E+00  0.0000E+00  0.0000E+00  0.0000E+00  0.0000E+00  0.0000E+00
      4.367  0.0000E+00  0.0000E+00  0.0000E+00  0.0000E+00  0.0000E+00  0.0000E+00  0.0000E+00  0.0000E+00  0.0000E+00  0.0000E+00  0.0000E+00  0.0000E+00  0.0000E+00  0.0000E+00  0.0000E+00  0.0000E+00  0.0000E+00  0.0000E+00
      4.446  0.0000E+00  0.0000E+00  0.0000E+00  0.0000E+00  0.0000E+00  0.0000E+00  0.0000E+00  0.0000E+00  0.0000E+00  0.0000E+00  0.0000E+00  0.0000E+00  0.0000E+00  0.0000E+00  0.0000E+00  0.0000E+00  0.0000E+00  0.0000E+00
      4.525  0.0000E+00  0.0000E+00  0.0000E+00  0.0000E+00  0.0000E+00  0.0000E+00  0.0000E+00  0.0000E+00  0.0000E+00  0.0000E+00  0.0000E+00  0.0000E+00  0.0000E+00  0.0000E+00  0.0000E+00  0.0000E+00  0.0000E+00  0.0000E+00
      4.604  0.0000E+00  0.0000E+00  0.0000E+00  0.0000E+00  0.0000E+00  0.0000E+00  0.0000E+00  0.0000E+00  0.0000E+00  0.0000E+00  0.0000E+00  0.0000E+00  0.0000E+00  0.0000E+00  0.0000E+00  0.0000E+00  0.0000E+00  0.0000E+00
      4.683  0.0000E+00  0.0000E+00  0.0000E+00  0.0000E+00  0.0000E+00  0.0000E+00  0.0000E+00  0.0000E+00  0.0000E+00  0.0000E+00  0.0000E+00  0.0000E+00  0.0000E+00  0.0000E+00  0.0000E+00  0.0000E+00  0.0000E+00  0.0000E+00
