       N       E                     dE             d eps       ncg     rms          rms(c)
DAV:   1     0.366882740924E+02    0.36688E+02   -0.72523E+02   256   0.315E+01
DAV:   2    -0.307397542086E+00   -0.36996E+02   -0.36534E+02   512   0.564E+00
DAV:   3    -0.482973785911E+00   -0.17558E+00   -0.17480E+00   256   0.113E+00
DAV:   4    -0.484215166231E+00   -0.12414E-02   -0.12413E-02   512   0.104E-01
DAV:   5    -0.484215226133E+00   -0.59901E-07   -0.59410E-07   256   0.919E-04    0.390E+00
DAV:   6     0.172322187564E+01    0.22074E+01   -0.49270E+00   256   0.127E+00    0.161E+00
DAV:   7     0.594413914668E+00   -0.11288E+01   -0.46301E-01   384   0.393E-01    0.825E-01
DAV:   8    -0.128830305845E-01   -0.60730E+00   -0.16596E-01   320   0.215E-01    0.523E-01
DAV:   9    -0.486264990015E+00   -0.47338E+00   -0.13606E-01   256   0.199E-01    0.280E-01
DAV:  10    -0.756588696115E+00   -0.27032E+00   -0.67388E-02   384   0.149E-01    0.165E-01
DAV:  11    -0.863801353805E+00   -0.10721E+00   -0.22146E-02   384   0.881E-02    0.116E-01
DAV:  12    -0.864467413623E+00   -0.66606E-03   -0.79365E-05   320   0.106E-02    0.709E-02
DAV:  13    -0.900339162535E+00   -0.35872E-01   -0.92434E-03   320   0.462E-02    0.163E-02
DAV:  14    -0.906595147771E+00   -0.62560E-02   -0.27032E-04   320   0.870E-03    0.960E-03
DAV:  15    -0.909014977492E+00   -0.24198E-02   -0.16177E-04   384   0.634E-03    0.544E-03
DAV:  16    -0.909533371352E+00   -0.51839E-03   -0.39211E-05   384   0.317E-03    0.367E-03
DAV:  17    -0.909812140070E+00   -0.27877E-03   -0.11405E-05   320   0.196E-03    0.282E-03
DAV:  18    -0.909819715221E+00   -0.75752E-05   -0.50644E-06   256   0.946E-04
   1 F= -.90981972E+00 E0= -.89053693E+00  d E =-.385656E-01  mag=     2.0000
