Na88 Sb16 S64                           
   1.00000000000000     
    11.7036554800000001    0.0000000000000000   -4.1378687999999988
   -11.7036534400000036   20.2713275199999963   -8.2757375999999958
     0.0000000000000000    0.0000000000000000  106.4446385317966417
   Na   Sb   S 
    88    16    64
Direct
  0.1264497897558857  0.1421432424314609  0.0863428861374605
  0.2269850986790296  0.3379605249185025  0.0846659656480301
  0.1351334011686474  0.6381518140140764  0.0972676572119564
  0.2246976167475067  0.8514141599644787  0.1015168043203389
  0.6966477623063904  0.1292554384138057  0.0990354845805702
  0.6996519047459232  0.3053877135476769  0.0821065490202423
  0.7718673083944094  0.7023692602802766  0.1195765379723246
  0.6882402717996092  0.7966731790912408  0.0839545386402602
  0.9290450864915717  0.0750689175959195  0.1162521613681787
  0.8601272564940601  0.3132939167466896  0.1185269509499079
  0.0002061742237394  0.6085986727782230  0.1303594426258659
  0.9028580804339250  0.8438776182465650  0.1238090651735517
  0.4210701411997317  0.1112142854618593  0.1297932626867519
  0.4843447393365505  0.3549707773510775  0.1313826115254766
  0.3965770217010714  0.5320916508196861  0.1257797667328404
  0.5547876635709454  0.8799683293227185  0.1286922962453115
  0.0919902185787968  0.9585820700487232  0.1195311648835907
  0.1558585743934709  0.2173705813770540  0.1160749176337380
  0.0346911434331587  0.4152953958777051  0.1067445774721566
  0.2624767910025028  0.7848570509530546  0.1413702409866416
  0.6687208535638313  0.0191649143971087  0.1258146610520750
  0.7431863480548577  0.2499403897960462  0.1373972712413014
  0.7643173173694394  0.4832304560964000  0.1280575530212993
  0.5871268961196828  0.7147800274580072  0.1384015204269609
  0.2252115128596093  0.1124894210598499  0.1493133226528276
  0.1892990011784827  0.3506344448676490  0.1394322130247371
  0.3034945749887975  0.6181386169097162  0.1548146771520067
  0.1747927904775219  0.9007489096240268  0.1487726326205569
  0.9325867071579745  0.1369630277754590  0.1673411110925077
  0.8603937662006140  0.4037392212263946  0.1693850177059684
  0.7631698601585706  0.6354236010427969  0.1573671982406394
  0.8174520665482344  0.8576008216944746  0.1598901111470475
  0.0802085457356189  0.1224915725017288  0.2018822006425165
  0.0556439478307333  0.3387388024859076  0.1885774033029064
  0.8940453545993444  0.5650954651418101  0.1812695652394398
  0.1361313076011659  0.9599319146423622  0.2184536230304501
  0.5267859599764031  0.2132972193823026  0.2017945062147969
  0.2614072532164528  0.2758769877667960  0.1893897924223598
  0.5065029582398288  0.6550740015432444  0.1868696331897238
  0.5481046215755143  0.8791686013028526  0.2220668151317316
  0.3311081653757848  0.9440031433182415  0.1849954408536053
  0.3168741918706138  0.3456061029855913  0.2204794708496885
  0.2853939880744325  0.4842982577285678  0.1826688787386435
  0.2886934443468924  0.7027262599131014  0.1809443945434966
  0.7128089570998624  0.9375135384935551  0.1812167597200952
  0.8293823358000704  0.2019606949071320  0.1879433395932378
  0.6458469755957347  0.4712895146865084  0.1913896834927423
  0.8414957490714139  0.7502697983020441  0.1929903532793543
  0.5917980625330185  0.0569697573409680  0.2037232464865457
  0.5833822484492367  0.8363877466389408  0.3934271355658555
  0.3439924814170183  0.0035410352491415  0.6229329791562974
  0.3676495058350739  0.2218675936936607  0.8402924697359234
  0.8471476350113737  0.9242723179569783  0.9057960433641770
  0.6170685333587071  0.4127958107318008  0.2244911116580832
  0.6646841115627606  0.2414919583840797  0.4140828502576057
  0.0728614925907273  0.5520876775174341  0.6369173030099504
  0.4681431780995833  0.8569666471032028  0.8264863189149578
  0.9262318730571275  0.5732157444801128  0.9741091091467527
  0.3184884498081469  0.6746413641689893  0.2115572058526833
  0.5489993762769179  0.9283832464472062  0.3783817899455690
  0.2626459366626445  0.0902061853589095  0.6066798090165683
  0.4099714576184453  0.2286896797406030  0.8085529343438291
  0.0258643164285543  0.0137398583230391  0.9397141279297757
  0.7853368269260967  0.4131386018738943  0.3139085544104739
  0.9199680361285234  0.3864869105923662  0.4378283420925752
  0.2312763258310347  0.4944503077876266  0.6131299971129711
  0.1770594030766571  0.7788236491137036  0.8111149105281955
  0.1138633193874061  0.6326872067736384  0.9632882036576796
  0.2523142608611484  0.9730484963732012  0.2651629930717766
  0.0353501362864064  0.0167260341668105  0.4992177719259072
  0.1828690687872333  0.0682734728881646  0.6366179599755880
  0.2557203041977175  0.3229704325957903  0.8348037217366970
  0.4725097041945586  0.9584406302595088  0.0225612685364488
  0.0259266476830250  0.4510135269301545  0.3133879659425524
  0.1852798701835766  0.5481617446430850  0.4577883867509395
  0.9706395419197521  0.4737606461962904  0.6730011074135653
  0.7477809328334722  0.4083700355109534  0.8176426178108300
  0.7921330826216706  0.4624236070659424  0.9857906431825924
  0.0457743964759803  0.9196066702011353  0.2740454319400482
  0.0183830015121035  0.0649889234124351  0.4739759649754783
  0.0840175856549283  0.0607614886782975  0.6544329674735102
  0.1149702147548812  0.3248377608575567  0.8550555657209538
  0.7209462849512606  0.0678286730312625  0.0444861396990714
  0.0743849882292808  0.4671593077127709  0.3488680379522120
  0.4337061653006760  0.5750862941975401  0.4808689131824572
  0.1006418382363743  0.5914939573869662  0.6695125196825239
  0.0475953645649139  0.5240595484544551  0.8279959099636935
  0.7803482882209185  0.3738714994112150  0.9955816336623666
  0.0117340548688169  0.9903183637275221  0.0875183565122054
  0.9118705317187700  0.2119753079590195  0.0854243291202697
  0.9375827894210573  0.4645889258691035  0.0821623548487611
  0.9640550552883576  0.7321976899703877  0.0971404728890008
  0.4497789240872195  0.9679580802338641  0.0880352049649531
  0.4569999508199787  0.2501031053309212  0.0940084425681828
  0.5178812290106174  0.5680668161852633  0.0986230646441019
  0.4717941706272810  0.7277491208340764  0.1015303927226577
  0.0413259972741430  0.0118242109333498  0.1656766790665343
  0.9939486393883267  0.2249345388473593  0.1542649322299531
  0.0088388138077274  0.4716181105300720  0.1551435723651906
  0.0540762116436750  0.7670693536359590  0.1702324939000210
  0.5556013163630433  0.0176414324874882  0.1713608646581464
  0.4939893992723739  0.2773243281819454  0.1642322277353290
  0.5289787867045206  0.5043695878693336  0.1611262464188665
  0.5265507656249957  0.7805649060741982  0.1701687449965742
  0.0575484547049243  0.9969126079542914  0.1433821671028169
  0.9265391463162216  0.2357723545340263  0.1317429826641832
  0.9981815635160494  0.4795648974406759  0.1322919812158371
  0.0277732304391831  0.7668884699929461  0.1483131693065579
  0.5281440516243912  0.9991351482673255  0.1477692437171438
  0.5130801240938284  0.2691402404351629  0.1424282458307288
  0.5518191400929320  0.4964201769079650  0.1396692562889294
  0.5494677224546853  0.8211050413335135  0.1528786382410966
  0.1542822029319701  0.0760024415757073  0.1133057242207445
  0.0598636816690514  0.3126009570188958  0.1101973803754622
  0.0533441723196795  0.5286574354654655  0.1104822636079121
  0.1123267955070499  0.8595344950265896  0.1205805403818537
  0.5406233869022633  0.0883299226802297  0.1088428064594375
  0.6499124204368053  0.3118167884702908  0.1180832473720248
  0.6683592016527938  0.6207843504846012  0.1261986444501530
  0.6787052762980520  0.8006014853471523  0.1252782082779419
  0.2081897053129875  0.9487083435824465  0.0717696928241821
  0.3006183197310783  0.2776825524131686  0.1007207607542754
  0.3787998795708918  0.4706901454163905  0.0972703932113764
  0.3311821993955572  0.7657430674080846  0.1064162991872262
  0.8326607360972323  0.9202539796432512  0.0900441194392945
  0.7040354285105844  0.1961976162637774  0.0821405671454604
  0.7082817855262868  0.4360489105058957  0.0777987446639260
  0.7502653769244336  0.7337781600562824  0.0951178843519253
  0.9118348969710941  0.1172428884675977  0.0908967639141225
  0.9124616484014765  0.3512316741798003  0.0761014577252162
  0.9879947962522493  0.6838289348424973  0.1118472568460795
  0.0815142716534646  0.9137115997364875  0.0777821051545465
  0.3629618498450293  0.1443789781838909  0.0879813040755122
  0.6347383178696392  0.4481607526188017  0.0934225530473626
  0.3703529364175586  0.6192089835694046  0.1030144999139224
  0.4586292615010569  0.9057159792817949  0.1005219132449462
  0.9241691459894814  0.9567029536634302  0.2057352828157033
  0.0753969793257507  0.2316866003483276  0.1984511824586102
  0.8481165959779771  0.4281365133808835  0.1955487390753009
  0.2632280051788111  0.8904382503548371  0.2268566202083030
  0.5029235670988872  0.9871227137238695  0.2202814201570189
  0.4843228866377173  0.2991854304152224  0.2155633584335125
  0.5522272929172358  0.4800228031539439  0.2103413529551224
  0.4988914389906055  0.7559402552150527  0.2098839306555123
  0.2289201081283159  0.1130141117277156  0.1874105400035636
  0.3500743742657887  0.4644793859436472  0.2074658629075802
  0.2181081364538612  0.5727645333239523  0.1781699495609774
  0.3020967073017326  0.8975591876128393  0.2099026942207637
  0.7675305368585065  0.0696799446566445  0.1913378348064244
  0.6810223890543031  0.3719914176985403  0.1928382882436479
  0.6933902592861997  0.5943266984260575  0.1869756292467130
  0.7744755075358736  0.8794757998941548  0.2086702628231275
  0.4577769777733658  0.0740557342729248  0.1820684057730585
  0.2994484373932772  0.2690714938241270  0.1612721892047260
  0.3313587456646581  0.5029032365337327  0.1570660084900724
  0.2855453649602646  0.7111626546703037  0.1540118163839713
  0.8508552420319084  0.0052737544541783  0.1660453579162032
  0.8185992482754725  0.2268900792486897  0.1617153494246355
  0.8173719415395461  0.4719772554526999  0.1548622830815654
  0.8493705415914865  0.7674203362672923  0.1678009778785896
  0.9297790112372420  0.1065577388379677  0.1419077313878356
  0.0141016394439968  0.3842577965718645  0.1593768878170970
  0.0126989551572938  0.6627250396337495  0.1681681632610770
  0.0814281293120634  0.9307239890506803  0.1685300140209209
  0.4927571797043099  0.1910525396347508  0.1662683233312179
  0.4520109267122445  0.3935048753950027  0.1574662929124938
  0.5503320955304678  0.6792210862794826  0.1607545235458731
  0.4281737428140182  0.9141737963649137  0.1678819120236656
 
  0.29103628E-02 -0.16208287E-02 -0.26255499E-02
  0.26473618E-02  0.58816958E-03  0.10823277E-02
  0.46094535E-02  0.37073269E-02 -0.50932964E-02
  0.24892600E-02 -0.97178331E-02  0.12013656E-02
 -0.17080533E-02  0.15490994E-03 -0.10389497E-02
  0.47397867E-02 -0.63360809E-02 -0.73678253E-02
  0.43265224E-03  0.54421080E-02 -0.57988419E-02
  0.39802069E-02  0.53852780E-02 -0.91640102E-02
 -0.10881895E-02 -0.69249553E-02 -0.22251518E-02
 -0.35781574E-02 -0.12986180E-02  0.29275403E-03
 -0.64824867E-02 -0.40406091E-02  0.28553093E-02
 -0.22752099E-02 -0.36175642E-02 -0.60092062E-02
 -0.30495914E-02  0.31033906E-02 -0.62550603E-03
  0.10501487E-01 -0.20232406E-02  0.11763183E-02
  0.21487052E-02  0.65038186E-02 -0.20282862E-02
 -0.53291328E-02  0.40071348E-02 -0.96323688E-02
  0.34593711E-02 -0.27269585E-03 -0.20836610E-02
  0.21313934E-02 -0.34312062E-02 -0.45310649E-02
  0.36563610E-02  0.49702676E-03  0.99247054E-03
 -0.38276053E-02  0.47209197E-02  0.13497869E-02
 -0.74819561E-02 -0.49018861E-03  0.35989360E-02
 -0.84840868E-02  0.49715671E-03 -0.58611580E-02
  0.33305711E-03 -0.98278348E-02  0.10158862E-01
 -0.32112488E-02 -0.38431216E-02  0.78410749E-02
 -0.70101203E-03  0.20959449E-02  0.65380789E-02
 -0.42970168E-02  0.71832424E-02 -0.49346310E-02
 -0.22323324E-03 -0.59633705E-03 -0.19620111E-02
 -0.27536268E-02  0.17833821E-03 -0.29268999E-02
 -0.79411797E-02 -0.62188304E-02  0.24307350E-02
  0.64069114E-02  0.74994611E-02  0.50515997E-02
  0.41701784E-02  0.13303403E-02  0.30816228E-02
 -0.19697460E-02 -0.76154278E-02 -0.44512460E-02
 -0.77909387E-03  0.77635183E-02  0.77251834E-02
  0.67591791E-02 -0.59871454E-02  0.49301323E-02
  0.23121366E-03 -0.12291171E-02 -0.13096047E-01
 -0.61788514E-02  0.10785976E-02  0.42059047E-02
 -0.72327172E-04  0.82076427E-02  0.56424892E-02
 -0.49551173E-02 -0.57839166E-02  0.55062904E-02
 -0.35484755E-02  0.37366726E-02  0.48319412E-02
 -0.25970985E-02 -0.26561955E-02 -0.24462258E-02
 -0.91027704E-02 -0.41701260E-02  0.38588173E-02
  0.76644179E-02  0.31206356E-02 -0.15888746E-02
 -0.73330326E-02 -0.89363692E-03 -0.51103683E-02
  0.52983664E-02  0.49655462E-03  0.52043164E-03
 -0.90484265E-03  0.35676691E-02 -0.19201122E-02
  0.31472789E-02 -0.61238154E-03 -0.74271263E-03
 -0.13470990E-02  0.31674438E-02 -0.47780715E-02
 -0.74248801E-02 -0.17300597E-02  0.34207234E-02
 -0.82442059E-02  0.44814253E-04  0.48411459E-02
 -0.59851749E-02 -0.33329589E-02  0.81031938E-02
  0.56323752E-02  0.10903846E-02  0.94142537E-02
 -0.93715979E-02  0.11042144E-01 -0.14181760E-03
 -0.28789630E-04 -0.13410259E-04  0.60716398E-02
 -0.10472684E-01 -0.45840673E-02 -0.66449473E-03
  0.42142628E-02  0.38759553E-02  0.84633401E-02
 -0.42573621E-02  0.18981570E-02 -0.16542802E-02
 -0.54505681E-03  0.87536194E-02  0.34953206E-02
 -0.78024563E-02 -0.27722100E-02 -0.22262530E-02
  0.15573423E-02  0.68472666E-02  0.65746920E-02
 -0.46882425E-02 -0.25333915E-02 -0.49827343E-02
  0.45052606E-02  0.19361996E-02 -0.54185490E-02
  0.13727758E-01  0.59909456E-02  0.91667513E-02
 -0.20602109E-03 -0.21417269E-02 -0.13552755E-02
  0.62461194E-02 -0.27255851E-02  0.10113565E-01
 -0.10320664E-02 -0.65634023E-02  0.28259660E-02
  0.69477192E-02 -0.11915347E-02  0.11701070E-01
  0.16695986E-02  0.96216811E-02 -0.17624601E-02
  0.40401671E-02  0.79357300E-02  0.12990967E-01
  0.15106726E-02 -0.79750423E-02 -0.70621115E-02
 -0.21508584E-02  0.46320982E-02  0.66588209E-02
  0.14470960E-03  0.68025012E-03  0.17318594E-02
 -0.37251079E-03  0.82337805E-02 -0.21425700E-02
  0.11112737E-01 -0.19327388E-02  0.72558984E-02
 -0.46986963E-02 -0.18630437E-02  0.17862822E-02
 -0.31374532E-02 -0.77835452E-02 -0.11415398E-01
  0.98596683E-03  0.35604300E-02  0.19861247E-03
 -0.38558408E-02 -0.66207963E-02  0.65977064E-02
  0.58399313E-03 -0.46835550E-02 -0.33971464E-03
  0.38130898E-02 -0.70649582E-03 -0.12171264E-01
  0.10280365E-02 -0.27150587E-02 -0.50838270E-02
  0.23480664E-03  0.28447973E-02 -0.17826351E-02
 -0.24787017E-02  0.11620156E-01  0.27060118E-02
  0.91277485E-02  0.11561000E-01  0.11623675E-01
 -0.13180419E-02 -0.18810305E-02 -0.67335585E-02
  0.78047266E-02  0.26543388E-02 -0.10281807E-01
  0.60987161E-03 -0.11704841E-02 -0.79459522E-02
 -0.34669016E-04 -0.19255233E-03 -0.77904302E-02
 -0.23423602E-02  0.49194235E-02 -0.37474499E-02
 -0.48713832E-03 -0.38514342E-02 -0.16875803E-02
  0.12557125E-02 -0.16226419E-02 -0.36425184E-02
  0.48853446E-02 -0.13879020E-02 -0.55867231E-03
 -0.28062018E-02 -0.90061344E-03 -0.11387322E-02
  0.12379430E-02  0.35315370E-02  0.13432553E-02
 -0.18397566E-02  0.18310646E-02  0.26901619E-02
  0.13581295E-02  0.33057740E-03  0.31475164E-02
  0.13706336E-02 -0.37218362E-02  0.20490466E-02
  0.19551402E-02 -0.21831171E-02 -0.34853784E-03
 -0.22107054E-02 -0.47214851E-02 -0.18482829E-02
 -0.26352367E-03 -0.11229872E-02 -0.22593202E-02
  0.22435363E-02 -0.86818919E-03 -0.10961526E-02
 -0.74723801E-03 -0.22460075E-02  0.11505179E-02
 -0.26388992E-02 -0.11600957E-02  0.22383445E-02
 -0.25149764E-02 -0.27645556E-02 -0.29231963E-03
 -0.10519192E-02 -0.17202409E-02  0.20481523E-02
  0.92289846E-03  0.16004829E-03  0.57830074E-03
 -0.83822377E-03 -0.47943081E-02 -0.21710488E-02
 -0.57486088E-02 -0.23078573E-02 -0.34569882E-02
 -0.56214566E-03  0.81667055E-03 -0.62783519E-02
 -0.19159705E-02 -0.29111905E-03  0.21258985E-02
 -0.45921991E-03 -0.10874677E-02  0.11785965E-01
  0.73821456E-02  0.84364657E-03  0.10958176E-02
  0.18661324E-02  0.31205754E-02 -0.20443985E-02
 -0.47226405E-02  0.54232688E-03  0.39503838E-03
 -0.99174830E-03 -0.32778541E-02 -0.38291065E-02
  0.36455263E-03 -0.15172736E-03 -0.74410798E-02
  0.88424720E-03  0.20462748E-02  0.17450366E-02
  0.49813242E-02 -0.14680740E-02 -0.16299864E-03
  0.15226715E-02 -0.27190317E-02  0.33097291E-03
  0.45250813E-02  0.26433493E-02  0.23297897E-02
 -0.18651688E-02  0.10123887E-02  0.20371538E-02
  0.62358713E-03 -0.46614589E-02 -0.80840563E-03
 -0.15731177E-03  0.43085312E-02  0.25211100E-02
 -0.11592750E-02 -0.27198471E-02 -0.35197140E-02
 -0.78287638E-02  0.42785931E-02  0.51856299E-02
 -0.24564524E-02  0.47404802E-02 -0.10023913E-01
  0.42303341E-02  0.39489378E-03 -0.55493460E-02
  0.48368097E-02  0.73246728E-02 -0.47927117E-02
 -0.31627544E-02 -0.52325525E-03  0.23117690E-02
 -0.74585184E-02  0.20654046E-02 -0.18843403E-02
 -0.24767266E-02  0.55653464E-04  0.46460601E-02
 -0.39801323E-02  0.92527349E-03  0.27832169E-02
  0.16460240E-02  0.17471498E-02  0.39384364E-02
 -0.15801504E-02  0.14442305E-03 -0.15111253E-02
 -0.23061621E-02  0.33741222E-02 -0.90682438E-03
 -0.50721611E-02 -0.18473161E-02  0.70312906E-02
 -0.10203522E-03  0.14263181E-02  0.55255096E-03
 -0.24228155E-02  0.19351322E-02  0.65539015E-02
  0.51203864E-02  0.47391916E-02 -0.71290957E-02
  0.94855729E-02  0.30789457E-02  0.25285437E-03
  0.26100808E-03  0.36244864E-02  0.49444400E-02
  0.53612794E-02  0.71874641E-02 -0.43127854E-02
  0.58255334E-02  0.39981819E-03 -0.20730412E-02
 -0.14005530E-02  0.44512656E-02 -0.65450604E-02
 -0.90562692E-03 -0.36967689E-02  0.33028102E-02
 -0.98998840E-03 -0.22643532E-02  0.94002494E-03
  0.51113152E-02  0.56099564E-02  0.50279056E-02
 -0.55743294E-02 -0.69773496E-03 -0.18457233E-02
  0.68563276E-02  0.22553214E-02  0.30180779E-03
 -0.46793698E-02 -0.16842501E-02  0.19646654E-02
 -0.45273093E-02 -0.19390166E-04  0.65160374E-02
 -0.26560611E-02 -0.67518467E-02 -0.11820489E-02
  0.70866063E-02  0.20265530E-02 -0.29285370E-02
 -0.41986199E-03  0.21768775E-02  0.10684396E-01
 -0.32139853E-02 -0.14024545E-02 -0.31248680E-02
 -0.27798548E-02  0.41075269E-03 -0.16411391E-02
 -0.22365421E-03  0.45653843E-02 -0.98801643E-03
  0.20515795E-02  0.80309036E-02 -0.31489910E-02
 -0.72866085E-03 -0.94119302E-02 -0.51137626E-02
  0.91249563E-02 -0.45513405E-02  0.13994378E-02
  0.24331734E-03  0.16976859E-02 -0.42512777E-02
  0.37982852E-02 -0.58269073E-03 -0.88885263E-02
 -0.73088001E-02 -0.17447949E-02 -0.63528833E-02
  0.95728125E-02  0.42917757E-02 -0.18259557E-02
 -0.26718330E-02  0.19573005E-02  0.38820274E-02
 -0.14540176E-03  0.27108654E-02 -0.10731959E-02
 -0.21779867E-02  0.22596984E-02  0.11332738E-02
 -0.11453597E-02  0.68296313E-02  0.46984597E-03
  0.93256432E-02  0.38839661E-02 -0.15886293E-02
 
           1
   2.00000000000000     
  0.10826580E+01 -0.41723186E-02  0.19654860E-17  0.00000000E+00
  0.12678722E+00  0.14198333E+00  0.86294239E-01
  0.22749553E+00  0.33801855E+00  0.84710655E-01
  0.13628687E+00  0.63851758E+00  0.97245235E-01
  0.22416422E+00  0.85045538E+00  0.10144410E+00
  0.69637116E+00  0.12927072E+00  0.99006400E-01
  0.69983674E+00  0.30476259E+00  0.81926698E-01
  0.77247817E+00  0.70290619E+00  0.11953307E+00
  0.68945176E+00  0.79720450E+00  0.83870758E-01
  0.92817590E+00  0.74385691E-01  0.11612345E+00
  0.85938767E+00  0.31316579E+00  0.11849374E+00
  0.99869975E+00  0.60820002E+00  0.13032354E+00
  0.90211236E+00  0.84352070E+00  0.12363942E+00
  0.42085519E+00  0.11152047E+00  0.12979696E+00
  0.48593969E+00  0.35477116E+00  0.13145120E+00
  0.39758588E+00  0.53273333E+00  0.12583076E+00
  0.55427234E+00  0.88036368E+00  0.12852202E+00
  0.92554475E-01  0.95855517E+00  0.11951186E+00
  0.15588427E+00  0.21703205E+00  0.11596446E+00
  0.35365005E-01  0.41534443E+00  0.10679323E+00
  0.26228848E+00  0.78532282E+00  0.14142449E+00
  0.66739392E+00  0.19116552E-01  0.12582694E+00
  0.74178558E+00  0.24998944E+00  0.13723651E+00
  0.76340460E+00  0.48226083E+00  0.12813756E+00
  0.58619897E+00  0.71440086E+00  0.13848330E+00
  0.22529851E+00  0.11269621E+00  0.14945563E+00
  0.18927341E+00  0.35134315E+00  0.13939360E+00
  0.30339759E+00  0.61807978E+00  0.15476947E+00
  0.17433983E+00  0.90076650E+00  0.14870140E+00
  0.93061611E+00  0.13634947E+00  0.16726248E+00
  0.86222853E+00  0.40447913E+00  0.16960878E+00
  0.76401374E+00  0.63555485E+00  0.15746811E+00
  0.81636411E+00  0.85684947E+00  0.15970577E+00
  0.80841369E-01  0.12325753E+00  0.20211150E+00
  0.56208301E-01  0.33814810E+00  0.18864605E+00
  0.89396360E+00  0.56497420E+00  0.18101090E+00
  0.13518184E+00  0.96003833E+00  0.21850401E+00
  0.52758338E+00  0.21410700E+00  0.20199448E+00
  0.25998984E+00  0.27530634E+00  0.18939378E+00
  0.50626524E+00  0.65544267E+00  0.18697984E+00
  0.54739875E+00  0.87890654E+00  0.22197304E+00
  0.32914119E+00  0.94359171E+00  0.18495949E+00
  0.31849183E+00  0.34591399E+00  0.22053644E+00
  0.28405270E+00  0.48421009E+00  0.18251386E+00
  0.28964786E+00  0.70277525E+00  0.18099508E+00
  0.71300632E+00  0.93786553E+00  0.18121572E+00
  0.82985975E+00  0.20190028E+00  0.18794325E+00
  0.64592928E+00  0.47160202E+00  0.19132740E+00
  0.84005624E+00  0.75009911E+00  0.19298540E+00
  0.59039366E+00  0.56974179E-01  0.20375996E+00
  0.58203063E+00  0.83605891E+00  0.39350128E+00
  0.34506256E+00  0.36486143E-02  0.62315983E+00
  0.36713746E+00  0.22295703E+00  0.84035460E+00
  0.84714139E+00  0.92427099E+00  0.90590978E+00
  0.61482662E+00  0.41234354E+00  0.22435631E+00
  0.66578668E+00  0.24187437E+00  0.41431446E+00
  0.72321241E-01  0.55227495E+00  0.63687978E+00
  0.46891368E+00  0.85783029E+00  0.82664909E+00
  0.92462503E+00  0.57294223E+00  0.97398355E+00
  0.31943014E+00  0.67531693E+00  0.21176987E+00
  0.54794827E+00  0.92813330E+00  0.37822788E+00
  0.26360685E+00  0.90397214E-01  0.60663021E+00
  0.41290843E+00  0.22928076E+00  0.80888529E+00
  0.25617804E-01  0.13528552E-01  0.93966265E+00
  0.78613530E+00  0.41286969E+00  0.31410871E+00
  0.91914411E+00  0.38583936E+00  0.43779907E+00
  0.23234604E+00  0.49433275E+00  0.61338229E+00
  0.17829400E+00  0.77977294E+00  0.81120359E+00
  0.11533668E+00  0.63347016E+00  0.96365044E+00
  0.25178559E+00  0.97226167E+00  0.26494858E+00
  0.35439593E-01  0.17183044E-01  0.49938189E+00
  0.18296091E+00  0.68340587E-01  0.63665929E+00
  0.25646900E+00  0.32378279E+00  0.83485573E+00
  0.47421804E+00  0.95824994E+00  0.22749184E-01
  0.24939892E-01  0.45082972E+00  0.31336888E+00
  0.18397578E+00  0.54739381E+00  0.45746350E+00
  0.97115931E+00  0.47411192E+00  0.67305235E+00
  0.74646880E+00  0.40771682E+00  0.81766479E+00
  0.79177079E+00  0.46196152E+00  0.98573425E+00
  0.46356299E-01  0.91953697E+00  0.27383395E+00
  0.18290808E-01  0.64721052E-01  0.47385603E+00
  0.84338383E-01  0.61042161E-01  0.65443377E+00
  0.11569310E+00  0.32598422E+00  0.85522364E+00
  0.72364672E+00  0.68969299E-01  0.44898194E-01
  0.73974167E-01  0.46697372E+00  0.34871112E+00
  0.43530177E+00  0.57534818E+00  0.48075811E+00
  0.10063058E+00  0.59137848E+00  0.66935381E+00
  0.47570443E-01  0.52404055E+00  0.82784709E+00
  0.78043337E+00  0.37435686E+00  0.99555226E+00
  0.11270821E-01  0.98993838E+00  0.87439098E-01
  0.91192502E+00  0.21181522E+00  0.85345561E-01
  0.93828070E+00  0.46445199E+00  0.82168342E-01
  0.96348666E+00  0.73210883E+00  0.97090073E-01
  0.45033890E+00  0.96830651E+00  0.88109301E-01
  0.45686622E+00  0.25028376E+00  0.94067835E-01
  0.51814593E+00  0.56809943E+00  0.98695029E-01
  0.47166119E+00  0.72738192E+00  0.10153517E+00
  0.41444715E-01  0.11608821E-01  0.16565800E+00
  0.99310503E+00  0.22446871E+00  0.15416119E+00
  0.86829855E-02  0.47150731E+00  0.15508645E+00
  0.54373945E-01  0.76698370E+00  0.17021681E+00
  0.55525203E+00  0.17419838E-01  0.17135168E+00
  0.49342399E+00  0.27720987E+00  0.16424341E+00
  0.52827626E+00  0.50409683E+00  0.16107224E+00
  0.52620128E+00  0.78039518E+00  0.17018045E+00
  0.57721956E-01  0.99692840E+00  0.14340101E+00
  0.92592289E+00  0.23529934E+00  0.13164146E+00
  0.99697151E+00  0.47933720E+00  0.13216229E+00
  0.27757741E-01  0.76696904E+00  0.14820087E+00
  0.52778792E+00  0.99910643E+00  0.14779311E+00
  0.51289436E+00  0.26903295E+00  0.14263413E+00
  0.55316389E+00  0.49650341E+00  0.13974859E+00
  0.55009450E+00  0.82141292E+00  0.15288853E+00
  0.15352867E+00  0.76055948E-01  0.11328801E+00
  0.59370807E-01  0.31227756E+00  0.11008113E+00
  0.53391500E-01  0.52864247E+00  0.11034313E+00
  0.11267979E+00  0.85973638E+00  0.12064275E+00
  0.54132979E+00  0.88185080E-01  0.10885594E+00
  0.64990436E+00  0.31154852E+00  0.11806830E+00
  0.66939328E+00  0.62104515E+00  0.12630289E+00
  0.67848643E+00  0.80070137E+00  0.12531574E+00
  0.20783636E+00  0.94824844E+00  0.71705012E-01
  0.30101652E+00  0.27810764E+00  0.10081666E+00
  0.37833343E+00  0.47042180E+00  0.97165266E-01
  0.33026650E+00  0.76616520E+00  0.10651096E+00
  0.83270866E+00  0.92072168E+00  0.89894005E-01
  0.70479730E+00  0.19623658E+00  0.82068945E-01
  0.70983100E+00  0.43677157E+00  0.77825102E-01
  0.74967328E+00  0.73372653E+00  0.95134290E-01
  0.91076411E+00  0.11744666E+00  0.90835577E-01
  0.91204390E+00  0.35123717E+00  0.76172941E-01
  0.98740593E+00  0.68392022E+00  0.11188376E+00
  0.81967932E-01  0.91388398E+00  0.77887142E-01
  0.36270607E+00  0.14439323E+00  0.87944076E-01
  0.63467712E+00  0.44849365E+00  0.93429017E-01
  0.36930391E+00  0.61902672E+00  0.10309166E+00
  0.45875255E+00  0.90585670E+00  0.10054803E+00
  0.92394604E+00  0.95689388E+00  0.20586460E+00
  0.76739561E-01  0.23215418E+00  0.19840578E+00
  0.85004133E+00  0.42844029E+00  0.19565193E+00
  0.26363021E+00  0.89079585E+00  0.22699296E+00
  0.50454886E+00  0.98783184E+00  0.22031870E+00
  0.48535784E+00  0.29922488E+00  0.21556771E+00
  0.55242713E+00  0.48046197E+00  0.21026029E+00
  0.49837195E+00  0.75557553E+00  0.20989744E+00
  0.22852753E+00  0.11279071E+00  0.18739557E+00
  0.35150132E+00  0.46503287E+00  0.20765883E+00
  0.21708672E+00  0.57269569E+00  0.17809021E+00
  0.30349088E+00  0.89778170E+00  0.20997986E+00
  0.76656472E+00  0.69513774E-01  0.19132429E+00
  0.68024682E+00  0.37198950E+00  0.19293042E+00
  0.69227023E+00  0.59366055E+00  0.18685809E+00
  0.77588646E+00  0.87967574E+00  0.20868563E+00
  0.45792000E+00  0.74270508E-01  0.18229141E+00
  0.29876084E+00  0.26893313E+00  0.16117599E+00
  0.33092423E+00  0.50294376E+00  0.15702143E+00
  0.28595757E+00  0.71161308E+00  0.15404430E+00
  0.85199817E+00  0.60660956E-02  0.16609222E+00
  0.81754613E+00  0.22596148E+00  0.16150613E+00
  0.81848223E+00  0.47152821E+00  0.15489683E+00
  0.84957962E+00  0.76758783E+00  0.16774225E+00
  0.93037060E+00  0.10650025E+00  0.14175925E+00
  0.12680518E-01  0.38408565E+00  0.15918890E+00
  0.14758255E-01  0.66314847E+00  0.16824683E+00
  0.81164659E-01  0.93091710E+00  0.16860773E+00
  0.49299979E+00  0.19132000E+00  0.16627838E+00
  0.45186168E+00  0.39372782E+00  0.15749912E+00
  0.55081019E+00  0.67989491E+00  0.16083432E+00
  0.43015057E+00  0.91455699E+00  0.16795870E+00
  0.31713978E-03 -0.15055329E-03 -0.46778954E-04
  0.50238285E-03  0.49048204E-04  0.42153139E-04
  0.11340617E-02  0.36073264E-03 -0.26525487E-04
 -0.55055255E-03 -0.96242026E-03 -0.73567733E-04
 -0.30729822E-03  0.19396716E-05 -0.27787869E-04
  0.18678699E-03 -0.62975649E-03 -0.17758514E-03
  0.53742301E-03  0.50090472E-03 -0.43470299E-04
  0.12165744E-02  0.50659555E-03 -0.80274518E-04
 -0.87090600E-03 -0.67458002E-03 -0.12285822E-03
 -0.76539323E-03 -0.12311389E-03 -0.31983974E-04
 -0.15108371E-02 -0.41079981E-03 -0.36124877E-04
 -0.72450865E-03 -0.36483335E-03 -0.16894341E-03
 -0.24273120E-03  0.29101031E-03  0.32775088E-05
  0.15633153E-02 -0.20591522E-03  0.67382973E-04
  0.10077907E-02  0.62737309E-03  0.53030156E-04
 -0.52814196E-03  0.38630616E-03 -0.17497720E-03
  0.58844108E-03 -0.31012791E-04 -0.13422007E-04
  0.16060034E-04 -0.34111277E-03 -0.11265223E-03
  0.65477107E-03  0.56970506E-04  0.46120203E-04
 -0.18050622E-03  0.46364479E-03  0.56961474E-04
 -0.13184801E-02 -0.66313352E-04  0.10209749E-04
 -0.13467128E-02  0.52724460E-04 -0.15913777E-03
 -0.87698158E-03 -0.95346674E-03  0.82890421E-04
 -0.90967706E-03 -0.36738158E-03  0.83823587E-04
  0.84015678E-04  0.18493027E-03  0.13879409E-03
 -0.31697902E-04  0.69383434E-03 -0.44940207E-04
 -0.52353173E-04  0.12311363E-04 -0.38283577E-04
 -0.48957429E-03 -0.67171281E-06 -0.77592099E-04
 -0.19544179E-02 -0.59776325E-03 -0.84905347E-04
  0.18984036E-02  0.76019273E-03  0.22385790E-03
  0.88882212E-03  0.14230052E-03  0.10550671E-03
 -0.11000328E-02 -0.76011032E-03 -0.18472291E-03
  0.64648148E-03  0.76022141E-03  0.23287376E-03
  0.56885103E-03 -0.58311996E-03  0.68653058E-04
 -0.88627507E-04 -0.14255179E-03 -0.26026750E-03
 -0.99151800E-03  0.12059889E-03  0.49456136E-04
  0.82770482E-03  0.83558781E-03  0.20708025E-03
 -0.14454706E-02 -0.55572239E-03  0.57366178E-05
 -0.25234721E-03  0.36874214E-03  0.10807796E-03
 -0.69928787E-03 -0.26460773E-03 -0.90759650E-04
 -0.19161106E-02 -0.41184416E-03 -0.38932429E-04
  0.16241488E-02  0.32076833E-03  0.57698838E-04
 -0.13531658E-02 -0.81284790E-04 -0.15398147E-03
  0.97642475E-03  0.37539752E-04  0.48967154E-04
  0.18628445E-03  0.34323231E-03 -0.24713251E-05
  0.50675586E-03 -0.51796147E-04  0.23654437E-05
  0.10111911E-03  0.31135515E-03 -0.58710886E-04
 -0.14177937E-02 -0.17898494E-03 -0.19543285E-05
 -0.14455448E-02 -0.15995753E-05  0.29781267E-04
 -0.13483246E-02 -0.33176426E-03  0.74459785E-04
  0.10691814E-02  0.10532014E-03  0.22742701E-03
 -0.50914129E-03  0.10859898E-02  0.63238191E-04
  0.13897771E-06  0.18694767E-05  0.11469431E-03
 -0.22885391E-02 -0.49018663E-03 -0.13477439E-03
  0.10979634E-02  0.38028943E-03  0.23098979E-03
 -0.54609460E-03  0.19388384E-03 -0.34413428E-04
  0.75791876E-03  0.85929122E-03  0.16186260E-03
 -0.16015345E-02 -0.27217215E-03 -0.12559272E-03
  0.93250171E-03  0.67825907E-03  0.21472186E-03
 -0.10506788E-02 -0.24643839E-03 -0.15427829E-03
  0.95486844E-03  0.19454683E-03 -0.49869203E-04
  0.29274221E-02  0.58530523E-03  0.33013984E-03
 -0.25195998E-03 -0.21402433E-03 -0.52475669E-04
  0.82597687E-03 -0.26342499E-03  0.19997616E-03
 -0.82147417E-03 -0.64433972E-03 -0.29149599E-04
  0.10772144E-02 -0.12131683E-03  0.25054304E-03
  0.12442244E-02  0.95116146E-03  0.89090476E-04
  0.14673502E-02  0.78031376E-03  0.36181812E-03
 -0.53377053E-03 -0.78335629E-03 -0.21203904E-03
  0.90006375E-04  0.45460557E-03  0.16487190E-03
  0.69633860E-04  0.63236388E-04  0.45761843E-04
  0.74577667E-03  0.81175240E-03  0.52432217E-04
  0.17482121E-02 -0.17151008E-03  0.19124256E-03
 -0.10124604E-02 -0.18781956E-03 -0.18833938E-04
 -0.12831963E-02 -0.76584010E-03 -0.32257150E-03
  0.52405123E-03  0.35518579E-03  0.51211176E-04
 -0.13121735E-02 -0.65137043E-03  0.21930344E-04
 -0.36255216E-03 -0.47726067E-03 -0.54435761E-04
  0.58916315E-03 -0.67537543E-04 -0.21099796E-03
 -0.91956797E-04 -0.26517033E-03 -0.12062381E-03
  0.34574392E-03  0.28256009E-03 -0.43264183E-05
  0.71724102E-03  0.11439589E-02  0.16764446E-03
  0.26471134E-02  0.11132672E-02  0.40462932E-03
 -0.41123017E-03 -0.18566387E-03 -0.15691554E-03
  0.15758655E-02  0.26016346E-03 -0.11227758E-03
 -0.19197448E-04 -0.12268393E-03 -0.16020178E-03
 -0.14914213E-04 -0.13735201E-04 -0.14828406E-03
  0.85568383E-04  0.50028206E-03 -0.31397093E-04
 -0.43350201E-03 -0.37950468E-03 -0.77466913E-04
  0.52909806E-04 -0.15529872E-03 -0.78371967E-04
  0.69661732E-03 -0.13181913E-03  0.48838494E-05
 -0.55474097E-03 -0.10127396E-03 -0.50648981E-04
  0.55634597E-03  0.33582308E-03  0.73431828E-04
 -0.13039109E-03  0.17108518E-03  0.60001714E-04
  0.27446377E-03  0.36911212E-04  0.71508329E-04
 -0.12801468E-03 -0.35825786E-03  0.60968521E-05
  0.96448115E-04 -0.22327098E-03 -0.20273316E-04
 -0.83606361E-03 -0.46470413E-03 -0.10303117E-03
 -0.17207822E-03 -0.12041963E-03 -0.57480988E-04
  0.29383804E-03 -0.94003014E-04 -0.19064679E-04
 -0.33286235E-03 -0.22227591E-03 -0.82143573E-05
 -0.58280223E-03 -0.12610333E-03  0.11142752E-04
 -0.68483418E-03 -0.26335231E-03 -0.53115208E-04
 -0.34534077E-03 -0.16408977E-03  0.12695654E-04
  0.20298218E-03  0.31155091E-04  0.22665844E-04
 -0.63232796E-03 -0.46493689E-03 -0.98016610E-04
 -0.12146922E-02 -0.22709912E-03 -0.13315669E-03
 -0.17855059E-04  0.85845782E-04 -0.97474711E-04
 -0.35233659E-03 -0.29916983E-04  0.30507187E-04
 -0.20826475E-03 -0.10280173E-03  0.20576034E-03
  0.13025907E-02  0.73293301E-04  0.77565012E-04
  0.59460375E-03  0.31080559E-03  0.91799047E-05
 -0.81293083E-03  0.31259332E-04 -0.28709029E-04
 -0.50247001E-03 -0.32664635E-03 -0.11695285E-03
  0.34822689E-04 -0.16835254E-04 -0.13625735E-03
  0.35917157E-03  0.23772327E-03  0.71083734E-04
  0.73784264E-03 -0.10037064E-03  0.15041938E-04
 -0.41688531E-04 -0.28825907E-03 -0.21757726E-04
  0.10492732E-02  0.27466338E-03  0.10364774E-03
 -0.22447581E-03  0.92819337E-04  0.33861227E-04
 -0.44217169E-03 -0.47733573E-03 -0.62723583E-04
  0.41048946E-03  0.42345970E-03  0.96604016E-04
 -0.44534460E-03 -0.25738824E-03 -0.10393741E-03
 -0.87698973E-03  0.42399964E-03  0.93577490E-04
 -0.17070416E-05  0.44880899E-03 -0.15212226E-03
  0.78874434E-03  0.41483813E-04 -0.71700505E-04
  0.16112045E-02  0.73058389E-03  0.25451847E-04
 -0.64939856E-03 -0.26135534E-04  0.14701178E-04
 -0.10709568E-02  0.18268628E-03 -0.60380758E-04
 -0.42007471E-03 -0.22990917E-04  0.70085630E-04
 -0.60634447E-03  0.11473923E-03  0.33507788E-04
  0.50334299E-03  0.23331796E-03  0.10266302E-03
 -0.20090926E-03  0.76572902E-04 -0.32235653E-04
 -0.11019143E-03  0.33073092E-03  0.97468091E-05
 -0.10775531E-02 -0.20198627E-03  0.76931835E-04
  0.13786569E-03  0.14703824E-03  0.24988228E-04
 -0.10632965E-03  0.23182094E-03  0.12929500E-03
  0.13181003E-02  0.44496367E-03 -0.46862807E-04
  0.17856285E-02  0.25395624E-03  0.10060097E-03
  0.40523591E-03  0.35310199E-03  0.13673130E-03
  0.16880127E-02  0.73905218E-03  0.42004766E-04
  0.10791597E-02  0.46095125E-04  0.30323087E-05
  0.30450445E-03  0.44371000E-03 -0.81808824E-04
 -0.51013331E-03 -0.35264403E-03  0.16346428E-04
 -0.36459444E-03 -0.22242059E-03 -0.13371091E-04
  0.13420173E-02  0.55637320E-03  0.19129793E-03
 -0.97821292E-03 -0.69014935E-04 -0.79144094E-04
  0.13270423E-02  0.18958467E-03  0.72026081E-04
 -0.10211333E-02 -0.18516876E-03 -0.20976254E-04
 -0.64299143E-03  0.50053638E-04  0.95958916E-04
 -0.11457216E-02 -0.66364592E-03 -0.11655636E-03
  0.13195541E-02  0.16172333E-03  0.17876774E-04
  0.15030164E-03  0.21123319E-03  0.22355743E-03
 -0.58860502E-03 -0.13276202E-03 -0.94759210E-04
 -0.42611851E-03  0.27153540E-04 -0.44306205E-04
  0.42936471E-03  0.43107686E-03  0.28943302E-04
  0.11436606E-02  0.79433406E-03  0.48217508E-04
 -0.10827697E-02 -0.92712696E-03 -0.20874711E-03
  0.11123611E-02 -0.44540163E-03  0.35114104E-04
  0.18955240E-03  0.17030651E-03 -0.63527083E-04
  0.57608579E-03 -0.67081365E-04 -0.14957058E-03
 -0.14365420E-02 -0.17421543E-03 -0.18678284E-03
  0.20609417E-02  0.44503682E-03  0.79079536E-04
 -0.24236472E-03  0.21966094E-03  0.77455869E-04
  0.22282008E-03  0.32573908E-03  0.81345947E-05
 -0.20469029E-03  0.18986580E-03  0.27028481E-04
  0.46177945E-03  0.66394823E-03  0.75772189E-04
  0.19771105E-02  0.39868659E-03  0.76232612E-04
  0.00000000E+00  0.00000000E+00  0.00000000E+00
  0.00000000E+00  0.00000000E+00  0.00000000E+00
  0.00000000E+00  0.00000000E+00  0.00000000E+00
  0.00000000E+00  0.00000000E+00  0.00000000E+00
  0.00000000E+00  0.00000000E+00  0.00000000E+00
  0.00000000E+00  0.00000000E+00  0.00000000E+00
  0.00000000E+00  0.00000000E+00  0.00000000E+00
  0.00000000E+00  0.00000000E+00  0.00000000E+00
  0.00000000E+00  0.00000000E+00  0.00000000E+00
  0.00000000E+00  0.00000000E+00  0.00000000E+00
  0.00000000E+00  0.00000000E+00  0.00000000E+00
  0.00000000E+00  0.00000000E+00  0.00000000E+00
  0.00000000E+00  0.00000000E+00  0.00000000E+00
  0.00000000E+00  0.00000000E+00  0.00000000E+00
  0.00000000E+00  0.00000000E+00  0.00000000E+00
  0.00000000E+00  0.00000000E+00  0.00000000E+00
  0.00000000E+00  0.00000000E+00  0.00000000E+00
  0.00000000E+00  0.00000000E+00  0.00000000E+00
  0.00000000E+00  0.00000000E+00  0.00000000E+00
  0.00000000E+00  0.00000000E+00  0.00000000E+00
  0.00000000E+00  0.00000000E+00  0.00000000E+00
  0.00000000E+00  0.00000000E+00  0.00000000E+00
  0.00000000E+00  0.00000000E+00  0.00000000E+00
  0.00000000E+00  0.00000000E+00  0.00000000E+00
  0.00000000E+00  0.00000000E+00  0.00000000E+00
  0.00000000E+00  0.00000000E+00  0.00000000E+00
  0.00000000E+00  0.00000000E+00  0.00000000E+00
  0.00000000E+00  0.00000000E+00  0.00000000E+00
  0.00000000E+00  0.00000000E+00  0.00000000E+00
  0.00000000E+00  0.00000000E+00  0.00000000E+00
  0.00000000E+00  0.00000000E+00  0.00000000E+00
  0.00000000E+00  0.00000000E+00  0.00000000E+00
  0.00000000E+00  0.00000000E+00  0.00000000E+00
  0.00000000E+00  0.00000000E+00  0.00000000E+00
  0.00000000E+00  0.00000000E+00  0.00000000E+00
  0.00000000E+00  0.00000000E+00  0.00000000E+00
  0.00000000E+00  0.00000000E+00  0.00000000E+00
  0.00000000E+00  0.00000000E+00  0.00000000E+00
  0.00000000E+00  0.00000000E+00  0.00000000E+00
  0.00000000E+00  0.00000000E+00  0.00000000E+00
  0.00000000E+00  0.00000000E+00  0.00000000E+00
  0.00000000E+00  0.00000000E+00  0.00000000E+00
  0.00000000E+00  0.00000000E+00  0.00000000E+00
  0.00000000E+00  0.00000000E+00  0.00000000E+00
  0.00000000E+00  0.00000000E+00  0.00000000E+00
  0.00000000E+00  0.00000000E+00  0.00000000E+00
  0.00000000E+00  0.00000000E+00  0.00000000E+00
  0.00000000E+00  0.00000000E+00  0.00000000E+00
  0.00000000E+00  0.00000000E+00  0.00000000E+00
  0.00000000E+00  0.00000000E+00  0.00000000E+00
  0.00000000E+00  0.00000000E+00  0.00000000E+00
  0.00000000E+00  0.00000000E+00  0.00000000E+00
  0.00000000E+00  0.00000000E+00  0.00000000E+00
  0.00000000E+00  0.00000000E+00  0.00000000E+00
  0.00000000E+00  0.00000000E+00  0.00000000E+00
  0.00000000E+00  0.00000000E+00  0.00000000E+00
  0.00000000E+00  0.00000000E+00  0.00000000E+00
  0.00000000E+00  0.00000000E+00  0.00000000E+00
  0.00000000E+00  0.00000000E+00  0.00000000E+00
  0.00000000E+00  0.00000000E+00  0.00000000E+00
  0.00000000E+00  0.00000000E+00  0.00000000E+00
  0.00000000E+00  0.00000000E+00  0.00000000E+00
  0.00000000E+00  0.00000000E+00  0.00000000E+00
  0.00000000E+00  0.00000000E+00  0.00000000E+00
  0.00000000E+00  0.00000000E+00  0.00000000E+00
  0.00000000E+00  0.00000000E+00  0.00000000E+00
  0.00000000E+00  0.00000000E+00  0.00000000E+00
  0.00000000E+00  0.00000000E+00  0.00000000E+00
  0.00000000E+00  0.00000000E+00  0.00000000E+00
  0.00000000E+00  0.00000000E+00  0.00000000E+00
  0.00000000E+00  0.00000000E+00  0.00000000E+00
  0.00000000E+00  0.00000000E+00  0.00000000E+00
  0.00000000E+00  0.00000000E+00  0.00000000E+00
  0.00000000E+00  0.00000000E+00  0.00000000E+00
  0.00000000E+00  0.00000000E+00  0.00000000E+00
  0.00000000E+00  0.00000000E+00  0.00000000E+00
  0.00000000E+00  0.00000000E+00  0.00000000E+00
  0.00000000E+00  0.00000000E+00  0.00000000E+00
  0.00000000E+00  0.00000000E+00  0.00000000E+00
  0.00000000E+00  0.00000000E+00  0.00000000E+00
  0.00000000E+00  0.00000000E+00  0.00000000E+00
  0.00000000E+00  0.00000000E+00  0.00000000E+00
  0.00000000E+00  0.00000000E+00  0.00000000E+00
  0.00000000E+00  0.00000000E+00  0.00000000E+00
  0.00000000E+00  0.00000000E+00  0.00000000E+00
  0.00000000E+00  0.00000000E+00  0.00000000E+00
  0.00000000E+00  0.00000000E+00  0.00000000E+00
  0.00000000E+00  0.00000000E+00  0.00000000E+00
  0.00000000E+00  0.00000000E+00  0.00000000E+00
  0.00000000E+00  0.00000000E+00  0.00000000E+00
  0.00000000E+00  0.00000000E+00  0.00000000E+00
  0.00000000E+00  0.00000000E+00  0.00000000E+00
  0.00000000E+00  0.00000000E+00  0.00000000E+00
  0.00000000E+00  0.00000000E+00  0.00000000E+00
  0.00000000E+00  0.00000000E+00  0.00000000E+00
  0.00000000E+00  0.00000000E+00  0.00000000E+00
  0.00000000E+00  0.00000000E+00  0.00000000E+00
  0.00000000E+00  0.00000000E+00  0.00000000E+00
  0.00000000E+00  0.00000000E+00  0.00000000E+00
  0.00000000E+00  0.00000000E+00  0.00000000E+00
  0.00000000E+00  0.00000000E+00  0.00000000E+00
  0.00000000E+00  0.00000000E+00  0.00000000E+00
  0.00000000E+00  0.00000000E+00  0.00000000E+00
  0.00000000E+00  0.00000000E+00  0.00000000E+00
  0.00000000E+00  0.00000000E+00  0.00000000E+00
  0.00000000E+00  0.00000000E+00  0.00000000E+00
  0.00000000E+00  0.00000000E+00  0.00000000E+00
  0.00000000E+00  0.00000000E+00  0.00000000E+00
  0.00000000E+00  0.00000000E+00  0.00000000E+00
  0.00000000E+00  0.00000000E+00  0.00000000E+00
  0.00000000E+00  0.00000000E+00  0.00000000E+00
  0.00000000E+00  0.00000000E+00  0.00000000E+00
  0.00000000E+00  0.00000000E+00  0.00000000E+00
  0.00000000E+00  0.00000000E+00  0.00000000E+00
  0.00000000E+00  0.00000000E+00  0.00000000E+00
  0.00000000E+00  0.00000000E+00  0.00000000E+00
  0.00000000E+00  0.00000000E+00  0.00000000E+00
  0.00000000E+00  0.00000000E+00  0.00000000E+00
  0.00000000E+00  0.00000000E+00  0.00000000E+00
  0.00000000E+00  0.00000000E+00  0.00000000E+00
  0.00000000E+00  0.00000000E+00  0.00000000E+00
  0.00000000E+00  0.00000000E+00  0.00000000E+00
  0.00000000E+00  0.00000000E+00  0.00000000E+00
  0.00000000E+00  0.00000000E+00  0.00000000E+00
  0.00000000E+00  0.00000000E+00  0.00000000E+00
  0.00000000E+00  0.00000000E+00  0.00000000E+00
  0.00000000E+00  0.00000000E+00  0.00000000E+00
  0.00000000E+00  0.00000000E+00  0.00000000E+00
  0.00000000E+00  0.00000000E+00  0.00000000E+00
  0.00000000E+00  0.00000000E+00  0.00000000E+00
  0.00000000E+00  0.00000000E+00  0.00000000E+00
  0.00000000E+00  0.00000000E+00  0.00000000E+00
  0.00000000E+00  0.00000000E+00  0.00000000E+00
  0.00000000E+00  0.00000000E+00  0.00000000E+00
  0.00000000E+00  0.00000000E+00  0.00000000E+00
  0.00000000E+00  0.00000000E+00  0.00000000E+00
  0.00000000E+00  0.00000000E+00  0.00000000E+00
  0.00000000E+00  0.00000000E+00  0.00000000E+00
  0.00000000E+00  0.00000000E+00  0.00000000E+00
  0.00000000E+00  0.00000000E+00  0.00000000E+00
  0.00000000E+00  0.00000000E+00  0.00000000E+00
  0.00000000E+00  0.00000000E+00  0.00000000E+00
  0.00000000E+00  0.00000000E+00  0.00000000E+00
  0.00000000E+00  0.00000000E+00  0.00000000E+00
  0.00000000E+00  0.00000000E+00  0.00000000E+00
  0.00000000E+00  0.00000000E+00  0.00000000E+00
  0.00000000E+00  0.00000000E+00  0.00000000E+00
  0.00000000E+00  0.00000000E+00  0.00000000E+00
  0.00000000E+00  0.00000000E+00  0.00000000E+00
  0.00000000E+00  0.00000000E+00  0.00000000E+00
  0.00000000E+00  0.00000000E+00  0.00000000E+00
  0.00000000E+00  0.00000000E+00  0.00000000E+00
  0.00000000E+00  0.00000000E+00  0.00000000E+00
  0.00000000E+00  0.00000000E+00  0.00000000E+00
  0.00000000E+00  0.00000000E+00  0.00000000E+00
  0.00000000E+00  0.00000000E+00  0.00000000E+00
  0.00000000E+00  0.00000000E+00  0.00000000E+00
  0.00000000E+00  0.00000000E+00  0.00000000E+00
  0.00000000E+00  0.00000000E+00  0.00000000E+00
  0.00000000E+00  0.00000000E+00  0.00000000E+00
  0.00000000E+00  0.00000000E+00  0.00000000E+00
  0.00000000E+00  0.00000000E+00  0.00000000E+00
  0.00000000E+00  0.00000000E+00  0.00000000E+00
  0.00000000E+00  0.00000000E+00  0.00000000E+00
  0.00000000E+00  0.00000000E+00  0.00000000E+00
  0.00000000E+00  0.00000000E+00  0.00000000E+00
  0.00000000E+00  0.00000000E+00  0.00000000E+00
  0.00000000E+00  0.00000000E+00  0.00000000E+00
