Na88 Sb16 S64
1.0
  11.7036554800000001    0.0000000000000000   -4.1378687999999988
 -11.7036534400000036   20.2713275199999963   -8.2757375999999958
   0.0000000000000000    0.0000000000000000  106.4446385317966417
Na Sb S
88 16 64
direct
   0.2491584430007439    0.1248832316769059    0.1016270701131947 Na
   0.2500904726675838    0.3750261964971216    0.1018833366105440 Na
   0.2509800559836655    0.6247455811481057    0.1015793652459560 Na
   0.2501300213332957    0.8749103878654289    0.1017957631818912 Na
   0.7496441285786026    0.1246041538622581    0.1019438881390552 Na
   0.7539160027519053    0.3767504269314579    0.1020657617294239 Na
   0.7506592348682014    0.6252904560799861    0.1019326162217467 Na
   0.7509048068053463    0.8763364671420514    0.1019924613249369 Na
   0.9998027480234563    0.1249816611763800    0.1310877239400938 Na
   0.0002275101901878    0.3750523953655533    0.1311194600478685 Na
   0.9978701520158428    0.6252688285193599    0.1309331098767078 Na
   0.9961929289794642    0.8735089430720844    0.1306333019609828 Na
   0.4973760229863138    0.1235715507012569    0.1307828811448460 Na
   0.5008701208407225    0.3745786162129312    0.1311984460106371 Na
   0.5015431359724295    0.6251111666828421    0.1314304682718465 Na
   0.4994317504472904    0.8737877386636475    0.1309064653028807 Na
   0.2503442190135510    0.0001935768588456    0.1310409212684403 Na
   0.2485576374892073    0.2494045974786997    0.1308038650566071 Na
   0.2506214042442810    0.4997258418152374    0.1309989454301269 Na
   0.2488627840120390    0.7493325106201401    0.1310039153953979 Na
   0.7456597240041745    0.9982737716641757    0.1306930612492917 Na
   0.7474217567499389    0.2501514596393919    0.1310334500426386 Na
   0.7523159435859600    0.5003161657046261    0.1312297767818642 Na
   0.7498767796900531    0.7500676259536926    0.1310170959202050 Na
   0.2503099920765393    0.1244914308320312    0.1600698610624799 Na
   0.2479743261316013    0.3749115172199761    0.1601441064397441 Na
   0.2522883054387428    0.6267120031783067    0.1603629677827166 Na
   0.2505108287472643    0.8754795497863325    0.1604441336935985 Na
   0.7521219341944791    0.1249511131735101    0.1604575578439572 Na
   0.7499662284618795    0.3737722937143599    0.1599097533677720 Na
   0.7518148225116849    0.6247528922093699    0.1602992780981184 Na
   0.7511920039176349    0.8756375317177363    0.1605582823395959 Na
   0.9998992176921937    0.1246103975197398    0.1893747548112329 Na
   0.9984880909753667    0.3744909411204503    0.1893917134229371 Na
   0.0014060242199886    0.6255218376035220    0.1895310020523710 Na
   0.0005842666512985    0.8744122396657220    0.1893657804789599 Na
   0.4985574013960213    0.1237621567981691    0.1895675933007278 Na
   0.5011225684316373    0.3741981247357811    0.1894875025084537 Na
   0.4959323662436075    0.6235914880950840    0.1888724201098999 Na
   0.4990238037388784    0.8744650284410517    0.1893143677950627 Na
   0.2504447550009076    0.0021707240295492    0.1895099947071300 Na
   0.2511761353945345    0.2496921131942255    0.1895088906495576 Na
   0.2500407858402662    0.5000464589840967    0.1893409785679989 Na
   0.2495390233587139    0.7501476113410210    0.1893689434482122 Na
   0.7510805317425101    0.9999257844605245    0.1893886595421827 Na
   0.7505390039291240    0.2501423614075726    0.1893370841103647 Na
   0.7472658939618967    0.4995793252996840    0.1892070303581629 Na
   0.7499379745971655    0.7516240539667800    0.1894541996845680 Na
   0.9985077062727400    0.0014268149571778    0.2171839890353916 Na
   0.0000659892644177    0.0008390990089127    0.3884597900527419 Na
   0.0023152276593745    0.0000402203894291    0.5597473358801155 Na
   0.9993953494646285    0.0015420189936075    0.7306736890864277 Na
   0.9997338735310171    0.0007896124642935    0.9019944159245795 Na
   0.0006540103786264    0.4991796977941924    0.2446580272814426 Na
   0.0011771205517326    0.4988948897696245    0.4159096409465862 Na
   0.9998033764263037    0.4998438469520198    0.5871210714474694 Na
   0.0004220436280916    0.5000062312923095    0.7582321286435855 Na
   0.9988859275968985    0.4980129180850346    0.9290456952245402 Na
   0.0016682971612823    0.0013173426235408    0.2519166161975828 Na
   0.0029036238681048    0.0001995751711986    0.4227158983357385 Na
   0.9981134628623701    0.9986340425831756    0.5934452717124586 Na
   0.0002470424727991    0.9998255530178447    0.7649676644638528 Na
   0.9975853443206448    0.0006568937631653    0.9363061000925554 Na
   0.9964623770736073    0.4995380302107186    0.2788878549163291 Na
   0.9975650090967242    0.4992791163604062    0.4497522660305482 Na
   0.9995932663875398    0.4994515392509216    0.6212326567115291 Na
   0.0004578874609542    0.5002279878767008    0.7924190986789160 Na
   0.0008716291362907    0.5007338767975602    0.9635651826896368 Na
   0.9989972903492603    0.0000103439329368    0.2854916128701056 Na
   0.0032685353303657    0.0003928545229107    0.4568167870756319 Na
   0.9977535298663743    0.9996477688269567    0.6279169394194704 Na
   0.0027429875415100    0.0007519681665819    0.7996260551346588 Na
   0.9999814033733703    0.0000101895209249    0.9704352110887149 Na
   0.9994771349495977    0.5004041018535331    0.3129675537522509 Na
   0.9984499779955180    0.4989153712325854    0.4842754378297022 Na
   0.9986231477117693    0.4986092389362640    0.6553178174471839 Na
   0.0008418125581613    0.5006314357888264    0.8263967803748333 Na
   0.0005134007266849    0.4990446204661069    0.9978389521066598 Na
   0.0000523892420402    0.0009934169939437    0.3199003792778339 Na
   0.0037498660383378    0.0001544696482574    0.4912719307374706 Na
   0.0000010806362239    0.9999835839854041    0.6623373625705035 Na
   0.9976231543104889    0.9989579923965038    0.8335073754544811 Na
   0.9991946591419533    0.9989657678355531    0.0047477740302924 Na
   0.9999923426893681    0.4999111547623651    0.3474156958620270 Na
   0.9988958348692411    0.4995827775772639    0.5186356467740653 Na
   0.0008467947058498    0.4994101404122656    0.6898097738475143 Na
   0.9994396190669992    0.4984334293852284    0.8609225321223439 Na
   0.0015586348693514    0.5003321921535230    0.0324059788094486 Na
   0.9997418263309941    0.9979675306215028    0.1016371233076716 Sb
   0.9980177358497032    0.2494620878142007    0.1019054263463006 Sb
   0.9991870575800641    0.4991627187761951    0.1015002251037147 Sb
   0.0014364169952722    0.7509086078041518    0.1020524357679767 Sb
   0.4980410293620579    0.9991179708074638    0.1015586898799684 Sb
   0.4976141999703396    0.2481475654702145    0.1018261881322341 Sb
   0.4999679671062888    0.4991118797847383    0.1020057422587467 Sb
   0.4972340006922350    0.7493139497174253    0.1016911815948320 Sb
   0.0017970107236252    0.0019882945633963    0.1601977473377852 Sb
   0.0005414410719425    0.2497762656643494    0.1602394425538340 Sb
   0.0000530049948940    0.5001365731930000    0.1598513955612982 Sb
   0.0031977631143187    0.7523241683983247    0.1605764941528209 Sb
   0.5027644256411251    0.0005921914632417    0.1602879387809812 Sb
   0.4981300302150705    0.2500729733218509    0.1601534379648281 Sb
   0.4998040255754694    0.4994007839528901    0.1600375606847228 Sb
   0.4965921315768801    0.7495957577440254    0.1601565772435404 Sb
   0.9990331703389427    0.9986113259201084    0.1377051150362756 S
   0.0021185934790810    0.2509147617169866    0.1381072417985361 S
   0.9999397335301922    0.4998891386766889    0.1381474613448937 S
   0.0022524392966060    0.7505175094015252    0.1384419770078066 S
   0.4996967046604092    0.9998227301083058    0.1380733190639200 S
   0.4997629881887996    0.2501995011530809    0.1381694414940675 S
   0.4985385354779551    0.4989310115062927    0.1378199561622849 S
   0.4966237689842137    0.7485904743752915    0.1381904832058560 S
   0.1892943294561503    0.0951065024590398    0.1236970747358655 S
   0.1895671376347193    0.3457604531008721    0.1239089772337603 S
   0.1893368201131360    0.5947026210875850    0.1240322826396117 S
   0.1876016715525162    0.8446231882941201    0.1240023707523067 S
   0.6881633742494873    0.0936817725127226    0.1237183355767260 S
   0.6882048980571419    0.3443900435975594    0.1240428813838785 S
   0.6879002419138490    0.5946563463256463    0.1238539507759848 S
   0.6863635255119674    0.8446631339915982    0.1236968371634035 S
   0.3126173948661761    0.0009222617060813    0.1019199545765052 S
   0.3117238371723308    0.2509744060983549    0.1015998739519309 S
   0.3106375943203460    0.5002295904571216    0.1016069845235317 S
   0.3089619803395289    0.7485897409419449    0.1017740204872912 S
   0.8119265931784211    0.9998547823090516    0.1021090415605136 S
   0.8110582676448087    0.2492359292951591    0.1018633409660559 S
   0.8116319215655526    0.4989020050933044    0.1019544196787163 S
   0.8098472777515344    0.7496590440088505    0.1017729898794956 S
   0.9999689438945280    0.1554296967986467    0.1018701260005928 S
   0.0013523725011300    0.4064305757888683    0.1018799299617404 S
   0.9970034936265596    0.6540366903684239    0.1018049332325951 S
   0.0036483964417145    0.9075485561545302    0.1022405678098414 S
   0.4996625389401523    0.1554136557095333    0.1019866646277467 S
   0.4999700510994884    0.4054557865038759    0.1018767670979727 S
   0.5018705837592091    0.6545397846412556    0.1021617739124706 S
   0.4989752486314322    0.9050239340533154    0.1021221948368560 S
   0.9995248818025705    0.0002129808150146    0.1963112728792392 S
   0.9998718015830437    0.2495298443079519    0.1964571895273283 S
   0.0002020543840438    0.5014368172369490    0.1962798615410175 S
   0.0001938982104896    0.7499990423943330    0.1966632639045146 S
   0.4998998371350897    0.0008515108800372    0.1965464426364213 S
   0.4974040850955503    0.2496169505019791    0.1959985876220862 S
   0.5006796929494608    0.4994815890416765    0.1962817229265420 S
   0.4990530824457247    0.7503723806349220    0.1961899121551339 S
   0.1884984926367755    0.0948001454552096    0.1821201189074524 S
   0.1896007553648763    0.3442439651922470    0.1823589239667998 S
   0.1882729353870657    0.5941518493885740    0.1826198695670839 S
   0.1909910747957630    0.8436281833535507    0.1824359763112848 S
   0.6900831698143740    0.0946711508753747    0.1820789377503212 S
   0.6902516358822485    0.3450355305186973    0.1822997776995677 S
   0.6902536805007012    0.5953476283431579    0.1820804665205271 S
   0.6905900540320209    0.8451196128409036    0.1826661768163624 S
   0.3104780761068744    0.9991485127832983    0.1602084906516777 S
   0.3091927781449966    0.2486991823196661    0.1601270615970556 S
   0.3108634461713046    0.4995098150524317    0.1601886059657570 S
   0.3081242543465882    0.7489727696432318    0.1598026694919698 S
   0.8100011322992342    0.9988558640692994    0.1602226504676465 S
   0.8069559059887984    0.2495913305017636    0.1598130772766295 S
   0.8109091991139262    0.5007554828308302    0.1601496369471284 S
   0.8084871580771810    0.7500099270669598    0.1600008554718885 S
   0.0018871281262389    0.1552547971637517    0.1601249616426212 S
   0.0010608456061513    0.4056308256451355    0.1603333443874091 S
   0.0004279413219840    0.6557394000016477    0.1603264417367523 S
   0.0017286317675331    0.9055511517084138    0.1598370103170516 S
   0.5002579543809226    0.1544136485863679    0.1599661268870112 S
   0.4990998080732450    0.4054238770738945    0.1602234847517746 S
   0.5020103335249673    0.6552782016924811    0.1601454620988108 S
   0.5019545889569813    0.9050854023648679    0.1605492988722903 S
