Li24 Ga16
1.0
   7.8472077168980610    0.0000000000000000    6.8249033975090523
   3.1092606721235070    7.2049412361941902    6.8249026994700905
   0.0000000000000000    0.0000000000000000   10.3999027000000002
Li Ga
24 16
direct
   0.2978720000000001    0.2978720000000000    0.2978720000000000 Li
   0.2978720000000001    0.2978720000000000    0.7978719999999999 Li
   0.2978720000000001    0.7978719999999999    0.2978720000000000 Li
   0.2978720000000001    0.7978719999999999    0.7978720000000001 Li
   0.7978720000000001    0.2978720000000000    0.2978720000000000 Li
   0.7978720000000001    0.2978720000000000    0.7978719999999999 Li
   0.7978720000000000    0.7978719999999999    0.2978720000000000 Li
   0.7978720000000000    0.7978719999999999    0.7978720000000002 Li
   0.2021280000000000    0.2021280000000000    0.2021280000000000 Li
   0.2021280000000000    0.2021280000000000    0.7021280000000001 Li
   0.2021280000000000    0.7021280000000000    0.2021280000000000 Li
   0.2021280000000000    0.7021280000000000    0.7021280000000003 Li
   0.7021280000000000    0.2021280000000000    0.2021280000000000 Li
   0.7021280000000000    0.2021280000000000    0.7021280000000001 Li
   0.7021280000000000    0.7021280000000000    0.2021279999999999 Li
   0.7021280000000000    0.7021280000000000    0.7021279999999999 Li
   0.0000000000000000    0.0000000000000000    0.0000000000000000 Li
   0.0000000000000000    0.0000000000000000    0.5000000000000000 Li
   0.0000000000000000    0.5000000000000000    0.0000000000000000 Li
   0.0000000000000000    0.5000000000000000    0.5000000000000001 Li
   0.5000000000000000    0.0000000000000000    0.9999999999999999 Li
   0.5000000000000000    0.0000000000000000    0.5000000000000000 Li
   0.5000000000000001    0.5000000000000000    0.0000000000000000 Li
   0.5000000000000001    0.5000000000000000    0.5000000000000000 Li
   0.1000230000000000    0.1000230000000000    0.1000230000000000 Ga
   0.1000230000000000    0.1000230000000000    0.6000230000000001 Ga
   0.1000229999999999    0.6000230000000000    0.1000230000000000 Ga
   0.1000229999999999    0.6000230000000000    0.6000230000000002 Ga
   0.6000230000000000    0.1000230000000000    0.1000230000000000 Ga
   0.6000230000000000    0.1000230000000000    0.6000230000000001 Ga
   0.6000230000000001    0.6000230000000000    0.1000230000000001 Ga
   0.6000230000000001    0.6000230000000000    0.6000230000000000 Ga
   0.3999770000000000    0.3999770000000000    0.3999770000000000 Ga
   0.3999770000000000    0.3999770000000000    0.8999769999999999 Ga
   0.3999769999999999    0.8999769999999999    0.3999770000000001 Ga
   0.3999769999999999    0.8999769999999999    0.8999770000000002 Ga
   0.8999769999999999    0.3999770000000000    0.3999770000000001 Ga
   0.8999769999999999    0.3999770000000000    0.8999770000000000 Ga
   0.8999770000000001    0.8999769999999999    0.3999770000000000 Ga
   0.8999770000000001    0.8999769999999999    0.8999770000000002 Ga
