Na36                                    
   1.00000000000000     
    11.1722875500000001    0.0000000300000000    0.0000000000000000
    -5.5861391999999981    9.7248895500000003    0.0000000000000000
     0.0000000000000000    0.0000000000000000   12.4925770600000003
   Na
    36
Direct
  0.4208800238679296  0.8252115460685090  0.2667337633372681
  0.9803499668342663  0.4877415395900299  0.2061099205293256
  0.9166847565716837  0.9853713015171373  0.5873084536782495
  0.2559483131919856  0.0002169143203871  0.0458313755458953
  0.1189637106118938  0.3320261112226379  0.4016688443720248
  0.7642464037110470  0.2509238741627514  0.3625424891069720
  0.7077289920431246  0.0321197544205091  0.0297984021792173
  0.5902533256995455  0.5820096762263977  0.2589495655664604
  0.9460390899628147  0.4156166113169460  0.9248684539721559
  0.3232603456480047  0.2249344655500502  0.2805186462427681
  0.8507871705297557  0.0218163030264110  0.2968914114145453
  0.3612104790960196  0.6473248475713691  0.8070705007072524
  0.6177461975578707  0.0787890887293511  0.5809137362616775
  0.2064294079421062  0.0977509000442257  0.5944217910648218
  0.1582711915039961  0.6442189393700393  0.5035461765941452
  0.7354749970935617  0.6508809285170739  0.7661332962945837
  0.2838108961797380  0.5160890501999870  0.1715188656119497
  0.7120648435959529  0.7339600775655906  0.0179817149142141
  0.9664199639629920  0.6165709285699920  0.7474893192542278
  0.8348305354409782  0.6050558350060069  0.5053611608939185
  0.5758916306058710  0.1729216641045742  0.1338600334554809
  0.2178347493395482  0.9724329790899875  0.3847036771991196
  0.7229273703323656  0.0068303894863394  0.7625475059051314
  0.5468017459762612  0.3120822373897288  0.4601826332045501
  0.5025159785372181  0.6751999631413559  0.4746731541227293
  0.0113734937771683  0.7434104706261287  0.9670439886290146
  0.3069518542063354  0.2743997558498601  0.8724289888986799
  0.2941530576741161  0.8861723008475916  0.7334159266882695
  0.9625014261097891  0.7688414865117459  0.2831831589955968
  0.0184494810792535  0.0131567908570867  0.8624130061007146
  0.3603218933366931  0.8199786535527487  0.0035356328457546
  0.3978587717786262  0.4341015976915811  0.6451751828547279
  0.0165112980616728  0.3185289538015763  0.6934795416688583
  0.0941300684574853  0.1494708857808913  0.0560641867365438
  0.6360911622818610  0.2791842674368649  0.7881873121423286
  0.5842854074004681  0.4246589108365317  0.0234481830108362
 
 -0.95585142E-03  0.26562971E-02  0.53202947E-02
  0.50125514E-03 -0.58941754E-02 -0.55157250E-02
 -0.10392073E-01  0.58668491E-02  0.38030034E-02
 -0.39690469E-02 -0.13483790E-01 -0.12695248E-02
 -0.87853863E-03 -0.39525417E-03 -0.18778535E-02
  0.73001648E-03  0.11512818E-02  0.54767372E-02
  0.62449861E-04 -0.12370503E-02 -0.54627809E-02
  0.18422592E-02  0.34342861E-02 -0.59658102E-02
 -0.29020034E-02  0.46537934E-03  0.75335623E-02
  0.21489832E-02  0.72537101E-03 -0.82547797E-02
 -0.24782208E-02  0.36883606E-02  0.11809768E-02
  0.18842414E-02  0.22482117E-02  0.52392153E-03
  0.59443195E-02 -0.37053949E-03 -0.11689346E-02
  0.69529619E-02 -0.97865216E-03 -0.33756858E-02
  0.42114923E-02 -0.17703160E-02 -0.52702188E-02
 -0.22308696E-02 -0.29376511E-02  0.37319000E-02
  0.29508121E-02 -0.11031744E-01 -0.51038112E-02
  0.11298315E-02  0.52906185E-02  0.99826878E-02
 -0.68938596E-03  0.30235371E-02 -0.28510048E-02
  0.20245217E-02 -0.65637867E-02  0.29702274E-02
  0.78862188E-02 -0.10800101E-03  0.23477845E-02
  0.23162293E-02  0.42785343E-02 -0.38669789E-03
 -0.33539585E-02 -0.52059197E-02 -0.42719543E-02
 -0.47687132E-02  0.10626188E-02 -0.62272048E-02
 -0.33006129E-02  0.40485648E-02 -0.50391205E-03
  0.36079151E-02 -0.64462369E-03  0.12985035E-02
 -0.56281375E-02 -0.86859428E-03  0.23915443E-02
  0.61587258E-02  0.55448252E-02  0.28476613E-02
 -0.29630027E-02  0.30910338E-02  0.41194366E-02
 -0.20642311E-02 -0.77094473E-02  0.57539719E-02
 -0.94147640E-04 -0.17529467E-02  0.27586220E-02
  0.52236800E-02  0.58925144E-02 -0.62646741E-03
 -0.72567328E-03  0.31395376E-02  0.64610674E-02
 -0.78944294E-02  0.29469969E-02 -0.32124737E-02
  0.50303253E-02  0.16158746E-02 -0.45751549E-02
 -0.53173426E-02  0.78179943E-03 -0.25819083E-02
 
           1
   2.00000000000000     
  0.18715608E+01 -0.28523862E-02  0.10998365E-17  0.00000000E+00
  0.42098206E+00  0.82575783E+00  0.26758552E+00
  0.97983361E+00  0.48652936E+00  0.20522688E+00
  0.91542771E+00  0.98657787E+00  0.58791730E+00
  0.25385127E+00  0.99744387E+00  0.45628131E-01
  0.11876580E+00  0.33194482E+00  0.40136821E+00
  0.76449547E+00  0.25116064E+00  0.36341929E+00
  0.70761297E+00  0.31865345E-01  0.28923838E-01
  0.59093626E+00  0.58271596E+00  0.25799447E+00
  0.94556744E+00  0.41571232E+00  0.92607454E+00
  0.32371963E+00  0.22508364E+00  0.27919710E+00
  0.85072280E+00  0.22574843E-01  0.29708048E+00
  0.36177897E+00  0.64778721E+00  0.80715438E+00
  0.61877221E+00  0.78712884E-01  0.58072660E+00
  0.20757345E+00  0.97549633E-01  0.59388136E+00
  0.15884307E+00  0.64385486E+00  0.50270244E+00
  0.73477356E+00  0.65027678E+00  0.76673076E+00
  0.28320475E+00  0.51382029E+00  0.17070177E+00
  0.71281113E+00  0.73504813E+00  0.19579894E-01
  0.96660746E+00  0.61719274E+00  0.74703289E+00
  0.83451801E+00  0.60370594E+00  0.50583668E+00
  0.57729227E+00  0.17289945E+00  0.13423590E+00
  0.21868934E+00  0.97331289E+00  0.38464177E+00
  0.72179164E+00  0.57597512E-02  0.76186359E+00
  0.54605735E+00  0.31230077E+00  0.45918569E+00
  0.50234143E+00  0.67603258E+00  0.47459248E+00
  0.11953077E-01  0.74327790E+00  0.96725187E+00
  0.30585502E+00  0.27422112E+00  0.87281186E+00
  0.29582573E+00  0.88731264E+00  0.73387182E+00
  0.96228885E+00  0.76947718E+00  0.28384266E+00
  0.17287200E-01  0.11571282E-01  0.86333419E+00
  0.36012479E+00  0.81961815E+00  0.39772746E-02
  0.39939981E+00  0.43531344E+00  0.64507489E+00
  0.16704227E-01  0.31917462E+00  0.69451393E+00
  0.93019888E-01  0.15007696E+00  0.55549886E-01
  0.63715782E+00  0.27951658E+00  0.78745485E+00
  0.58341392E+00  0.42481969E+00  0.23034832E-01
  0.90774402E-04  0.52294867E-03  0.84387210E-03
 -0.51304283E-03 -0.12172665E-02 -0.87632278E-03
 -0.12157696E-02  0.12374824E-02  0.63011544E-03
 -0.21160176E-02 -0.27995417E-02 -0.21703170E-03
 -0.20444257E-03 -0.81891553E-04 -0.31083968E-03
  0.23785784E-03  0.23389687E-03  0.87571639E-03
 -0.13896973E-03 -0.25658646E-03 -0.86999020E-03
  0.66829037E-03  0.70527961E-03 -0.96053108E-03
 -0.47531605E-03  0.11916152E-03  0.11812518E-02
  0.45210743E-03  0.11202934E-03 -0.12934390E-02
 -0.58531586E-04  0.77675085E-03  0.19314803E-03
  0.56788895E-03  0.47991125E-03  0.87146049E-04
  0.10493900E-02 -0.62550212E-04 -0.15810903E-03
  0.11073349E-02 -0.22364922E-03 -0.55700727E-03
  0.56168859E-03 -0.36467045E-03 -0.84052992E-03
 -0.65579530E-03 -0.61186124E-03  0.60108807E-03
 -0.60656456E-03 -0.22548599E-02 -0.79750258E-03
  0.74470333E-03  0.10545554E-02  0.15934945E-02
  0.15144755E-03  0.62476043E-03 -0.43059183E-03
 -0.30364088E-03 -0.13499318E-02  0.47500956E-03
  0.14028562E-02 -0.29131849E-04  0.35784829E-03
  0.83800616E-03  0.90968225E-03 -0.74164805E-04
 -0.11243173E-02 -0.10448737E-02 -0.71861046E-03
 -0.73354555E-03  0.21239462E-03 -0.10103131E-02
 -0.18593171E-03  0.81195478E-03 -0.90264839E-04
  0.59507888E-03 -0.11164318E-03  0.18817141E-03
 -0.11205309E-02 -0.20196649E-03  0.39187534E-03
  0.16643527E-02  0.11182356E-02  0.45421700E-03
 -0.19134626E-03  0.64438683E-03  0.68598336E-03
 -0.11255423E-02 -0.15483839E-02  0.96334651E-03
 -0.20644170E-03 -0.33688778E-03  0.44292512E-03
  0.15385598E-02  0.12143806E-02 -0.93289155E-04
  0.18672384E-03  0.64185796E-03  0.10434226E-02
 -0.10834182E-02  0.57506384E-03 -0.56773467E-03
  0.10759445E-02  0.33475647E-03 -0.73190444E-03
 -0.87384089E-03  0.16620672E-03 -0.41045502E-03
  0.00000000E+00  0.00000000E+00  0.00000000E+00
  0.00000000E+00  0.00000000E+00  0.00000000E+00
  0.00000000E+00  0.00000000E+00  0.00000000E+00
  0.00000000E+00  0.00000000E+00  0.00000000E+00
  0.00000000E+00  0.00000000E+00  0.00000000E+00
  0.00000000E+00  0.00000000E+00  0.00000000E+00
  0.00000000E+00  0.00000000E+00  0.00000000E+00
  0.00000000E+00  0.00000000E+00  0.00000000E+00
  0.00000000E+00  0.00000000E+00  0.00000000E+00
  0.00000000E+00  0.00000000E+00  0.00000000E+00
  0.00000000E+00  0.00000000E+00  0.00000000E+00
  0.00000000E+00  0.00000000E+00  0.00000000E+00
  0.00000000E+00  0.00000000E+00  0.00000000E+00
  0.00000000E+00  0.00000000E+00  0.00000000E+00
  0.00000000E+00  0.00000000E+00  0.00000000E+00
  0.00000000E+00  0.00000000E+00  0.00000000E+00
  0.00000000E+00  0.00000000E+00  0.00000000E+00
  0.00000000E+00  0.00000000E+00  0.00000000E+00
  0.00000000E+00  0.00000000E+00  0.00000000E+00
  0.00000000E+00  0.00000000E+00  0.00000000E+00
  0.00000000E+00  0.00000000E+00  0.00000000E+00
  0.00000000E+00  0.00000000E+00  0.00000000E+00
  0.00000000E+00  0.00000000E+00  0.00000000E+00
  0.00000000E+00  0.00000000E+00  0.00000000E+00
  0.00000000E+00  0.00000000E+00  0.00000000E+00
  0.00000000E+00  0.00000000E+00  0.00000000E+00
  0.00000000E+00  0.00000000E+00  0.00000000E+00
  0.00000000E+00  0.00000000E+00  0.00000000E+00
  0.00000000E+00  0.00000000E+00  0.00000000E+00
  0.00000000E+00  0.00000000E+00  0.00000000E+00
  0.00000000E+00  0.00000000E+00  0.00000000E+00
  0.00000000E+00  0.00000000E+00  0.00000000E+00
  0.00000000E+00  0.00000000E+00  0.00000000E+00
  0.00000000E+00  0.00000000E+00  0.00000000E+00
  0.00000000E+00  0.00000000E+00  0.00000000E+00
  0.00000000E+00  0.00000000E+00  0.00000000E+00
