   36   36    1    2
  0.3770304E+02  0.1117229E-08  0.1121510E-08  0.1249258E-08  0.2000000E-14
   800.000000000000     
  CAR 
 unknown system                          
    252      4    168
 
  0.0000000E+00  0.0000000E+00  0.0000000E+00  0.2500000E+00
      1        -25.100153      -25.097777   1.000000   1.000000
      2        -25.077721      -25.076298   1.000000   1.000000
      3        -25.040701      -25.038808   1.000000   1.000000
      4        -24.986718      -24.982563   1.000000   1.000000
      5        -24.972802      -24.974028   1.000000   1.000000
      6        -24.948071      -24.947775   1.000000   1.000000
      7        -24.941876      -24.940260   1.000000   1.000000
      8        -24.939396      -24.937395   1.000000   1.000000
      9        -24.936803      -24.937203   1.000000   1.000000
     10        -24.930825      -24.932989   1.000000   1.000000
     11        -24.930330      -24.927106   1.000000   1.000000
     12        -24.921037      -24.916166   1.000000   1.000000
     13        -24.911903      -24.915026   1.000000   1.000000
     14        -24.886185      -24.885570   1.000000   1.000000
     15        -24.883678      -24.881443   1.000000   1.000000
     16        -24.878713      -24.879009   1.000000   1.000000
     17        -24.876941      -24.875368   1.000000   1.000000
     18        -24.873439      -24.869794   1.000000   1.000000
     19        -24.867123      -24.864297   1.000000   1.000000
     20        -24.866077      -24.863156   1.000000   1.000000
     21        -24.863718      -24.860512   1.000000   1.000000
     22        -24.862560      -24.859009   1.000000   1.000000
     23        -24.858641      -24.857997   1.000000   1.000000
     24        -24.856727      -24.856360   1.000000   1.000000
     25        -24.855744      -24.855496   1.000000   1.000000
     26        -24.852726      -24.849525   1.000000   1.000000
     27        -24.851530      -24.847918   1.000000   1.000000
     28        -24.847880      -24.846293   1.000000   1.000000
     29        -24.842120      -24.843825   1.000000   1.000000
     30        -24.841127      -24.839442   1.000000   1.000000
     31        -24.840207      -24.839242   1.000000   1.000000
     32        -24.837287      -24.836208   1.000000   1.000000
     33        -24.834898      -24.835340   1.000000   1.000000
     34        -24.830599      -24.831127   1.000000   1.000000
     35        -24.826520      -24.826103   1.000000   1.000000
     36        -24.825046      -24.824989   1.000000   1.000000
     37        -24.823877      -24.820876   1.000000   1.000000
     38        -24.821457      -24.820271   1.000000   1.000000
     39        -24.818184      -24.818466   1.000000   1.000000
     40        -24.815972      -24.815498   1.000000   1.000000
     41        -24.814875      -24.814719   1.000000   1.000000
     42        -24.813223      -24.811798   1.000000   1.000000
     43        -24.812509      -24.811541   1.000000   1.000000
     44        -24.812032      -24.810820   1.000000   1.000000
     45        -24.809508      -24.806609   1.000000   1.000000
     46        -24.807405      -24.805961   1.000000   1.000000
     47        -24.806488      -24.803287   1.000000   1.000000
     48        -24.803427      -24.802727   1.000000   1.000000
     49        -24.801399      -24.801607   1.000000   1.000000
     50        -24.799349      -24.798502   1.000000   1.000000
     51        -24.796818      -24.796826   1.000000   1.000000
     52        -24.796319      -24.795154   1.000000   1.000000
     53        -24.793164      -24.791134   1.000000   1.000000
     54        -24.792706      -24.789452   1.000000   1.000000
     55        -24.791486      -24.789119   1.000000   1.000000
     56        -24.788688      -24.788612   1.000000   1.000000
     57        -24.787773      -24.787979   1.000000   1.000000
     58        -24.785271      -24.781118   1.000000   1.000000
     59        -24.783179      -24.780347   1.000000   1.000000
     60        -24.779265      -24.779221   1.000000   1.000000
     61        -24.778909      -24.778116   1.000000   1.000000
     62        -24.777686      -24.776905   1.000000   1.000000
     63        -24.775475      -24.774541   1.000000   1.000000
     64        -24.773687      -24.772090   1.000000   1.000000
     65        -24.771522      -24.769604   1.000000   1.000000
     66        -24.771285      -24.767967   1.000000   1.000000
     67        -24.769928      -24.767861   1.000000   1.000000
     68        -24.767879      -24.765399   1.000000   1.000000
     69        -24.765320      -24.764507   1.000000   1.000000
     70        -24.763950      -24.764102   1.000000   1.000000
     71        -24.763344      -24.762311   1.000000   1.000000
     72        -24.758777      -24.758227   1.000000   1.000000
     73        -24.756925      -24.756161   1.000000   1.000000
     74        -24.756279      -24.754904   1.000000   1.000000
     75        -24.754915      -24.751862   1.000000   1.000000
     76        -24.746918      -24.747766   1.000000   1.000000
     77        -24.745720      -24.745753   1.000000   1.000000
     78        -24.744447      -24.745075   1.000000   1.000000
     79        -24.742356      -24.742714   1.000000   1.000000
     80        -24.736140      -24.736228   1.000000   1.000000
     81        -24.735650      -24.732097   1.000000   1.000000
     82        -24.733478      -24.730182   1.000000   1.000000
     83        -24.732375      -24.729352   1.000000   1.000000
     84        -24.727047      -24.727566   1.000000   1.000000
     85        -24.725333      -24.724525   1.000000   1.000000
     86        -24.723782      -24.720322   1.000000   1.000000
     87        -24.720697      -24.716534   1.000000   1.000000
     88        -24.717241      -24.715014   1.000000   1.000000
     89        -24.715502      -24.713998   1.000000   1.000000
     90        -24.714337      -24.712832   1.000000   1.000000
     91        -24.709380      -24.708463   1.000000   1.000000
     92        -24.707915      -24.707482   1.000000   1.000000
     93        -24.707440      -24.705819   1.000000   1.000000
     94        -24.704601      -24.704964   1.000000   1.000000
     95        -24.704158      -24.702177   1.000000   1.000000
     96        -24.700740      -24.701201   1.000000   1.000000
     97        -24.697573      -24.694721   1.000000   1.000000
     98        -24.689154      -24.687657   1.000000   1.000000
     99        -24.687985      -24.685988   1.000000   1.000000
    100        -24.684897      -24.682251   1.000000   1.000000
    101        -24.682210      -24.680269   1.000000   1.000000
    102        -24.681960      -24.678761   1.000000   1.000000
    103        -24.671997      -24.669156   1.000000   1.000000
    104        -24.670547      -24.667412   1.000000   1.000000
    105        -24.665846      -24.663833   1.000000   1.000000
    106        -24.640536      -24.635651   1.000000   1.000000
    107        -24.627597      -24.622395   1.000000   1.000000
    108        -24.621706      -24.616512   1.000000   1.000000
    109         -2.989663       -2.967489   1.000000   1.000000
    110         -2.056319       -2.021774   1.000000   1.000000
    111         -1.975178       -1.956932   1.000000   1.000000
    112         -1.510520       -1.487680   1.000000   1.000000
    113         -1.421961       -1.400861   1.000000   1.000000
    114         -1.381938       -1.357028   1.000000   1.000000
    115         -1.321812       -1.306065   1.000000   1.000000
    116         -1.275773       -1.250098   1.000000   1.000000
    117         -1.184932       -1.164756   1.000000   1.000000
    118         -0.614072       -0.577722   1.000000   1.000000
    119         -0.542632       -0.511757   1.000000   1.000000
    120         -0.483676       -0.462743   1.000000   1.000000
    121         -0.428383       -0.415741   1.000000   1.000000
    122         -0.405055       -0.389269   1.000000   1.000000
    123         -0.391475       -0.360642   1.000000   1.000000
    124         -0.363235       -0.342409   1.000000   1.000000
    125         -0.348025       -0.323629   1.000000   1.000000
    126         -0.293724       -0.270166   1.000000   1.000000
    127         -0.275127       -0.249874   1.000000   1.000000
    128         -0.185921       -0.173782   1.000000   1.000000
    129         -0.125443       -0.098572   1.000000   1.000000
    130          0.825466        0.844176   0.000379   0.000140
    131          0.922359        0.943191   0.000001   0.000000
    132          1.611472        1.641925   0.000000   0.000000
    133          1.689237        1.704644   0.000000   0.000000
    134          1.714992        1.730448   0.000000   0.000000
    135          1.736037        1.774074   0.000000   0.000000
    136          1.797687        1.822039   0.000000   0.000000
    137          1.848213        1.871308   0.000000   0.000000
    138          2.090211        2.111683   0.000000   0.000000
    139          2.149758        2.175077   0.000000   0.000000
    140          2.193157        2.218102   0.000000   0.000000
    141          2.231058        2.255147   0.000000   0.000000
    142          2.317609        2.339701   0.000000   0.000000
    143          2.332872        2.357460   0.000000   0.000000
    144          2.382836        2.402009   0.000000   0.000000
    145          2.406910        2.432307   0.000000   0.000000
    146          2.447093        2.479356   0.000000   0.000000
    147          2.478085        2.499614   0.000000   0.000000
    148          2.538436        2.565051   0.000000   0.000000
    149          2.562258        2.586802   0.000000   0.000000
    150          2.578635        2.607977   0.000000   0.000000
    151          2.632525        2.660359   0.000000   0.000000
    152          2.670984        2.686977   0.000000   0.000000
    153          2.689096        2.711187   0.000000   0.000000
    154          2.738569        2.763184   0.000000   0.000000
    155          2.798463        2.816881   0.000000   0.000000
    156          2.861416        2.873314   0.000000   0.000000
    157          2.863548        2.882243   0.000000   0.000000
    158          2.927447        2.947990   0.000000   0.000000
    159          2.947477        2.969231   0.000000   0.000000
    160          2.992805        3.012007   0.000000   0.000000
    161          3.058720        3.081613   0.000000   0.000000
    162          3.271231        3.284867   0.000000   0.000000
    163          3.313806        3.329044   0.000000   0.000000
    164          3.340074        3.352782   0.000000   0.000000
    165          3.395594        3.427622   0.000000   0.000000
    166          3.425339        3.448292   0.000000   0.000000
    167          3.517345        3.526986   0.000000   0.000000
    168          4.080762        4.094318   0.000000   0.000000
 
  0.5000000E+00  0.5092509E-16  0.0000000E+00  0.2500000E+00
      1        -25.100144      -25.097767   1.000000   1.000000
      2        -25.077731      -25.076308   1.000000   1.000000
      3        -25.040705      -25.038812   1.000000   1.000000
      4        -24.986737      -24.982584   1.000000   1.000000
      5        -24.972802      -24.974027   1.000000   1.000000
      6        -24.948087      -24.947793   1.000000   1.000000
      7        -24.941874      -24.940250   1.000000   1.000000
      8        -24.939384      -24.937388   1.000000   1.000000
      9        -24.936805      -24.937211   1.000000   1.000000
     10        -24.930819      -24.932988   1.000000   1.000000
     11        -24.930326      -24.927103   1.000000   1.000000
     12        -24.921041      -24.916170   1.000000   1.000000
     13        -24.911904      -24.915027   1.000000   1.000000
     14        -24.886170      -24.885445   1.000000   1.000000
     15        -24.883658      -24.881533   1.000000   1.000000
     16        -24.878396      -24.879121   1.000000   1.000000
     17        -24.877035      -24.875077   1.000000   1.000000
     18        -24.873632      -24.869982   1.000000   1.000000
     19        -24.867367      -24.864244   1.000000   1.000000
     20        -24.865991      -24.863329   1.000000   1.000000
     21        -24.863646      -24.860443   1.000000   1.000000
     22        -24.862621      -24.858949   1.000000   1.000000
     23        -24.858666      -24.858102   1.000000   1.000000
     24        -24.856711      -24.856489   1.000000   1.000000
     25        -24.855847      -24.855480   1.000000   1.000000
     26        -24.852820      -24.849593   1.000000   1.000000
     27        -24.851366      -24.847792   1.000000   1.000000
     28        -24.847779      -24.846187   1.000000   1.000000
     29        -24.842109      -24.843791   1.000000   1.000000
     30        -24.841127      -24.839448   1.000000   1.000000
     31        -24.840128      -24.839207   1.000000   1.000000
     32        -24.837269      -24.836146   1.000000   1.000000
     33        -24.835254      -24.835695   1.000000   1.000000
     34        -24.829762      -24.830553   1.000000   1.000000
     35        -24.826997      -24.826138   1.000000   1.000000
     36        -24.825225      -24.825256   1.000000   1.000000
     37        -24.823691      -24.820972   1.000000   1.000000
     38        -24.821611      -24.820306   1.000000   1.000000
     39        -24.818323      -24.818565   1.000000   1.000000
     40        -24.815861      -24.815620   1.000000   1.000000
     41        -24.814804      -24.814399   1.000000   1.000000
     42        -24.813386      -24.812194   1.000000   1.000000
     43        -24.812567      -24.811375   1.000000   1.000000
     44        -24.811814      -24.810571   1.000000   1.000000
     45        -24.809947      -24.806787   1.000000   1.000000
     46        -24.807202      -24.806182   1.000000   1.000000
     47        -24.806459      -24.803268   1.000000   1.000000
     48        -24.803418      -24.802814   1.000000   1.000000
     49        -24.801437      -24.801344   1.000000   1.000000
     50        -24.799316      -24.798549   1.000000   1.000000
     51        -24.796901      -24.796815   1.000000   1.000000
     52        -24.796243      -24.795124   1.000000   1.000000
     53        -24.793389      -24.791285   1.000000   1.000000
     54        -24.792381      -24.789233   1.000000   1.000000
     55        -24.791427      -24.789090   1.000000   1.000000
     56        -24.788670      -24.788546   1.000000   1.000000
     57        -24.787701      -24.787961   1.000000   1.000000
     58        -24.785126      -24.781131   1.000000   1.000000
     59        -24.783223      -24.780222   1.000000   1.000000
     60        -24.779236      -24.779238   1.000000   1.000000
     61        -24.778911      -24.778117   1.000000   1.000000
     62        -24.777805      -24.776875   1.000000   1.000000
     63        -24.775404      -24.774577   1.000000   1.000000
     64        -24.773753      -24.772052   1.000000   1.000000
     65        -24.771519      -24.769445   1.000000   1.000000
     66        -24.771257      -24.768055   1.000000   1.000000
     67        -24.769972      -24.767864   1.000000   1.000000
     68        -24.767677      -24.765511   1.000000   1.000000
     69        -24.765250      -24.764621   1.000000   1.000000
     70        -24.764067      -24.763936   1.000000   1.000000
     71        -24.763281      -24.762216   1.000000   1.000000
     72        -24.758865      -24.758303   1.000000   1.000000
     73        -24.757035      -24.756092   1.000000   1.000000
     74        -24.756143      -24.754927   1.000000   1.000000
     75        -24.754831      -24.751825   1.000000   1.000000
     76        -24.746860      -24.747704   1.000000   1.000000
     77        -24.745823      -24.745909   1.000000   1.000000
     78        -24.744463      -24.745036   1.000000   1.000000
     79        -24.742376      -24.742729   1.000000   1.000000
     80        -24.736383      -24.736264   1.000000   1.000000
     81        -24.735631      -24.732468   1.000000   1.000000
     82        -24.733516      -24.729857   1.000000   1.000000
     83        -24.732061      -24.729137   1.000000   1.000000
     84        -24.727193      -24.727661   1.000000   1.000000
     85        -24.725555      -24.724747   1.000000   1.000000
     86        -24.723520      -24.720238   1.000000   1.000000
     87        -24.720739      -24.716544   1.000000   1.000000
     88        -24.717234      -24.714995   1.000000   1.000000
     89        -24.715501      -24.714030   1.000000   1.000000
     90        -24.714352      -24.712830   1.000000   1.000000
     91        -24.709372      -24.708449   1.000000   1.000000
     92        -24.707938      -24.707494   1.000000   1.000000
     93        -24.707424      -24.705813   1.000000   1.000000
     94        -24.704620      -24.704975   1.000000   1.000000
     95        -24.704140      -24.702165   1.000000   1.000000
     96        -24.700749      -24.701221   1.000000   1.000000
     97        -24.697575      -24.694722   1.000000   1.000000
     98        -24.689154      -24.687674   1.000000   1.000000
     99        -24.688003      -24.685988   1.000000   1.000000
    100        -24.684899      -24.682253   1.000000   1.000000
    101        -24.682258      -24.680282   1.000000   1.000000
    102        -24.681915      -24.678752   1.000000   1.000000
    103        -24.671983      -24.669148   1.000000   1.000000
    104        -24.670573      -24.667432   1.000000   1.000000
    105        -24.665850      -24.663838   1.000000   1.000000
    106        -24.640537      -24.635652   1.000000   1.000000
    107        -24.627600      -24.622398   1.000000   1.000000
    108        -24.621708      -24.616515   1.000000   1.000000
    109         -2.627952       -2.605137   1.000000   1.000000
    110         -2.537498       -2.514837   1.000000   1.000000
    111         -1.829251       -1.798517   1.000000   1.000000
    112         -1.753999       -1.728650   1.000000   1.000000
    113         -1.646823       -1.624417   1.000000   1.000000
    114         -1.588138       -1.568751   1.000000   1.000000
    115         -1.565192       -1.539143   1.000000   1.000000
    116         -1.504617       -1.488111   1.000000   1.000000
    117         -0.832684       -0.812221   1.000000   1.000000
    118         -0.821906       -0.793812   1.000000   1.000000
    119         -0.780400       -0.750227   1.000000   1.000000
    120         -0.664298       -0.646609   1.000000   1.000000
    121         -0.213794       -0.191260   1.000000   1.000000
    122         -0.159561       -0.136495   1.000000   1.000000
    123         -0.126130       -0.106376   1.000000   1.000000
    124         -0.085358       -0.069052   1.000000   1.000000
    125          0.558063        0.584393   0.660432   0.516464
    126          0.629891        0.671444   0.273535   0.117060
    127          0.696562        0.723534   0.061170   0.027023
    128          0.722747        0.747473   0.027725   0.011756
    129          0.748103        0.763057   0.011485   0.006470
    130          0.781592        0.798900   0.003002   0.001384
    131          0.796594        0.817418   0.001540   0.000569
    132          0.820573        0.848906   0.000485   0.000108
    133          0.861656        0.889715   0.000052   0.000009
    134          0.900810        0.920774   0.000005   0.000001
    135          1.168144        1.187251   0.000000   0.000000
    136          1.215346        1.235821   0.000000   0.000000
    137          1.233697        1.254119   0.000000   0.000000
    138          1.373223        1.396088   0.000000   0.000000
    139          1.496936        1.514715   0.000000   0.000000
    140          1.598458        1.622305   0.000000   0.000000
    141          1.640273        1.665268   0.000000   0.000000
    142          1.691034        1.704479   0.000000   0.000000
    143          1.894947        1.918759   0.000000   0.000000
    144          2.026239        2.044253   0.000000   0.000000
    145          2.030127        2.050558   0.000000   0.000000
    146          2.104225        2.125106   0.000000   0.000000
    147          2.127868        2.155249   0.000000   0.000000
    148          2.155111        2.178218   0.000000   0.000000
    149          2.260102        2.281566   0.000000   0.000000
    150          2.273324        2.300853   0.000000   0.000000
    151          2.896402        2.922706   0.000000   0.000000
    152          2.987995        3.011367   0.000000   0.000000
    153          3.027385        3.053535   0.000000   0.000000
    154          3.067812        3.085735   0.000000   0.000000
    155          3.088058        3.109143   0.000000   0.000000
    156          3.112553        3.143746   0.000000   0.000000
    157          3.163237        3.181497   0.000000   0.000000
    158          3.270299        3.294777   0.000000   0.000000
    159          3.356742        3.377394   0.000000   0.000000
    160          3.427059        3.446856   0.000000   0.000000
    161          3.535252        3.555469   0.000000   0.000000
    162          3.571899        3.597309   0.000000   0.000000
    163          3.685389        3.705619   0.000000   0.000000
    164          3.709736        3.728798   0.000000   0.000000
    165          3.714919        3.740449   0.000000   0.000000
    166          3.767086        3.793194   0.000000   0.000000
    167          4.290122        4.226783   0.000000   0.000000
    168          4.324010        4.356875   0.000000   0.000000
 
  0.5000000E+00  0.5000000E+00  0.0000000E+00  0.2500000E+00
      1        -25.100154      -25.097777   1.000000   1.000000
      2        -25.077721      -25.076299   1.000000   1.000000
      3        -25.040702      -25.038809   1.000000   1.000000
      4        -24.986738      -24.982585   1.000000   1.000000
      5        -24.972795      -24.974022   1.000000   1.000000
      6        -24.948072      -24.947777   1.000000   1.000000
      7        -24.941877      -24.940265   1.000000   1.000000
      8        -24.939394      -24.937412   1.000000   1.000000
      9        -24.936810      -24.937192   1.000000   1.000000
     10        -24.930891      -24.932974   1.000000   1.000000
     11        -24.930217      -24.927086   1.000000   1.000000
     12        -24.921014      -24.916139   1.000000   1.000000
     13        -24.911920      -24.915044   1.000000   1.000000
     14        -24.886169      -24.885431   1.000000   1.000000
     15        -24.883659      -24.881529   1.000000   1.000000
     16        -24.878371      -24.875757   1.000000   1.000000
     17        -24.873935      -24.875070   1.000000   1.000000
     18        -24.873475      -24.870002   1.000000   1.000000
     19        -24.867411      -24.864980   1.000000   1.000000
     20        -24.866035      -24.863390   1.000000   1.000000
     21        -24.863888      -24.863320   1.000000   1.000000
     22        -24.862681      -24.859711   1.000000   1.000000
     23        -24.860864      -24.858857   1.000000   1.000000
     24        -24.858667      -24.856433   1.000000   1.000000
     25        -24.856426      -24.855572   1.000000   1.000000
     26        -24.852741      -24.849515   1.000000   1.000000
     27        -24.851568      -24.848082   1.000000   1.000000
     28        -24.847673      -24.845932   1.000000   1.000000
     29        -24.841956      -24.843592   1.000000   1.000000
     30        -24.841125      -24.839657   1.000000   1.000000
     31        -24.840180      -24.839366   1.000000   1.000000
     32        -24.837570      -24.836141   1.000000   1.000000
     33        -24.834739      -24.835270   1.000000   1.000000
     34        -24.830530      -24.831112   1.000000   1.000000
     35        -24.826721      -24.825896   1.000000   1.000000
     36        -24.824677      -24.824935   1.000000   1.000000
     37        -24.823690      -24.820835   1.000000   1.000000
     38        -24.821795      -24.820487   1.000000   1.000000
     39        -24.818315      -24.818533   1.000000   1.000000
     40        -24.815601      -24.815574   1.000000   1.000000
     41        -24.815019      -24.814682   1.000000   1.000000
     42        -24.813128      -24.811917   1.000000   1.000000
     43        -24.812387      -24.811332   1.000000   1.000000
     44        -24.811929      -24.810595   1.000000   1.000000
     45        -24.809957      -24.806411   1.000000   1.000000
     46        -24.806942      -24.805480   1.000000   1.000000
     47        -24.806479      -24.803273   1.000000   1.000000
     48        -24.802552      -24.802675   1.000000   1.000000
     49        -24.801506      -24.801042   1.000000   1.000000
     50        -24.799412      -24.797561   1.000000   1.000000
     51        -24.796285      -24.796728   1.000000   1.000000
     52        -24.795213      -24.794672   1.000000   1.000000
     53        -24.794019      -24.792542   1.000000   1.000000
     54        -24.792600      -24.789403   1.000000   1.000000
     55        -24.791579      -24.788928   1.000000   1.000000
     56        -24.787798      -24.788095   1.000000   1.000000
     57        -24.786849      -24.787033   1.000000   1.000000
     58        -24.785290      -24.781894   1.000000   1.000000
     59        -24.783285      -24.780345   1.000000   1.000000
     60        -24.780119      -24.779477   1.000000   1.000000
     61        -24.779298      -24.777796   1.000000   1.000000
     62        -24.778084      -24.777545   1.000000   1.000000
     63        -24.775916      -24.774384   1.000000   1.000000
     64        -24.773238      -24.771420   1.000000   1.000000
     65        -24.771383      -24.769327   1.000000   1.000000
     66        -24.770631      -24.767961   1.000000   1.000000
     67        -24.769816      -24.767795   1.000000   1.000000
     68        -24.767605      -24.765730   1.000000   1.000000
     69        -24.765333      -24.764691   1.000000   1.000000
     70        -24.764049      -24.763867   1.000000   1.000000
     71        -24.763425      -24.762335   1.000000   1.000000
     72        -24.758815      -24.758246   1.000000   1.000000
     73        -24.756957      -24.757278   1.000000   1.000000
     74        -24.756281      -24.754904   1.000000   1.000000
     75        -24.756064      -24.751874   1.000000   1.000000
     76        -24.746932      -24.747778   1.000000   1.000000
     77        -24.745788      -24.745935   1.000000   1.000000
     78        -24.744274      -24.744812   1.000000   1.000000
     79        -24.742406      -24.742747   1.000000   1.000000
     80        -24.736372      -24.736216   1.000000   1.000000
     81        -24.735607      -24.732486   1.000000   1.000000
     82        -24.733518      -24.729871   1.000000   1.000000
     83        -24.732121      -24.729151   1.000000   1.000000
     84        -24.727179      -24.727657   1.000000   1.000000
     85        -24.725538      -24.724728   1.000000   1.000000
     86        -24.723532      -24.720245   1.000000   1.000000
     87        -24.720737      -24.716536   1.000000   1.000000
     88        -24.717192      -24.715002   1.000000   1.000000
     89        -24.715502      -24.714017   1.000000   1.000000
     90        -24.714333      -24.712777   1.000000   1.000000
     91        -24.709361      -24.708445   1.000000   1.000000
     92        -24.707935      -24.707500   1.000000   1.000000
     93        -24.707430      -24.705784   1.000000   1.000000
     94        -24.704636      -24.705001   1.000000   1.000000
     95        -24.704111      -24.702116   1.000000   1.000000
     96        -24.700749      -24.701242   1.000000   1.000000
     97        -24.697575      -24.694724   1.000000   1.000000
     98        -24.689154      -24.687672   1.000000   1.000000
     99        -24.688002      -24.685988   1.000000   1.000000
    100        -24.684899      -24.682253   1.000000   1.000000
    101        -24.682226      -24.680286   1.000000   1.000000
    102        -24.681947      -24.678750   1.000000   1.000000
    103        -24.672068      -24.669220   1.000000   1.000000
    104        -24.670533      -24.667400   1.000000   1.000000
    105        -24.665855      -24.663842   1.000000   1.000000
    106        -24.640530      -24.635645   1.000000   1.000000
    107        -24.627595      -24.622393   1.000000   1.000000
    108        -24.621709      -24.616514   1.000000   1.000000
    109         -2.664719       -2.644119   1.000000   1.000000
    110         -2.481646       -2.456617   1.000000   1.000000
    111         -1.860315       -1.820818   1.000000   1.000000
    112         -1.782759       -1.760255   1.000000   1.000000
    113         -1.677079       -1.658916   1.000000   1.000000
    114         -1.582772       -1.570587   1.000000   1.000000
    115         -1.556275       -1.531263   1.000000   1.000000
    116         -1.419092       -1.396496   1.000000   1.000000
    117         -0.857044       -0.826957   1.000000   1.000000
    118         -0.801194       -0.781226   1.000000   1.000000
    119         -0.763370       -0.743346   1.000000   1.000000
    120         -0.723205       -0.702516   1.000000   1.000000
    121         -0.207759       -0.183653   1.000000   1.000000
    122         -0.179931       -0.157517   1.000000   1.000000
    123         -0.137509       -0.113745   1.000000   1.000000
    124         -0.059142       -0.040546   1.000000   1.000000
    125          0.553219        0.584989   0.685147   0.513105
    126          0.592018        0.629484   0.473466   0.275452
    127          0.688909        0.718564   0.075387   0.031714
    128          0.743600        0.767709   0.013544   0.005368
    129          0.758633        0.784016   0.007700   0.002703
    130          0.796297        0.813742   0.001561   0.000682
    131          0.815941        0.836754   0.000612   0.000210
    132          0.825514        0.843882   0.000378   0.000143
    133          0.853710        0.875402   0.000082   0.000023
    134          0.916009        0.939450   0.000002   0.000000
    135          1.139830        1.154745   0.000000   0.000000
    136          1.225780        1.247593   0.000000   0.000000
    137          1.305534        1.327710   0.000000   0.000000
    138          1.382851        1.403169   0.000000   0.000000
    139          1.504545        1.524754   0.000000   0.000000
    140          1.515488        1.538141   0.000000   0.000000
    141          1.689911        1.707589   0.000000   0.000000
    142          1.703036        1.725588   0.000000   0.000000
    143          1.890546        1.912819   0.000000   0.000000
    144          1.984643        2.005881   0.000000   0.000000
    145          2.000651        2.020353   0.000000   0.000000
    146          2.090031        2.113350   0.000000   0.000000
    147          2.092881        2.116996   0.000000   0.000000
    148          2.205876        2.224693   0.000000   0.000000
    149          2.215289        2.238903   0.000000   0.000000
    150          2.394251        2.420347   0.000000   0.000000
    151          2.873079        2.897704   0.000000   0.000000
    152          2.903994        2.930527   0.000000   0.000000
    153          2.957530        2.972550   0.000000   0.000000
    154          3.036239        3.062813   0.000000   0.000000
    155          3.072050        3.092527   0.000000   0.000000
    156          3.161605        3.192769   0.000000   0.000000
    157          3.168154        3.193353   0.000000   0.000000
    158          3.301809        3.320236   0.000000   0.000000
    159          3.385354        3.405083   0.000000   0.000000
    160          3.467994        3.487799   0.000000   0.000000
    161          3.530403        3.550902   0.000000   0.000000
    162          3.592877        3.617127   0.000000   0.000000
    163          3.633710        3.656686   0.000000   0.000000
    164          3.641629        3.666093   0.000000   0.000000
    165          3.729061        3.750816   0.000000   0.000000
    166          3.827706        3.845257   0.000000   0.000000
    167          4.220064        4.269533   0.000000   0.000000
    168          4.326177        4.425176   0.000000   0.000000
 
  0.5541550E-24  0.5000000E+00  0.0000000E+00  0.2500000E+00
      1        -25.100145      -25.097768   1.000000   1.000000
      2        -25.077730      -25.076308   1.000000   1.000000
      3        -25.040706      -25.038812   1.000000   1.000000
      4        -24.986719      -24.982567   1.000000   1.000000
      5        -24.972799      -24.974025   1.000000   1.000000
      6        -24.948086      -24.947791   1.000000   1.000000
      7        -24.941881      -24.940257   1.000000   1.000000
      8        -24.939382      -24.937407   1.000000   1.000000
      9        -24.936819      -24.937203   1.000000   1.000000
     10        -24.930898      -24.932983   1.000000   1.000000
     11        -24.930229      -24.927087   1.000000   1.000000
     12        -24.921019      -24.916142   1.000000   1.000000
     13        -24.911922      -24.915046   1.000000   1.000000
     14        -24.886158      -24.885528   1.000000   1.000000
     15        -24.883702      -24.881463   1.000000   1.000000
     16        -24.878712      -24.875712   1.000000   1.000000
     17        -24.873846      -24.875362   1.000000   1.000000
     18        -24.873346      -24.869831   1.000000   1.000000
     19        -24.867103      -24.864776   1.000000   1.000000
     20        -24.866033      -24.863473   1.000000   1.000000
     21        -24.863958      -24.863135   1.000000   1.000000
     22        -24.862542      -24.859849   1.000000   1.000000
     23        -24.861028      -24.858846   1.000000   1.000000
     24        -24.858644      -24.856401   1.000000   1.000000
     25        -24.856251      -24.855393   1.000000   1.000000
     26        -24.852876      -24.849623   1.000000   1.000000
     27        -24.851507      -24.848082   1.000000   1.000000
     28        -24.847759      -24.846023   1.000000   1.000000
     29        -24.842027      -24.843621   1.000000   1.000000
     30        -24.841147      -24.839692   1.000000   1.000000
     31        -24.840249      -24.839461   1.000000   1.000000
     32        -24.837594      -24.836178   1.000000   1.000000
     33        -24.834823      -24.835297   1.000000   1.000000
     34        -24.829772      -24.830556   1.000000   1.000000
     35        -24.827007      -24.825997   1.000000   1.000000
     36        -24.825189      -24.825171   1.000000   1.000000
     37        -24.823422      -24.820917   1.000000   1.000000
     38        -24.821763      -24.820453   1.000000   1.000000
     39        -24.818202      -24.818468   1.000000   1.000000
     40        -24.815833      -24.815574   1.000000   1.000000
     41        -24.814988      -24.814809   1.000000   1.000000
     42        -24.813128      -24.811824   1.000000   1.000000
     43        -24.812714      -24.811341   1.000000   1.000000
     44        -24.811536      -24.810579   1.000000   1.000000
     45        -24.809745      -24.806155   1.000000   1.000000
     46        -24.807190      -24.805636   1.000000   1.000000
     47        -24.806423      -24.803187   1.000000   1.000000
     48        -24.802577      -24.802716   1.000000   1.000000
     49        -24.801488      -24.801211   1.000000   1.000000
     50        -24.799399      -24.797659   1.000000   1.000000
     51        -24.796262      -24.796776   1.000000   1.000000
     52        -24.795345      -24.794672   1.000000   1.000000
     53        -24.794046      -24.792511   1.000000   1.000000
     54        -24.792643      -24.789224   1.000000   1.000000
     55        -24.791594      -24.788956   1.000000   1.000000
     56        -24.787836      -24.788250   1.000000   1.000000
     57        -24.786966      -24.787186   1.000000   1.000000
     58        -24.785432      -24.781732   1.000000   1.000000
     59        -24.783253      -24.780474   1.000000   1.000000
     60        -24.780015      -24.779520   1.000000   1.000000
     61        -24.779311      -24.777826   1.000000   1.000000
     62        -24.778048      -24.777481   1.000000   1.000000
     63        -24.775828      -24.774352   1.000000   1.000000
     64        -24.773197      -24.771469   1.000000   1.000000
     65        -24.771429      -24.769471   1.000000   1.000000
     66        -24.770662      -24.768049   1.000000   1.000000
     67        -24.769712      -24.767618   1.000000   1.000000
     68        -24.767801      -24.765601   1.000000   1.000000
     69        -24.765285      -24.764463   1.000000   1.000000
     70        -24.764010      -24.764092   1.000000   1.000000
     71        -24.763196      -24.762180   1.000000   1.000000
     72        -24.758899      -24.758326   1.000000   1.000000
     73        -24.757043      -24.757238   1.000000   1.000000
     74        -24.756186      -24.754926   1.000000   1.000000
     75        -24.755987      -24.751823   1.000000   1.000000
     76        -24.746972      -24.747814   1.000000   1.000000
     77        -24.745788      -24.745884   1.000000   1.000000
     78        -24.744316      -24.744901   1.000000   1.000000
     79        -24.742399      -24.742750   1.000000   1.000000
     80        -24.736107      -24.736194   1.000000   1.000000
     81        -24.735641      -24.732103   1.000000   1.000000
     82        -24.733478      -24.730243   1.000000   1.000000
     83        -24.732462      -24.729349   1.000000   1.000000
     84        -24.727058      -24.727565   1.000000   1.000000
     85        -24.725335      -24.724535   1.000000   1.000000
     86        -24.723782      -24.720321   1.000000   1.000000
     87        -24.720683      -24.716515   1.000000   1.000000
     88        -24.717179      -24.715021   1.000000   1.000000
     89        -24.715506      -24.713998   1.000000   1.000000
     90        -24.714344      -24.712775   1.000000   1.000000
     91        -24.709336      -24.708432   1.000000   1.000000
     92        -24.707925      -24.707484   1.000000   1.000000
     93        -24.707445      -24.705801   1.000000   1.000000
     94        -24.704653      -24.705006   1.000000   1.000000
     95        -24.704100      -24.702113   1.000000   1.000000
     96        -24.700752      -24.701256   1.000000   1.000000
     97        -24.697579      -24.694727   1.000000   1.000000
     98        -24.689152      -24.687662   1.000000   1.000000
     99        -24.687991      -24.685987   1.000000   1.000000
    100        -24.684899      -24.682253   1.000000   1.000000
    101        -24.682425      -24.680344   1.000000   1.000000
    102        -24.681770      -24.678712   1.000000   1.000000
    103        -24.672034      -24.669197   1.000000   1.000000
    104        -24.670562      -24.667422   1.000000   1.000000
    105        -24.665858      -24.663847   1.000000   1.000000
    106        -24.640529      -24.635645   1.000000   1.000000
    107        -24.627599      -24.622398   1.000000   1.000000
    108        -24.621708      -24.616514   1.000000   1.000000
    109         -2.628131       -2.608202   1.000000   1.000000
    110         -2.546184       -2.519923   1.000000   1.000000
    111         -1.795486       -1.763934   1.000000   1.000000
    112         -1.753627       -1.731640   1.000000   1.000000
    113         -1.670646       -1.641736   1.000000   1.000000
    114         -1.618832       -1.595874   1.000000   1.000000
    115         -1.552933       -1.537210   1.000000   1.000000
    116         -1.477266       -1.460396   1.000000   1.000000
    117         -0.837720       -0.807057   1.000000   1.000000
    118         -0.773041       -0.747342   1.000000   1.000000
    119         -0.765623       -0.742871   1.000000   1.000000
    120         -0.710551       -0.691429   1.000000   1.000000
    121         -0.254101       -0.227805   1.000000   1.000000
    122         -0.155634       -0.132720   1.000000   1.000000
    123         -0.131815       -0.112385   1.000000   1.000000
    124         -0.036598       -0.024310   1.000000   1.000000
    125          0.562622        0.603408   0.636518   0.409967
    126          0.588396        0.617800   0.493885   0.333173
    127          0.665741        0.685145   0.133681   0.083246
    128          0.713257        0.731950   0.037445   0.020403
    129          0.740619        0.757061   0.015076   0.008184
    130          0.752869        0.777960   0.009607   0.003507
    131          0.767944        0.795509   0.005317   0.001618
    132          0.845878        0.865864   0.000128   0.000041
    133          0.850383        0.869854   0.000099   0.000032
    134          0.939532        0.967034   0.000000   0.000000
    135          1.127161        1.145492   0.000000   0.000000
    136          1.209028        1.230257   0.000000   0.000000
    137          1.280191        1.304176   0.000000   0.000000
    138          1.423169        1.450021   0.000000   0.000000
    139          1.460345        1.487891   0.000000   0.000000
    140          1.568233        1.589351   0.000000   0.000000
    141          1.581469        1.598731   0.000000   0.000000
    142          1.714696        1.729996   0.000000   0.000000
    143          1.921530        1.946988   0.000000   0.000000
    144          1.965366        1.990490   0.000000   0.000000
    145          2.059403        2.082894   0.000000   0.000000
    146          2.086020        2.102719   0.000000   0.000000
    147          2.184862        2.205386   0.000000   0.000000
    148          2.236549        2.262983   0.000000   0.000000
    149          2.263453        2.282093   0.000000   0.000000
    150          2.272696        2.292479   0.000000   0.000000
    151          2.919018        2.945772   0.000000   0.000000
    152          2.971445        2.993978   0.000000   0.000000
    153          3.025383        3.052066   0.000000   0.000000
    154          3.088116        3.109881   0.000000   0.000000
    155          3.127697        3.156771   0.000000   0.000000
    156          3.163539        3.194982   0.000000   0.000000
    157          3.210824        3.222678   0.000000   0.000000
    158          3.241447        3.260359   0.000000   0.000000
    159          3.353266        3.376168   0.000000   0.000000
    160          3.448973        3.464488   0.000000   0.000000
    161          3.495516        3.522059   0.000000   0.000000
    162          3.585684        3.606818   0.000000   0.000000
    163          3.607906        3.631165   0.000000   0.000000
    164          3.725403        3.745468   0.000000   0.000000
    165          3.742356        3.759865   0.000000   0.000000
    166          3.860716        3.882787   0.000000   0.000000
    167          4.261444        4.289253   0.000000   0.000000
    168          4.268802        4.356559   0.000000   0.000000
