       N       E                     dE             d eps       ncg     rms          rms(c)
DAV:   1     0.233546460475E+04    0.23355E+04   -0.13112E+05  3032   0.147E+03
DAV:   2     0.128695306036E+03   -0.22068E+04   -0.21698E+04  2688   0.422E+02
DAV:   3    -0.377990358289E+02   -0.16649E+03   -0.16159E+03  2984   0.146E+02
DAV:   4    -0.432729248775E+02   -0.54739E+01   -0.54134E+01  2928   0.233E+01
DAV:   5    -0.434063626748E+02   -0.13344E+00   -0.13340E+00  2872   0.383E+00    0.264E+01
RMM:   6    -0.448617745192E+02   -0.14554E+01   -0.38389E+00  2774   0.992E+00    0.109E+01
RMM:   7    -0.467639030538E+02   -0.19021E+01   -0.10787E+00  2688   0.390E+00    0.292E+00
RMM:   8    -0.478170094937E+02   -0.10531E+01   -0.29308E-01  2684   0.962E-01    0.144E+00
RMM:   9    -0.480560981052E+02   -0.23909E+00   -0.24343E-01  2256   0.627E-01    0.342E-01
RMM:  10    -0.480735287989E+02   -0.17431E-01   -0.21178E-02  1855   0.376E-01    0.132E-01
RMM:  11    -0.480778856438E+02   -0.43568E-02   -0.66189E-03  1852   0.174E-01    0.793E-02
RMM:  12    -0.480791780207E+02   -0.12924E-02   -0.36070E-03  1824   0.123E-01
      1 T=   800. E= -.44459883E+02 F= -.48079178E+02 E0= -.48029382E+02  EK= 0.36193E+01 SP= 0.00E+00 SK= 0.46E-13 mag=     -0.088
       N       E                     dE             d eps       ncg     rms          rms(c)
DAV:   1    -0.479940035715E+02    0.83882E-01   -0.47014E+01  3200   0.180E+01    0.333E-01
RMM:   2    -0.480535716312E+02   -0.59568E-01   -0.61662E-01  2833   0.273E+00    0.161E-01
RMM:   3    -0.480691634645E+02   -0.15592E-01   -0.16586E-01  2983   0.163E+00    0.636E-02
RMM:   4    -0.480750280714E+02   -0.58646E-02   -0.59488E-02  3193   0.805E-01    0.141E-01
RMM:   5    -0.480750866183E+02   -0.58547E-04   -0.13153E-03  1463   0.127E-01
      2 T=   798. E= -.44465454E+02 F= -.48075087E+02 E0= -.48025281E+02  EK= 0.36096E+01 SP= -.18E-06 SK= 0.80E-07 mag=     -0.049
       N       E                     dE             d eps       ncg     rms          rms(c)
DAV:   1    -0.480613369704E+02    0.13691E-01   -0.36296E-01  2440   0.300E+00    0.204E-01
RMM:   2    -0.480619541472E+02   -0.61718E-03   -0.88659E-03  2559   0.426E-01
      3 T=   792. E= -.44480540E+02 F= -.48061954E+02 E0= -.48012090E+02  EK= 0.35817E+01 SP= -.24E-03 SK= 0.28E-05 mag=     -0.009
       N       E                     dE             d eps       ncg     rms          rms(c)
DAV:   1    -0.480421458510E+02    0.19191E-01   -0.27459E-02  3344   0.126E+00    0.313E-01
RMM:   2    -0.480417334289E+02    0.41242E-03   -0.53371E-03  2031   0.362E-01
      4 T=   784. E= -.44494794E+02 F= -.48041733E+02 E0= -.47991752E+02  EK= 0.35483E+01 SP= -.14E-02 SK= 0.23E-04 mag=      0.017
       N       E                     dE             d eps       ncg     rms          rms(c)
DAV:   1    -0.480120041572E+02    0.30142E-01   -0.75694E-02  4016   0.158E+00    0.123E-01
RMM:   2    -0.480128263683E+02   -0.82221E-03   -0.52301E-03  2028   0.332E-01
      5 T=   777. E= -.44500233E+02 F= -.48012826E+02 E0= -.47962727E+02  EK= 0.35168E+01 SP= -.43E-02 SK= 0.98E-04 mag=      0.020
       N       E                     dE             d eps       ncg     rms          rms(c)
DAV:   1    -0.479752403654E+02    0.36764E-01   -0.10899E-01  3840   0.184E+00    0.198E-01
RMM:   2    -0.479764360760E+02   -0.11957E-02   -0.93853E-03  2246   0.427E-01
      6 T=   770. E= -.44500657E+02 F= -.47976436E+02 E0= -.47926181E+02  EK= 0.34853E+01 SP= -.98E-02 SK= 0.28E-03 mag=     -0.008
       N       E                     dE             d eps       ncg     rms          rms(c)
DAV:   1    -0.479312553744E+02    0.43985E-01   -0.41965E-02  3960   0.131E+00    0.103E-01
RMM:   2    -0.479323459873E+02   -0.10906E-02   -0.68321E-03  2081   0.379E-01
      7 T=   763. E= -.44500238E+02 F= -.47932346E+02 E0= -.47881883E+02  EK= 0.34500E+01 SP= -.19E-01 SK= 0.66E-03 mag=     -0.050
       N       E                     dE             d eps       ncg     rms          rms(c)
DAV:   1    -0.478797464562E+02    0.51509E-01   -0.31324E-02  3856   0.119E+00    0.130E-01
RMM:   2    -0.478806448704E+02   -0.89841E-03   -0.53559E-03  2030   0.306E-01
      8 T=   753. E= -.44503112E+02 F= -.47880645E+02 E0= -.47829973E+02  EK= 0.34076E+01 SP= -.31E-01 SK= 0.14E-02 mag=     -0.072
       N       E                     dE             d eps       ncg     rms          rms(c)
DAV:   1    -0.478208944443E+02    0.58852E-01   -0.24060E-02  4000   0.117E+00    0.103E-01
RMM:   2    -0.478219008588E+02   -0.10064E-02   -0.64073E-03  2054   0.374E-01
      9 T=   744. E= -.44504527E+02 F= -.47821901E+02 E0= -.47771052E+02  EK= 0.33645E+01 SP= -.50E-01 SK= 0.25E-02 mag=     -0.052
       N       E                     dE             d eps       ncg     rms          rms(c)
DAV:   1    -0.477550752382E+02    0.65819E-01   -0.27715E-02  3600   0.107E+00    0.126E-01
RMM:   2    -0.477560089497E+02   -0.93371E-03   -0.52553E-03  2026   0.308E-01
     10 T=   734. E= -.44503999E+02 F= -.47756009E+02 E0= -.47704966E+02  EK= 0.33217E+01 SP= -.74E-01 SK= 0.44E-02 mag=      0.011
       N       E                     dE             d eps       ncg     rms          rms(c)
DAV:   1    -0.476821351205E+02    0.72940E-01   -0.24048E-02  3848   0.111E+00    0.762E-02
RMM:   2    -0.476830341398E+02   -0.89902E-03   -0.45086E-03  2024   0.255E-01
     11 T=   725. E= -.44502023E+02 F= -.47683034E+02 E0= -.47631745E+02  EK= 0.32796E+01 SP= -.11E+00 SK= 0.72E-02 mag=      0.087
       N       E                     dE             d eps       ncg     rms          rms(c)
DAV:   1    -0.476025949343E+02    0.79540E-01   -0.18775E-02  3736   0.102E+00    0.886E-02
RMM:   2    -0.476034732334E+02   -0.87830E-03   -0.48949E-03  2027   0.271E-01
     12 T=   716. E= -.44498674E+02 F= -.47603473E+02 E0= -.47551946E+02  EK= 0.32396E+01 SP= -.15E+00 SK= 0.11E-01 mag=      0.118
       N       E                     dE             d eps       ncg     rms          rms(c)
DAV:   1    -0.475165576546E+02    0.86037E-01   -0.19388E-02  3376   0.105E+00    0.889E-02
RMM:   2    -0.475173908302E+02   -0.83318E-03   -0.46146E-03  2018   0.276E-01
     13 T=   707. E= -.44495846E+02 F= -.47517391E+02 E0= -.47465667E+02  EK= 0.32004E+01 SP= -.20E+00 SK= 0.17E-01 mag=      0.074
       N       E                     dE             d eps       ncg     rms          rms(c)
DAV:   1    -0.474239574412E+02    0.92600E-01   -0.16266E-02  3448   0.969E-01    0.722E-02
RMM:   2    -0.474248228496E+02   -0.86541E-03   -0.48728E-03  2031   0.276E-01
     14 T=   699. E= -.44492602E+02 F= -.47424823E+02 E0= -.47372908E+02  EK= 0.31637E+01 SP= -.26E+00 SK= 0.24E-01 mag=     -0.036
       N       E                     dE             d eps       ncg     rms          rms(c)
DAV:   1    -0.473251088435E+02    0.98849E-01   -0.18390E-02  3520   0.103E+00    0.786E-02
RMM:   2    -0.473260534770E+02   -0.94463E-03   -0.53800E-03  2030   0.296E-01
     15 T=   692. E= -.44488039E+02 F= -.47326053E+02 E0= -.47273979E+02  EK= 0.31313E+01 SP= -.33E+00 SK= 0.33E-01 mag=     -0.155
       N       E                     dE             d eps       ncg     rms          rms(c)
DAV:   1    -0.472205927291E+02    0.10452E+00   -0.16886E-02  3360   0.970E-01    0.732E-02
RMM:   2    -0.472215347315E+02   -0.94200E-03   -0.47798E-03  2030   0.275E-01
     16 T=   686. E= -.44483287E+02 F= -.47221535E+02 E0= -.47169325E+02  EK= 0.31032E+01 SP= -.41E+00 SK= 0.45E-01 mag=     -0.178
       N       E                     dE             d eps       ncg     rms          rms(c)
DAV:   1    -0.471110080938E+02    0.10958E+00   -0.17750E-02  3496   0.100E+00    0.702E-02
RMM:   2    -0.471118290632E+02   -0.82097E-03   -0.46426E-03  2027   0.275E-01
     17 T=   681. E= -.44479121E+02 F= -.47111829E+02 E0= -.47059395E+02  EK= 0.30796E+01 SP= -.51E+00 SK= 0.59E-01 mag=     -0.073
       N       E                     dE             d eps       ncg     rms          rms(c)
DAV:   1    -0.469957414691E+02    0.11527E+00   -0.13912E-02  3560   0.101E+00    0.727E-02
RMM:   2    -0.469965547923E+02   -0.81332E-03   -0.51465E-03  2022   0.285E-01
     18 T=   677. E= -.44474800E+02 F= -.46996555E+02 E0= -.46943967E+02  EK= 0.30613E+01 SP= -.61E+00 SK= 0.75E-01 mag=      0.106
       N       E                     dE             d eps       ncg     rms          rms(c)
DAV:   1    -0.468748337902E+02    0.12091E+00   -0.15831E-02  3224   0.998E-01    0.102E-01
RMM:   2    -0.468758237428E+02   -0.98995E-03   -0.49368E-03  2022   0.283E-01
     19 T=   674. E= -.44470012E+02 F= -.46875824E+02 E0= -.46823268E+02  EK= 0.30493E+01 SP= -.74E+00 SK= 0.95E-01 mag=      0.276
       N       E                     dE             d eps       ncg     rms          rms(c)
DAV:   1    -0.467489915723E+02    0.12584E+00   -0.15502E-02  3472   0.103E+00    0.103E-01
RMM:   2    -0.467502279372E+02   -0.12364E-02   -0.50812E-03  2027   0.291E-01
     20 T=   673. E= -.44464896E+02 F= -.46750228E+02 E0= -.46697681E+02  EK= 0.30442E+01 SP= -.88E+00 SK= 0.12E+00 mag=      0.313
       N       E                     dE             d eps       ncg     rms          rms(c)
DAV:   1    -0.466201336419E+02    0.12886E+00   -0.14476E-02  3320   0.977E-01    0.728E-02
RMM:   2    -0.466210439261E+02   -0.91028E-03   -0.52383E-03  2032   0.303E-01
     21 T=   673. E= -.44460378E+02 F= -.46621044E+02 E0= -.46568201E+02  EK= 0.30469E+01 SP= -.10E+01 SK= 0.14E+00 mag=      0.158
       N       E                     dE             d eps       ncg     rms          rms(c)
DAV:   1    -0.464863252308E+02    0.13381E+00   -0.12691E-02  3144   0.985E-01    0.866E-02
RMM:   2    -0.464872518319E+02   -0.92660E-03   -0.52803E-03  2012   0.295E-01
     22 T=   676. E= -.44455294E+02 F= -.46487252E+02 E0= -.46434288E+02  EK= 0.30577E+01 SP= -.12E+01 SK= 0.17E+00 mag=     -0.148
       N       E                     dE             d eps       ncg     rms          rms(c)
DAV:   1    -0.463465688099E+02    0.13976E+00   -0.16646E-02  3512   0.107E+00    0.115E-01
RMM:   2    -0.463480827277E+02   -0.15139E-02   -0.55039E-03  2026   0.314E-01
     23 T=   680. E= -.44448682E+02 F= -.46348083E+02 E0= -.46295573E+02  EK= 0.30771E+01 SP= -.14E+01 SK= 0.19E+00 mag=     -0.467
       N       E                     dE             d eps       ncg     rms          rms(c)
DAV:   1    -0.462044518479E+02    0.14212E+00   -0.14807E-02  3432   0.977E-01    0.132E-01
RMM:   2    -0.462060669396E+02   -0.16151E-02   -0.47757E-03  2001   0.266E-01
     24 T=   686. E= -.44443096E+02 F= -.46206067E+02 E0= -.46153945E+02  EK= 0.31053E+01 SP= -.16E+01 SK= 0.22E+00 mag=     -0.549
       N       E                     dE             d eps       ncg     rms          rms(c)
DAV:   1    -0.460631939384E+02    0.14126E+00   -0.12261E-02  3000   0.104E+00    0.968E-02
RMM:   2    -0.460643107304E+02   -0.11168E-02   -0.59289E-03  2020   0.326E-01
     25 T=   695. E= -.44440308E+02 F= -.46064311E+02 E0= -.46011450E+02  EK= 0.31436E+01 SP= -.18E+01 SK= 0.25E+00 mag=     -0.285
       N       E                     dE             d eps       ncg     rms          rms(c)
DAV:   1    -0.459172101931E+02    0.14598E+00   -0.14800E-02  3424   0.979E-01    0.101E-01
RMM:   2    -0.459182630691E+02   -0.10529E-02   -0.56953E-03  2021   0.300E-01
     26 T=   706. E= -.44435304E+02 F= -.45918263E+02 E0= -.45865344E+02  EK= 0.31926E+01 SP= -.20E+01 SK= 0.28E+00 mag=      0.256
       N       E                     dE             d eps       ncg     rms          rms(c)
DAV:   1    -0.457635447438E+02    0.15367E+00   -0.15784E-02  3488   0.102E+00    0.165E-01
RMM:   2    -0.457661607664E+02   -0.26160E-02   -0.62286E-03  2000   0.295E-01    0.126E-01
RMM:   3    -0.457676336474E+02   -0.14729E-02   -0.18898E-03  1944   0.112E-01
     27 T=   719. E= -.44428926E+02 F= -.45767634E+02 E0= -.45715885E+02  EK= 0.32510E+01 SP= -.22E+01 SK= 0.30E+00 mag=      0.352
       N       E                     dE             d eps       ncg     rms          rms(c)
DAV:   1    -0.456202369566E+02    0.14592E+00   -0.30100E-02  3224   0.110E+00    0.124E-01
RMM:   2    -0.456215843501E+02   -0.13474E-02   -0.59999E-03  1980   0.326E-01
     28 T=   734. E= -.44426289E+02 F= -.45621584E+02 E0= -.45568624E+02  EK= 0.33226E+01 SP= -.25E+01 SK= 0.32E+00 mag=     -0.024
       N       E                     dE             d eps       ncg     rms          rms(c)
DAV:   1    -0.454661781811E+02    0.15406E+00   -0.53509E-02  3648   0.109E+00    0.152E-01
RMM:   2    -0.454684735495E+02   -0.22954E-02   -0.66591E-03  2009   0.277E-01    0.114E-01
RMM:   3    -0.454706889544E+02   -0.22154E-02   -0.24270E-03  1982   0.124E-01    0.820E-02
RMM:   4    -0.454720245470E+02   -0.13356E-02   -0.14854E-03  1824   0.825E-02
     29 T=   753. E= -.44421632E+02 F= -.45472025E+02 E0= -.45419206E+02  EK= 0.34044E+01 SP= -.27E+01 SK= 0.34E+00 mag=     -0.211
       N       E                     dE             d eps       ncg     rms          rms(c)
DAV:   1    -0.453216062587E+02    0.14908E+00   -0.15945E-02  3184   0.112E+00    0.162E-01
RMM:   2    -0.453230447934E+02   -0.14385E-02   -0.61127E-03  1960   0.312E-01
     30 T=   773. E= -.44417292E+02 F= -.45323045E+02 E0= -.45270091E+02  EK= 0.34975E+01 SP= -.29E+01 SK= 0.35E+00 mag=     -0.130
       N       E                     dE             d eps       ncg     rms          rms(c)
DAV:   1    -0.451732979213E+02    0.14831E+00   -0.35330E-02  3832   0.113E+00    0.138E-01
RMM:   2    -0.451750737708E+02   -0.17758E-02   -0.49598E-03  1994   0.252E-01
     31 T=   796. E= -.44412310E+02 F= -.45175074E+02 E0= -.45122338E+02  EK= 0.36019E+01 SP= -.32E+01 SK= 0.36E+00 mag=      0.173
       N       E                     dE             d eps       ncg     rms          rms(c)
DAV:   1    -0.450262077217E+02    0.14709E+00   -0.19055E-02  3376   0.118E+00    0.136E-01
RMM:   2    -0.450288160914E+02   -0.26084E-02   -0.69144E-03  2078   0.368E-01    0.112E-01
RMM:   3    -0.450303054977E+02   -0.14894E-02   -0.19891E-03  1979   0.142E-01
     32 T=   821. E= -.44410881E+02 F= -.45030305E+02 E0= -.44978054E+02  EK= 0.37139E+01 SP= -.34E+01 SK= 0.35E+00 mag=      0.243
       N       E                     dE             d eps       ncg     rms          rms(c)
DAV:   1    -0.448881565428E+02    0.14066E+00   -0.34680E-02  3512   0.111E+00    0.122E-01
RMM:   2    -0.448898677401E+02   -0.17112E-02   -0.49944E-03  1902   0.293E-01
     33 T=   848. E= -.44406932E+02 F= -.44889868E+02 E0= -.44837294E+02  EK= 0.38386E+01 SP= -.37E+01 SK= 0.34E+00 mag=      0.052
       N       E                     dE             d eps       ncg     rms          rms(c)
DAV:   1    -0.447423467302E+02    0.14581E+00   -0.37378E-02  3880   0.113E+00    0.194E-01
RMM:   2    -0.447467762303E+02   -0.44295E-02   -0.80253E-03  2007   0.264E-01    0.159E-01
RMM:   3    -0.447497500837E+02   -0.29739E-02   -0.28500E-03  1866   0.115E-01    0.130E-01
RMM:   4    -0.447545651493E+02   -0.48151E-02   -0.73843E-03  2057   0.127E-01    0.402E-02
RMM:   5    -0.447547265613E+02   -0.16141E-03   -0.46634E-04  1626   0.672E-02
     34 T=   877. E= -.44405012E+02 F= -.44754727E+02 E0= -.44702165E+02  EK= 0.39696E+01 SP= -.39E+01 SK= 0.32E+00 mag=     -0.035
       N       E                     dE             d eps       ncg     rms          rms(c)
DAV:   1    -0.446124461112E+02    0.14212E+00   -0.38078E-02  3384   0.109E+00    0.209E-01
RMM:   2    -0.446167148463E+02   -0.42687E-02   -0.89952E-03  1954   0.295E-01    0.161E-01
RMM:   3    -0.446193322058E+02   -0.26174E-02   -0.29613E-03  1843   0.122E-01    0.127E-01
RMM:   4    -0.446229642173E+02   -0.36320E-02   -0.52438E-03  1931   0.111E-01    0.557E-02
RMM:   5    -0.446232538144E+02   -0.28960E-03   -0.37104E-04  1612   0.599E-02
     35 T=   907. E= -.44404138E+02 F= -.44623254E+02 E0= -.44570844E+02  EK= 0.41024E+01 SP= -.42E+01 SK= 0.30E+00 mag=     -0.012
       N       E                     dE             d eps       ncg     rms          rms(c)
DAV:   1    -0.444971863467E+02    0.12578E+00   -0.19391E-02  3616   0.111E+00    0.788E-02
RMM:   2    -0.444986172230E+02   -0.14309E-02   -0.52328E-03  2018   0.278E-01
     36 T=   937. E= -.44400824E+02 F= -.44498617E+02 E0= -.44446400E+02  EK= 0.42396E+01 SP= -.44E+01 SK= 0.26E+00 mag=      0.090
       N       E                     dE             d eps       ncg     rms          rms(c)
DAV:   1    -0.443799991800E+02    0.11719E+00   -0.21744E-02  3880   0.116E+00    0.919E-02
RMM:   2    -0.443815571457E+02   -0.15580E-02   -0.58718E-03  2030   0.272E-01
     37 T=   967. E= -.44398830E+02 F= -.44381557E+02 E0= -.44329647E+02  EK= 0.43733E+01 SP= -.46E+01 SK= 0.22E+00 mag=      0.207
       N       E                     dE             d eps       ncg     rms          rms(c)
DAV:   1    -0.442710875548E+02    0.10891E+00   -0.18767E-02  3448   0.112E+00    0.781E-02
RMM:   2    -0.442727845416E+02   -0.16970E-02   -0.64384E-03  2061   0.303E-01
     38 T=   995. E= -.44395343E+02 F= -.44272785E+02 E0= -.44221164E+02  EK= 0.45015E+01 SP= -.48E+01 SK= 0.18E+00 mag=      0.230
       N       E                     dE             d eps       ncg     rms          rms(c)
DAV:   1    -0.441721196509E+02    0.98968E-01   -0.31614E-02  3744   0.125E+00    0.100E-01
RMM:   2    -0.441739471832E+02   -0.18275E-02   -0.66839E-03  2059   0.309E-01    0.736E-02
RMM:   3    -0.441745481275E+02   -0.60094E-03   -0.14738E-03  1962   0.113E-01
     39 T=  1021. E= -.44391507E+02 F= -.44174548E+02 E0= -.44122931E+02  EK= 0.46197E+01 SP= -.50E+01 SK= 0.14E+00 mag=      0.067
       N       E                     dE             d eps       ncg     rms          rms(c)
DAV:   1    -0.440841032797E+02    0.89844E-01   -0.24859E-02  3504   0.119E+00    0.713E-02
RMM:   2    -0.440856773604E+02   -0.15741E-02   -0.47979E-03  1943   0.270E-01
     40 T=  1044. E= -.44385026E+02 F= -.44085677E+02 E0= -.44034365E+02  EK= 0.47233E+01 SP= -.51E+01 SK= 0.96E-01 mag=     -0.222
       N       E                     dE             d eps       ncg     rms          rms(c)
DAV:   1    -0.439999524915E+02    0.84151E-01   -0.44868E-02  4160   0.130E+00    0.146E-01
RMM:   2    -0.440026937964E+02   -0.27413E-02   -0.63008E-03  2047   0.251E-01    0.118E-01
RMM:   3    -0.440058913471E+02   -0.31976E-02   -0.37412E-03  1824   0.126E-01    0.810E-02
RMM:   4    -0.440073583128E+02   -0.14670E-02   -0.20725E-03  1825   0.882E-02
     41 T=  1062. E= -.44379512E+02 F= -.44007358E+02 E0= -.43956180E+02  EK= 0.48043E+01 SP= -.52E+01 SK= 0.59E-01 mag=     -0.077
       N       E                     dE             d eps       ncg     rms          rms(c)
DAV:   1    -0.439333505831E+02    0.72541E-01   -0.22957E-02  2984   0.116E+00    0.134E-01
RMM:   2    -0.439359480145E+02   -0.25974E-02   -0.68227E-03  2043   0.300E-01    0.104E-01
RMM:   3    -0.439380216152E+02   -0.20736E-02   -0.41425E-03  1824   0.126E-01    0.684E-02
RMM:   4    -0.439389261812E+02   -0.90457E-03   -0.10571E-03  1686   0.851E-02
     42 T=  1073. E= -.44376935E+02 F= -.43938926E+02 E0= -.43888048E+02  EK= 0.48555E+01 SP= -.53E+01 SK= 0.30E-01 mag=      0.118
       N       E                     dE             d eps       ncg     rms          rms(c)
DAV:   1    -0.438788600272E+02    0.59162E-01   -0.33785E-02  4008   0.126E+00    0.101E-01
RMM:   2    -0.438805097318E+02   -0.16497E-02   -0.44986E-03  2017   0.244E-01
     43 T=  1078. E= -.44372004E+02 F= -.43880510E+02 E0= -.43830128E+02  EK= 0.48790E+01 SP= -.54E+01 SK= 0.98E-02 mag=      0.253
       N       E                     dE             d eps       ncg     rms          rms(c)
DAV:   1    -0.438319231310E+02    0.46937E-01   -0.23222E-02  3448   0.121E+00    0.710E-02
RMM:   2    -0.438335661644E+02   -0.16430E-02   -0.68202E-03  2043   0.284E-01
     44 T=  1076. E= -.44370965E+02 F= -.43833566E+02 E0= -.43783423E+02  EK= 0.48684E+01 SP= -.54E+01 SK= 0.66E-03 mag=      0.254
       N       E                     dE             d eps       ncg     rms          rms(c)
DAV:   1    -0.437955809667E+02    0.36342E-01   -0.24138E-02  3768   0.122E+00    0.510E-02
RMM:   2    -0.437970168443E+02   -0.14359E-02   -0.59228E-03  2077   0.299E-01
     45 T=  1067. E= -.44368381E+02 F= -.43797017E+02 E0= -.43746919E+02  EK= 0.48284E+01 SP= -.54E+01 SK= 0.21E-02 mag=      0.096
       N       E                     dE             d eps       ncg     rms          rms(c)
DAV:   1    -0.437663908568E+02    0.29190E-01   -0.36802E-02  3944   0.127E+00    0.712E-02
RMM:   2    -0.437681007317E+02   -0.17099E-02   -0.66341E-03  2036   0.307E-01
     46 T=  1052. E= -.44362891E+02 F= -.43768101E+02 E0= -.43718371E+02  EK= 0.47595E+01 SP= -.54E+01 SK= 0.13E-01 mag=     -0.151
       N       E                     dE             d eps       ncg     rms          rms(c)
DAV:   1    -0.437453285913E+02    0.21062E-01   -0.20917E-02  3480   0.121E+00    0.897E-02
RMM:   2    -0.437472959606E+02   -0.19674E-02   -0.62612E-03  2006   0.296E-01    0.715E-02
RMM:   3    -0.437480989633E+02   -0.80300E-03   -0.18814E-03  1932   0.113E-01
     47 T=  1030. E= -.44360167E+02 F= -.43748099E+02 E0= -.43698966E+02  EK= 0.46610E+01 SP= -.53E+01 SK= 0.32E-01 mag=     -0.168
       N       E                     dE             d eps       ncg     rms          rms(c)
DAV:   1    -0.437350234958E+02    0.12272E-01   -0.33813E-02  3968   0.127E+00    0.878E-02
RMM:   2    -0.437367359176E+02   -0.17124E-02   -0.47877E-03  1952   0.275E-01
     48 T=  1004. E= -.44354399E+02 F= -.43736736E+02 E0= -.43687549E+02  EK= 0.45434E+01 SP= -.52E+01 SK= 0.56E-01 mag=      0.032
       N       E                     dE             d eps       ncg     rms          rms(c)
DAV:   1    -0.437263908788E+02    0.86326E-02   -0.41016E-02  4048   0.125E+00    0.132E-01
RMM:   2    -0.437285883085E+02   -0.21974E-02   -0.58341E-03  2026   0.253E-01    0.101E-01
RMM:   3    -0.437305664010E+02   -0.19781E-02   -0.22858E-03  1882   0.111E-01    0.728E-02
RMM:   4    -0.437315277783E+02   -0.96138E-03   -0.10629E-03  1733   0.726E-02
     49 T=   974. E= -.44349422E+02 F= -.43731528E+02 E0= -.43682721E+02  EK= 0.44062E+01 SP= -.51E+01 SK= 0.82E-01 mag=      0.097
       N       E                     dE             d eps       ncg     rms          rms(c)
DAV:   1    -0.437285659932E+02    0.20004E-02   -0.17990E-02  3040   0.114E+00    0.125E-01
RMM:   2    -0.437303847830E+02   -0.18188E-02   -0.56331E-03  1998   0.289E-01    0.871E-02
RMM:   3    -0.437312884714E+02   -0.90369E-03   -0.23954E-03  1824   0.114E-01
     50 T=   940. E= -.44345931E+02 F= -.43731288E+02 E0= -.43682724E+02  EK= 0.42536E+01 SP= -.50E+01 SK= 0.11E+00 mag=      0.016
       N       E                     dE             d eps       ncg     rms          rms(c)
DAV:   1    -0.437330313551E+02   -0.26466E-02   -0.24615E-02  3816   0.117E+00    0.115E-01
RMM:   2    -0.437346500729E+02   -0.16187E-02   -0.58135E-03  2011   0.264E-01
     51 T=   905. E= -.44340730E+02 F= -.43734650E+02 E0= -.43686523E+02  EK= 0.40940E+01 SP= -.48E+01 SK= 0.13E+00 mag=     -0.133
       N       E                     dE             d eps       ncg     rms          rms(c)
DAV:   1    -0.437416610022E+02   -0.86296E-02   -0.21879E-02  4072   0.120E+00    0.111E-01
RMM:   2    -0.437431455572E+02   -0.14846E-02   -0.48940E-03  1996   0.246E-01
     52 T=   868. E= -.44340218E+02 F= -.43743146E+02 E0= -.43695508E+02  EK= 0.39283E+01 SP= -.47E+01 SK= 0.15E+00 mag=     -0.259
       N       E                     dE             d eps       ncg     rms          rms(c)
DAV:   1    -0.437537263794E+02   -0.12065E-01   -0.19628E-02  3040   0.105E+00    0.756E-02
RMM:   2    -0.437552350913E+02   -0.15087E-02   -0.63110E-03  2019   0.310E-01
     53 T=   833. E= -.44337346E+02 F= -.43755235E+02 E0= -.43707876E+02  EK= 0.37676E+01 SP= -.45E+01 SK= 0.16E+00 mag=     -0.274
       N       E                     dE             d eps       ncg     rms          rms(c)
DAV:   1    -0.437674017786E+02   -0.13675E-01   -0.25522E-02  3800   0.119E+00    0.707E-02
RMM:   2    -0.437687223749E+02   -0.13206E-02   -0.65134E-03  2007   0.282E-01
     54 T=   799. E= -.44331854E+02 F= -.43768722E+02 E0= -.43721420E+02  EK= 0.36143E+01 SP= -.43E+01 SK= 0.16E+00 mag=     -0.142
       N       E                     dE             d eps       ncg     rms          rms(c)
DAV:   1    -0.437800747231E+02   -0.12673E-01   -0.16499E-02  3608   0.102E+00    0.109E-01
RMM:   2    -0.437820409387E+02   -0.19662E-02   -0.62192E-03  1997   0.283E-01    0.891E-02
RMM:   3    -0.437835329832E+02   -0.14920E-02   -0.25540E-03  1879   0.118E-01
     55 T=   766. E= -.44328478E+02 F= -.43783533E+02 E0= -.43736458E+02  EK= 0.34673E+01 SP= -.42E+01 SK= 0.16E+00 mag=      0.038
       N       E                     dE             d eps       ncg     rms          rms(c)
DAV:   1    -0.437984475983E+02   -0.16407E-01   -0.22703E-02  3632   0.104E+00    0.946E-02
RMM:   2    -0.437997584430E+02   -0.13108E-02   -0.46753E-03  1879   0.268E-01
     56 T=   737. E= -.44322311E+02 F= -.43799758E+02 E0= -.43753080E+02  EK= 0.33346E+01 SP= -.40E+01 SK= 0.15E+00 mag=      0.175
       N       E                     dE             d eps       ncg     rms          rms(c)
DAV:   1    -0.438123373836E+02   -0.13890E-01   -0.33703E-02  3960   0.109E+00    0.123E-01
RMM:   2    -0.438143539186E+02   -0.20165E-02   -0.56313E-03  2004   0.245E-01    0.983E-02
RMM:   3    -0.438155160342E+02   -0.11621E-02   -0.18820E-03  1873   0.100E-01
     57 T=   710. E= -.44316399E+02 F= -.43815516E+02 E0= -.43769010E+02  EK= 0.32132E+01 SP= -.38E+01 SK= 0.13E+00 mag=      0.093
       N       E                     dE             d eps       ncg     rms          rms(c)
DAV:   1    -0.438328509229E+02   -0.18497E-01   -0.20565E-02  3320   0.110E+00    0.886E-02
RMM:   2    -0.438339542290E+02   -0.11033E-02   -0.49214E-03  1953   0.271E-01
     58 T=   686. E= -.44313698E+02 F= -.43833954E+02 E0= -.43787612E+02  EK= 0.31050E+01 SP= -.37E+01 SK= 0.11E+00 mag=     -0.154
       N       E                     dE             d eps       ncg     rms          rms(c)
DAV:   1    -0.438461079561E+02   -0.13257E-01   -0.36655E-02  3792   0.104E+00    0.130E-01
RMM:   2    -0.438481135667E+02   -0.20056E-02   -0.58514E-03  2004   0.245E-01    0.102E-01
RMM:   3    -0.438500419550E+02   -0.19284E-02   -0.23645E-03  1952   0.113E-01    0.720E-02
RMM:   4    -0.438512595023E+02   -0.12175E-02   -0.15897E-03  1831   0.791E-02
     59 T=   666. E= -.44309811E+02 F= -.43851260E+02 E0= -.43805072E+02  EK= 0.30117E+01 SP= -.36E+01 SK= 0.91E-01 mag=     -0.129
       N       E                     dE             d eps       ncg     rms          rms(c)
DAV:   1    -0.438664692995E+02   -0.16427E-01   -0.11593E-02  2960   0.958E-01    0.119E-01
RMM:   2    -0.438676104786E+02   -0.11412E-02   -0.46450E-03  1934   0.279E-01
     60 T=   649. E= -.44303919E+02 F= -.43867610E+02 E0= -.43821538E+02  EK= 0.29349E+01 SP= -.34E+01 SK= 0.70E-01 mag=      0.109
       N       E                     dE             d eps       ncg     rms          rms(c)
DAV:   1    -0.438808465935E+02   -0.14377E-01   -0.27386E-02  3896   0.101E+00    0.129E-01
RMM:   2    -0.438822968917E+02   -0.14503E-02   -0.42654E-03  1994   0.224E-01
     61 T=   635. E= -.44296147E+02 F= -.43882297E+02 E0= -.43837012E+02  EK= 0.28743E+01 SP= -.33E+01 SK= 0.50E-01 mag=      0.420
       N       E                     dE             d eps       ncg     rms          rms(c)
DAV:   1    -0.438932070049E+02   -0.12360E-01   -0.15551E-02  2920   0.960E-01    0.146E-01
RMM:   2    -0.438958092837E+02   -0.26023E-02   -0.52480E-03  1998   0.283E-01    0.121E-01
RMM:   3    -0.438975000645E+02   -0.16908E-02   -0.19353E-03  1926   0.128E-01
     62 T=   625. E= -.44293080E+02 F= -.43897500E+02 E0= -.43852559E+02  EK= 0.28254E+01 SP= -.33E+01 SK= 0.32E-01 mag=      0.179
       N       E                     dE             d eps       ncg     rms          rms(c)
DAV:   1    -0.439104601206E+02   -0.14651E-01   -0.44709E-02  3168   0.981E-01    0.132E-01
RMM:   2    -0.439128178243E+02   -0.23577E-02   -0.61939E-03  1917   0.273E-01    0.108E-01
RMM:   3    -0.439137195056E+02   -0.90168E-03   -0.12925E-03  1724   0.100E-01
     63 T=   617. E= -.44290575E+02 F= -.43913720E+02 E0= -.43868399E+02  EK= 0.27932E+01 SP= -.32E+01 SK= 0.17E-01 mag=     -0.203
       N       E                     dE             d eps       ncg     rms          rms(c)
DAV:   1    -0.439239191827E+02   -0.11101E-01   -0.72912E-02  3144   0.104E+00    0.149E-01
RMM:   2    -0.439261945949E+02   -0.22754E-02   -0.72402E-03  1994   0.303E-01    0.112E-01
RMM:   3    -0.439276070633E+02   -0.14125E-02   -0.19437E-03  1994   0.126E-01
     64 T=   614. E= -.44286070E+02 F= -.43927607E+02 E0= -.43882640E+02  EK= 0.27769E+01 SP= -.31E+01 SK= 0.67E-02 mag=     -0.309
       N       E                     dE             d eps       ncg     rms          rms(c)
DAV:   1    -0.439425774367E+02   -0.16383E-01   -0.17169E-02  3208   0.100E+00    0.110E-01
RMM:   2    -0.439432742192E+02   -0.69678E-03   -0.46639E-03  1975   0.247E-01
     65 T=   614. E= -.44284177E+02 F= -.43943274E+02 E0= -.43897483E+02  EK= 0.27758E+01 SP= -.31E+01 SK= 0.11E-02 mag=     -0.098
       N       E                     dE             d eps       ncg     rms          rms(c)
DAV:   1    -0.439523547514E+02   -0.97773E-02   -0.28111E-02  3400   0.954E-01    0.107E-01
RMM:   2    -0.439535568493E+02   -0.12021E-02   -0.58137E-03  1992   0.259E-01
     66 T=   617. E= -.44277974E+02 F= -.43953557E+02 E0= -.43908180E+02  EK= 0.27896E+01 SP= -.31E+01 SK= 0.26E-03 mag=      0.292
       N       E                     dE             d eps       ncg     rms          rms(c)
DAV:   1    -0.439586299062E+02   -0.62752E-02   -0.14049E-02  3248   0.944E-01    0.166E-01
RMM:   2    -0.439612639493E+02   -0.26340E-02   -0.58462E-03  1994   0.281E-01    0.134E-01
RMM:   3    -0.439646532656E+02   -0.33893E-02   -0.38397E-03  1864   0.138E-01    0.801E-02
RMM:   4    -0.439661405557E+02   -0.14873E-02   -0.19148E-03  1830   0.101E-01
     67 T=   623. E= -.44276616E+02 F= -.43966141E+02 E0= -.43920492E+02  EK= 0.28168E+01 SP= -.31E+01 SK= 0.40E-02 mag=      0.169
       N       E                     dE             d eps       ncg     rms          rms(c)
DAV:   1    -0.439729349954E+02   -0.82817E-02   -0.21008E-02  3232   0.960E-01    0.132E-01
RMM:   2    -0.439743802378E+02   -0.14452E-02   -0.49205E-03  1851   0.223E-01
     68 T=   632. E= -.44270677E+02 F= -.43974380E+02 E0= -.43928931E+02  EK= 0.28599E+01 SP= -.32E+01 SK= 0.12E-01 mag=     -0.323
       N       E                     dE             d eps       ncg     rms          rms(c)
DAV:   1    -0.439671300534E+02    0.58049E-02   -0.30846E-02  3480   0.986E-01    0.238E-01
RMM:   2    -0.439731565681E+02   -0.60265E-02   -0.87417E-03  1922   0.263E-01    0.199E-01
RMM:   3    -0.439793416673E+02   -0.61851E-02   -0.48544E-03  1830   0.130E-01    0.152E-01
RMM:   4    -0.439860494823E+02   -0.67078E-02   -0.12235E-02  2094   0.156E-01    0.341E-02
RMM:   5    -0.439862615495E+02   -0.21207E-03   -0.81246E-04  1689   0.734E-02
     69 T=   645. E= -.44270337E+02 F= -.43986262E+02 E0= -.43940177E+02  EK= 0.29166E+01 SP= -.32E+01 SK= 0.23E-01 mag=     -0.031
       N       E                     dE             d eps       ncg     rms          rms(c)
DAV:   1    -0.439736220647E+02    0.12427E-01   -0.40236E-02  3160   0.925E-01    0.251E-01
RMM:   2    -0.439799937814E+02   -0.63717E-02   -0.13216E-02  1885   0.258E-01    0.206E-01
RMM:   3    -0.439854948347E+02   -0.55011E-02   -0.51573E-03  1827   0.120E-01    0.166E-01
RMM:   4    -0.439934927174E+02   -0.79979E-02   -0.15119E-02  2099   0.151E-01    0.572E-02
RMM:   5    -0.439938780802E+02   -0.38536E-03   -0.82070E-04  1713   0.740E-02
     70 T=   660. E= -.44269691E+02 F= -.43993878E+02 E0= -.43947694E+02  EK= 0.29844E+01 SP= -.33E+01 SK= 0.36E-01 mag=      0.068
       N       E                     dE             d eps       ncg     rms          rms(c)
DAV:   1    -0.439985687285E+02   -0.50760E-02   -0.17393E-02  3088   0.970E-01    0.879E-02
RMM:   2    -0.439994022126E+02   -0.83348E-03   -0.43023E-03  1970   0.245E-01
     71 T=   678. E= -.44265206E+02 F= -.43999402E+02 E0= -.43953021E+02  EK= 0.30686E+01 SP= -.34E+01 SK= 0.51E-01 mag=     -0.026
       N       E                     dE             d eps       ncg     rms          rms(c)
DAV:   1    -0.439982419874E+02    0.32674E-03   -0.17703E-02  3576   0.103E+00    0.129E-01
RMM:   2    -0.440007222409E+02   -0.24803E-02   -0.69697E-03  1969   0.252E-01    0.107E-01
RMM:   3    -0.440021787262E+02   -0.14565E-02   -0.20706E-03  1839   0.105E-01
     72 T=   700. E= -.44259560E+02 F= -.44002179E+02 E0= -.43955811E+02  EK= 0.31651E+01 SP= -.35E+01 SK= 0.65E-01 mag=     -0.094
       N       E                     dE             d eps       ncg     rms          rms(c)
DAV:   1    -0.440042322914E+02   -0.35101E-02   -0.39484E-02  3168   0.101E+00    0.107E-01
RMM:   2    -0.440059496287E+02   -0.17173E-02   -0.56896E-03  1914   0.277E-01
     73 T=   723. E= -.44257968E+02 F= -.44005950E+02 E0= -.43959120E+02  EK= 0.32714E+01 SP= -.36E+01 SK= 0.77E-01 mag=     -0.102
       N       E                     dE             d eps       ncg     rms          rms(c)
DAV:   1    -0.440006956229E+02    0.35367E-02   -0.55483E-02  3728   0.111E+00    0.139E-01
RMM:   2    -0.440030549246E+02   -0.23593E-02   -0.68171E-03  1992   0.260E-01    0.109E-01
RMM:   3    -0.440048380629E+02   -0.17831E-02   -0.24234E-03  1973   0.107E-01
     74 T=   749. E= -.44253393E+02 F= -.44004838E+02 E0= -.43957768E+02  EK= 0.33871E+01 SP= -.37E+01 SK= 0.87E-01 mag=      0.001
       N       E                     dE             d eps       ncg     rms          rms(c)
DAV:   1    -0.440013257568E+02    0.17292E-02   -0.30187E-02  3160   0.109E+00    0.145E-01
RMM:   2    -0.440039319671E+02   -0.26062E-02   -0.77066E-03  1909   0.328E-01    0.957E-02
RMM:   3    -0.440047085277E+02   -0.77656E-03   -0.22250E-03  1824   0.128E-01
     75 T=   776. E= -.44251528E+02 F= -.44004709E+02 E0= -.43957367E+02  EK= 0.35105E+01 SP= -.39E+01 SK= 0.93E-01 mag=      0.107
       N       E                     dE             d eps       ncg     rms          rms(c)
DAV:   1    -0.439966804527E+02    0.72515E-02   -0.64440E-02  3552   0.113E+00    0.136E-01
RMM:   2    -0.439985854411E+02   -0.19050E-02   -0.75265E-03  2002   0.310E-01    0.983E-02
RMM:   3    -0.439997350908E+02   -0.11496E-02   -0.23181E-03  1956   0.117E-01
     76 T=   804. E= -.44246608E+02 F= -.43999735E+02 E0= -.43952045E+02  EK= 0.36393E+01 SP= -.40E+01 SK= 0.95E-01 mag=      0.075
       N       E                     dE             d eps       ncg     rms          rms(c)
DAV:   1    -0.439925773998E+02    0.60080E-02   -0.44116E-02  3344   0.111E+00    0.857E-02
RMM:   2    -0.439935901004E+02   -0.10127E-02   -0.57077E-03  2003   0.288E-01
     77 T=   833. E= -.44244069E+02 F= -.43993590E+02 E0= -.43945447E+02  EK= 0.37686E+01 SP= -.41E+01 SK= 0.92E-01 mag=     -0.066
       N       E                     dE             d eps       ncg     rms          rms(c)
DAV:   1    -0.439814586639E+02    0.11119E-01   -0.38133E-02  3864   0.115E+00    0.721E-02
RMM:   2    -0.439826552133E+02   -0.11965E-02   -0.65494E-03  2007   0.274E-01
     78 T=   861. E= -.44241136E+02 F= -.43982655E+02 E0= -.43934329E+02  EK= 0.38941E+01 SP= -.42E+01 SK= 0.85E-01 mag=     -0.236
       N       E                     dE             d eps       ncg     rms          rms(c)
DAV:   1    -0.439649324935E+02    0.16526E-01   -0.20181E-02  3512   0.112E+00    0.120E-01
RMM:   2    -0.439670496113E+02   -0.21171E-02   -0.74788E-03  2001   0.305E-01    0.974E-02
RMM:   3    -0.439689367894E+02   -0.18872E-02   -0.32363E-03  1901   0.134E-01    0.619E-02
RMM:   4    -0.439698945758E+02   -0.95779E-03   -0.15396E-03  1819   0.871E-02
     79 T=   887. E= -.44240744E+02 F= -.43969895E+02 E0= -.43920991E+02  EK= 0.40121E+01 SP= -.44E+01 SK= 0.74E-01 mag=     -0.078
       N       E                     dE             d eps       ncg     rms          rms(c)
DAV:   1    -0.439501864379E+02    0.18750E-01   -0.24627E-02  3584   0.118E+00    0.107E-01
RMM:   2    -0.439517955807E+02   -0.16091E-02   -0.53447E-03  1844   0.264E-01
     80 T=   912. E= -.44232971E+02 F= -.43951796E+02 E0= -.43902756E+02  EK= 0.41251E+01 SP= -.45E+01 SK= 0.60E-01 mag=      0.285
       N       E                     dE             d eps       ncg     rms          rms(c)
DAV:   1    -0.439221687781E+02    0.28018E-01   -0.35976E-02  3944   0.120E+00    0.179E-01
RMM:   2    -0.439261836519E+02   -0.40149E-02   -0.85196E-03  1941   0.274E-01    0.148E-01
RMM:   3    -0.439297479590E+02   -0.35643E-02   -0.35479E-03  1824   0.118E-01    0.114E-01
RMM:   4    -0.439334177016E+02   -0.36697E-02   -0.70838E-03  2018   0.120E-01    0.318E-02
RMM:   5    -0.439335431011E+02   -0.12540E-03   -0.52900E-04  1647   0.628E-02
     81 T=   933. E= -.44229776E+02 F= -.43933543E+02 E0= -.43883704E+02  EK= 0.42222E+01 SP= -.46E+01 SK= 0.45E-01 mag=      0.048
       N       E                     dE             d eps       ncg     rms          rms(c)
DAV:   1    -0.438969168166E+02    0.36501E-01   -0.32626E-02  3304   0.112E+00    0.193E-01
RMM:   2    -0.439014944523E+02   -0.45776E-02   -0.10871E-02  1879   0.269E-01    0.159E-01
RMM:   3    -0.439049276517E+02   -0.34332E-02   -0.38872E-03  1830   0.116E-01    0.127E-01
RMM:   4    -0.439096030186E+02   -0.46754E-02   -0.11068E-02  2047   0.129E-01    0.424E-02
RMM:   5    -0.439097686884E+02   -0.16567E-03   -0.63253E-04  1649   0.658E-02
     82 T=   950. E= -.44228987E+02 F= -.43909769E+02 E0= -.43859503E+02  EK= 0.42961E+01 SP= -.46E+01 SK= 0.31E-01 mag=     -0.077
       N       E                     dE             d eps       ncg     rms          rms(c)
DAV:   1    -0.438809904926E+02    0.28613E-01   -0.23398E-02  3688   0.117E+00    0.708E-02
RMM:   2    -0.438821261949E+02   -0.11357E-02   -0.54719E-03  2016   0.284E-01
     83 T=   962. E= -.44223892E+02 F= -.43882126E+02 E0= -.43831380E+02  EK= 0.43521E+01 SP= -.47E+01 SK= 0.18E-01 mag=     -0.057
       N       E                     dE             d eps       ncg     rms          rms(c)
DAV:   1    -0.438477983773E+02    0.33192E-01   -0.23429E-02  3784   0.121E+00    0.987E-02
RMM:   2    -0.438498469499E+02   -0.20486E-02   -0.74412E-03  2030   0.281E-01    0.790E-02
RMM:   3    -0.438507163360E+02   -0.86939E-03   -0.20179E-03  1842   0.109E-01
     84 T=   969. E= -.44219312E+02 F= -.43850716E+02 E0= -.43799544E+02  EK= 0.43827E+01 SP= -.48E+01 SK= 0.82E-02 mag=      0.042
       N       E                     dE             d eps       ncg     rms          rms(c)
DAV:   1    -0.438163815776E+02    0.33465E-01   -0.25934E-02  3448   0.116E+00    0.847E-02
RMM:   2    -0.438177288154E+02   -0.13472E-02   -0.43106E-03  1931   0.263E-01
     85 T=   970. E= -.44215155E+02 F= -.43817729E+02 E0= -.43766122E+02  EK= 0.43888E+01 SP= -.48E+01 SK= 0.21E-02 mag=      0.169
       N       E                     dE             d eps       ncg     rms          rms(c)
DAV:   1    -0.437779136834E+02    0.38468E-01   -0.42476E-02  4032   0.127E+00    0.896E-02
RMM:   2    -0.437795239785E+02   -0.16103E-02   -0.60669E-03  2032   0.240E-01
     86 T=   966. E= -.44208539E+02 F= -.43779524E+02 E0= -.43727639E+02  EK= 0.43692E+01 SP= -.48E+01 SK= 0.21E-05 mag=      0.210
       N       E                     dE             d eps       ncg     rms          rms(c)
DAV:   1    -0.437383573010E+02    0.39556E-01   -0.15818E-02  2816   0.111E+00    0.959E-02
RMM:   2    -0.437399160394E+02   -0.15587E-02   -0.69989E-03  2039   0.324E-01
     87 T=   956. E= -.44202914E+02 F= -.43739916E+02 E0= -.43687508E+02  EK= 0.43249E+01 SP= -.48E+01 SK= 0.17E-02 mag=      0.122
       N       E                     dE             d eps       ncg     rms          rms(c)
DAV:   1    -0.436971094598E+02    0.41248E-01   -0.37099E-02  4096   0.128E+00    0.771E-02
RMM:   2    -0.436987733626E+02   -0.16639E-02   -0.68966E-03  2049   0.288E-01
     88 T=   941. E= -.44196780E+02 F= -.43698773E+02 E0= -.43645942E+02  EK= 0.42591E+01 SP= -.48E+01 SK= 0.65E-02 mag=     -0.065
       N       E                     dE             d eps       ncg     rms          rms(c)
DAV:   1    -0.436540624851E+02    0.43047E-01   -0.22777E-02  3328   0.108E+00    0.731E-02
RMM:   2    -0.436555578651E+02   -0.14954E-02   -0.79485E-03  2041   0.331E-01
     89 T=   922. E= -.44190649E+02 F= -.43655558E+02 E0= -.43602592E+02  EK= 0.41734E+01 SP= -.47E+01 SK= 0.13E-01 mag=     -0.275
       N       E                     dE             d eps       ncg     rms          rms(c)
DAV:   1    -0.436062144319E+02    0.47848E-01   -0.35137E-02  3936   0.120E+00    0.121E-01
RMM:   2    -0.436087554479E+02   -0.25410E-02   -0.83004E-03  2048   0.293E-01    0.998E-02
RMM:   3    -0.436100699075E+02   -0.13145E-02   -0.27614E-03  1937   0.116E-01
     90 T=   900. E= -.44183381E+02 F= -.43610070E+02 E0= -.43557027E+02  EK= 0.40721E+01 SP= -.47E+01 SK= 0.21E-01 mag=     -0.143
       N       E                     dE             d eps       ncg     rms          rms(c)
DAV:   1    -0.435640742247E+02    0.44681E-01   -0.44499E-02  3312   0.114E+00    0.103E-01
RMM:   2    -0.435662154575E+02   -0.21412E-02   -0.68399E-03  1949   0.312E-01    0.715E-02
RMM:   3    -0.435666591128E+02   -0.44366E-03   -0.15784E-03  1780   0.107E-01
     91 T=   875. E= -.44179696E+02 F= -.43566659E+02 E0= -.43513094E+02  EK= 0.39585E+01 SP= -.46E+01 SK= 0.28E-01 mag=      0.163
       N       E                     dE             d eps       ncg     rms          rms(c)
DAV:   1    -0.435174123033E+02    0.48803E-01   -0.67253E-02  3792   0.115E+00    0.129E-01
RMM:   2    -0.435194814892E+02   -0.20692E-02   -0.72849E-03  2037   0.287E-01    0.973E-02
RMM:   3    -0.435206688631E+02   -0.11874E-02   -0.19989E-03  1986   0.109E-01
     92 T=   848. E= -.44172927E+02 F= -.43520669E+02 E0= -.43467453E+02  EK= 0.38386E+01 SP= -.45E+01 SK= 0.34E-01 mag=      0.267
       N       E                     dE             d eps       ncg     rms          rms(c)
DAV:   1    -0.434776031348E+02    0.41878E-01   -0.29165E-02  3384   0.110E+00    0.832E-02
RMM:   2    -0.434787042063E+02   -0.11011E-02   -0.56360E-03  2014   0.281E-01
     93 T=   822. E= -.44169040E+02 F= -.43478704E+02 E0= -.43424825E+02  EK= 0.37166E+01 SP= -.44E+01 SK= 0.37E-01 mag=      0.133
       N       E                     dE             d eps       ncg     rms          rms(c)
DAV:   1    -0.434351741819E+02    0.42429E-01   -0.40923E-02  3856   0.110E+00    0.634E-02
RMM:   2    -0.434363024733E+02   -0.11283E-02   -0.63015E-03  2037   0.265E-01
     94 T=   795. E= -.44164499E+02 F= -.43436302E+02 E0= -.43382392E+02  EK= 0.35951E+01 SP= -.44E+01 SK= 0.38E-01 mag=     -0.178
       N       E                     dE             d eps       ncg     rms          rms(c)
DAV:   1    -0.433919735404E+02    0.43201E-01   -0.20982E-02  3240   0.103E+00    0.114E-01
RMM:   2    -0.433940347653E+02   -0.20612E-02   -0.67866E-03  2032   0.286E-01    0.933E-02
RMM:   3    -0.433957231276E+02   -0.16884E-02   -0.27554E-03  1929   0.121E-01
     95 T=   769. E= -.44161166E+02 F= -.43395723E+02 E0= -.43342223E+02  EK= 0.34775E+01 SP= -.43E+01 SK= 0.36E-01 mag=     -0.223
       N       E                     dE             d eps       ncg     rms          rms(c)
DAV:   1    -0.433580113755E+02    0.36023E-01   -0.28450E-02  3392   0.105E+00    0.777E-02
RMM:   2    -0.433591510039E+02   -0.11396E-02   -0.51457E-03  1899   0.275E-01
     96 T=   746. E= -.44154366E+02 F= -.43359151E+02 E0= -.43305248E+02  EK= 0.33732E+01 SP= -.42E+01 SK= 0.32E-01 mag=     -0.026
       N       E                     dE             d eps       ncg     rms          rms(c)
DAV:   1    -0.433204697215E+02    0.37542E-01   -0.33304E-02  3896   0.107E+00    0.110E-01
RMM:   2    -0.433225326445E+02   -0.20629E-02   -0.60680E-03  1987   0.235E-01    0.908E-02
RMM:   3    -0.433237549333E+02   -0.12223E-02   -0.17989E-03  1849   0.937E-02
     97 T=   724. E= -.44147779E+02 F= -.43323755E+02 E0= -.43270103E+02  EK= 0.32776E+01 SP= -.41E+01 SK= 0.26E-01 mag=      0.119
       N       E                     dE             d eps       ncg     rms          rms(c)
DAV:   1    -0.432915991930E+02    0.30933E-01   -0.30470E-02  3240   0.969E-01    0.863E-02
RMM:   2    -0.432934171699E+02   -0.18180E-02   -0.64959E-03  1958   0.245E-01    0.595E-02
RMM:   3    -0.432938609222E+02   -0.44375E-03   -0.15080E-03  1823   0.955E-02
     98 T=   705. E= -.44146828E+02 F= -.43293861E+02 E0= -.43240390E+02  EK= 0.31912E+01 SP= -.41E+01 SK= 0.19E-01 mag=      0.166
       N       E                     dE             d eps       ncg     rms          rms(c)
DAV:   1    -0.432649588955E+02    0.28458E-01   -0.48171E-02  3480   0.102E+00    0.936E-02
RMM:   2    -0.432662272528E+02   -0.12684E-02   -0.56447E-03  2026   0.269E-01
     99 T=   690. E= -.44141364E+02 F= -.43266227E+02 E0= -.43212627E+02  EK= 0.31222E+01 SP= -.40E+01 SK= 0.13E-01 mag=      0.085
       N       E                     dE             d eps       ncg     rms          rms(c)
DAV:   1    -0.432412107158E+02    0.23748E-01   -0.35815E-02  3496   0.102E+00    0.108E-01
RMM:   2    -0.432429701383E+02   -0.17594E-02   -0.57992E-03  2012   0.256E-01
    100 T=   678. E= -.44136480E+02 F= -.43242970E+02 E0= -.43189612E+02  EK= 0.30684E+01 SP= -.40E+01 SK= 0.67E-02 mag=     -0.099
       N       E                     dE             d eps       ncg     rms          rms(c)
DAV:   1    -0.432242135229E+02    0.16997E-01   -0.16852E-02  3288   0.963E-01    0.751E-02
RMM:   2    -0.432256473734E+02   -0.14339E-02   -0.54630E-03  1995   0.267E-01
    101 T=   670. E= -.44132488E+02 F= -.43225647E+02 E0= -.43172778E+02  EK= 0.30316E+01 SP= -.39E+01 SK= 0.24E-02 mag=     -0.280
       N       E                     dE             d eps       ncg     rms          rms(c)
DAV:   1    -0.432108144835E+02    0.13399E-01   -0.22560E-02  3384   0.105E+00    0.792E-02
RMM:   2    -0.432119838945E+02   -0.11694E-02   -0.56002E-03  1998   0.264E-01
    102 T=   666. E= -.44127114E+02 F= -.43211984E+02 E0= -.43159356E+02  EK= 0.30122E+01 SP= -.39E+01 SK= 0.19E-03 mag=     -0.362
       N       E                     dE             d eps       ncg     rms          rms(c)
DAV:   1    -0.431964025213E+02    0.14412E-01   -0.18649E-02  3336   0.946E-01    0.139E-01
RMM:   2    -0.431991144689E+02   -0.27119E-02   -0.76697E-03  1982   0.277E-01    0.117E-01
RMM:   3    -0.432020945819E+02   -0.29801E-02   -0.40410E-03  1824   0.121E-01    0.770E-02
RMM:   4    -0.432038138107E+02   -0.17192E-02   -0.35334E-03  1825   0.104E-01
    103 T=   665. E= -.44125336E+02 F= -.43203814E+02 E0= -.43150826E+02  EK= 0.30073E+01 SP= -.39E+01 SK= 0.48E-03 mag=     -0.078
       N       E                     dE             d eps       ncg     rms          rms(c)
DAV:   1    -0.431912618222E+02    0.10833E-01   -0.24940E-02  3336   0.998E-01    0.150E-01
RMM:   2    -0.431942299482E+02   -0.29681E-02   -0.65552E-03  1861   0.231E-01    0.122E-01
RMM:   3    -0.431972083015E+02   -0.29784E-02   -0.37477E-03  1823   0.101E-01    0.848E-02
RMM:   4    -0.431989792244E+02   -0.17709E-02   -0.28054E-03  1824   0.840E-02
    104 T=   667. E= -.44122490E+02 F= -.43198979E+02 E0= -.43146280E+02  EK= 0.30193E+01 SP= -.39E+01 SK= 0.33E-02 mag=      0.127
       N       E                     dE             d eps       ncg     rms          rms(c)
DAV:   1    -0.431964845445E+02    0.72376E-03   -0.18304E-02  3264   0.969E-01    0.809E-02
RMM:   2    -0.431979615606E+02   -0.14770E-02   -0.56009E-03  1993   0.249E-01
    105 T=   674. E= -.44117391E+02 F= -.43197962E+02 E0= -.43145738E+02  EK= 0.30499E+01 SP= -.40E+01 SK= 0.84E-02 mag=      0.230
       N       E                     dE             d eps       ncg     rms          rms(c)
DAV:   1    -0.432015920929E+02   -0.51075E-02   -0.25302E-02  3480   0.100E+00    0.535E-02
RMM:   2    -0.432025268773E+02   -0.93478E-03   -0.50246E-03  1994   0.257E-01
    106 T=   684. E= -.44115064E+02 F= -.43202527E+02 E0= -.43150156E+02  EK= 0.30957E+01 SP= -.40E+01 SK= 0.15E-01 mag=      0.200
       N       E                     dE             d eps       ncg     rms          rms(c)
DAV:   1    -0.432093805228E+02   -0.77884E-02   -0.18955E-02  3224   0.102E+00    0.627E-02
RMM:   2    -0.432104944459E+02   -0.11139E-02   -0.54925E-03  2001   0.263E-01
    107 T=   698. E= -.44112003E+02 F= -.43210494E+02 E0= -.43157976E+02  EK= 0.31574E+01 SP= -.41E+01 SK= 0.23E-01 mag=      0.015
       N       E                     dE             d eps       ncg     rms          rms(c)
DAV:   1    -0.432204087234E+02   -0.11028E-01   -0.17527E-02  3096   0.105E+00    0.723E-02
RMM:   2    -0.432218127369E+02   -0.14040E-02   -0.62665E-03  2013   0.286E-01
    108 T=   715. E= -.44105753E+02 F= -.43221813E+02 E0= -.43170008E+02  EK= 0.32369E+01 SP= -.42E+01 SK= 0.31E-01 mag=     -0.279
       N       E                     dE             d eps       ncg     rms          rms(c)
DAV:   1    -0.432349941735E+02   -0.14585E-01   -0.13936E-02  3352   0.103E+00    0.789E-02
RMM:   2    -0.432364421228E+02   -0.14479E-02   -0.61558E-03  2003   0.295E-01
    109 T=   736. E= -.44099430E+02 F= -.43236442E+02 E0= -.43185778E+02  EK= 0.33300E+01 SP= -.42E+01 SK= 0.39E-01 mag=     -0.482
       N       E                     dE             d eps       ncg     rms          rms(c)
DAV:   1    -0.432530005728E+02   -0.18006E-01   -0.18817E-02  3416   0.107E+00    0.903E-02
RMM:   2    -0.432545547342E+02   -0.15542E-02   -0.66785E-03  2009   0.301E-01
    110 T=   759. E= -.44094098E+02 F= -.43254555E+02 E0= -.43203163E+02  EK= 0.34344E+01 SP= -.43E+01 SK= 0.44E-01 mag=     -0.442
       N       E                     dE             d eps       ncg     rms          rms(c)
DAV:   1    -0.432728925428E+02   -0.19892E-01   -0.25495E-02  3488   0.110E+00    0.867E-02
RMM:   2    -0.432745670604E+02   -0.16745E-02   -0.70655E-03  2016   0.302E-01
    111 T=   784. E= -.44088556E+02 F= -.43274567E+02 E0= -.43222399E+02  EK= 0.35479E+01 SP= -.44E+01 SK= 0.47E-01 mag=     -0.088
       N       E                     dE             d eps       ncg     rms          rms(c)
DAV:   1    -0.432942963821E+02   -0.21404E-01   -0.19888E-02  3200   0.110E+00    0.866E-02
RMM:   2    -0.432958411039E+02   -0.15447E-02   -0.70474E-03  2059   0.316E-01
    112 T=   811. E= -.44082028E+02 F= -.43295841E+02 E0= -.43244664E+02  EK= 0.36683E+01 SP= -.45E+01 SK= 0.48E-01 mag=      0.448
       N       E                     dE             d eps       ncg     rms          rms(c)
DAV:   1    -0.433120905181E+02   -0.17794E-01   -0.24406E-02  3464   0.113E+00    0.143E-01
RMM:   2    -0.433149717991E+02   -0.28813E-02   -0.79290E-03  2053   0.322E-01    0.120E-01
RMM:   3    -0.433177838428E+02   -0.28120E-02   -0.42018E-03  1855   0.135E-01    0.850E-02
RMM:   4    -0.433199140751E+02   -0.21302E-02   -0.38364E-03  1860   0.109E-01    0.379E-02
RMM:   5    -0.433203567613E+02   -0.44269E-03   -0.10258E-03  1702   0.636E-02
    113 T=   838. E= -.44080267E+02 F= -.43320357E+02 E0= -.43268350E+02  EK= 0.37890E+01 SP= -.46E+01 SK= 0.45E-01 mag=      0.063
       N       E                     dE             d eps       ncg     rms          rms(c)
DAV:   1    -0.433330210718E+02   -0.13107E-01   -0.29065E-02  3328   0.113E+00    0.169E-01
RMM:   2    -0.433364583296E+02   -0.34373E-02   -0.56345E-03  1873   0.238E-01    0.140E-01
RMM:   3    -0.433402576021E+02   -0.37993E-02   -0.43220E-03  1824   0.113E-01    0.886E-02
RMM:   4    -0.433422470025E+02   -0.19894E-02   -0.27312E-03  1824   0.918E-02    0.471E-02
RMM:   5    -0.433428535236E+02   -0.60652E-03   -0.97933E-04  1688   0.574E-02
    114 T=   863. E= -.44079289E+02 F= -.43342854E+02 E0= -.43290918E+02  EK= 0.39055E+01 SP= -.47E+01 SK= 0.40E-01 mag=     -0.081
       N       E                     dE             d eps       ncg     rms          rms(c)
DAV:   1    -0.433629553408E+02   -0.20708E-01   -0.27245E-02  3576   0.112E+00    0.633E-02
RMM:   2    -0.433642693248E+02   -0.13140E-02   -0.55725E-03  1996   0.260E-01
    115 T=   888. E= -.44075980E+02 F= -.43364269E+02 E0= -.43312141E+02  EK= 0.40182E+01 SP= -.48E+01 SK= 0.32E-01 mag=     -0.021
       N       E                     dE             d eps       ncg     rms          rms(c)
DAV:   1    -0.433826639760E+02   -0.19709E-01   -0.29383E-02  3880   0.117E+00    0.705E-02
RMM:   2    -0.433840769907E+02   -0.14130E-02   -0.62201E-03  2040   0.274E-01
    116 T=   910. E= -.44074705E+02 F= -.43384077E+02 E0= -.43332104E+02  EK= 0.41186E+01 SP= -.48E+01 SK= 0.23E-01 mag=      0.177
       N       E                     dE             d eps       ncg     rms          rms(c)
DAV:   1    -0.433991701508E+02   -0.16506E-01   -0.18264E-02  2920   0.116E+00    0.882E-02
RMM:   2    -0.434009099439E+02   -0.17398E-02   -0.73670E-03  2053   0.297E-01
    117 T=   930. E= -.44071655E+02 F= -.43400910E+02 E0= -.43349787E+02  EK= 0.42055E+01 SP= -.49E+01 SK= 0.15E-01 mag=      0.374
       N       E                     dE             d eps       ncg     rms          rms(c)
DAV:   1    -0.434144934029E+02   -0.15323E-01   -0.39012E-02  3840   0.128E+00    0.764E-02
RMM:   2    -0.434161839134E+02   -0.16905E-02   -0.76460E-03  2052   0.309E-01
    118 T=   946. E= -.44065830E+02 F= -.43416184E+02 E0= -.43365319E+02  EK= 0.42779E+01 SP= -.49E+01 SK= 0.72E-02 mag=      0.468
       N       E                     dE             d eps       ncg     rms          rms(c)
DAV:   1    -0.434263178303E+02   -0.11824E-01   -0.27232E-02  3392   0.115E+00    0.679E-02
RMM:   2    -0.434280266190E+02   -0.17088E-02   -0.78061E-03  2054   0.322E-01
    119 T=   957. E= -.44060706E+02 F= -.43428027E+02 E0= -.43376619E+02  EK= 0.43277E+01 SP= -.50E+01 SK= 0.20E-02 mag=      0.354
       N       E                     dE             d eps       ncg     rms          rms(c)
DAV:   1    -0.434333597857E+02   -0.70420E-02   -0.26977E-02  3504   0.121E+00    0.840E-02
RMM:   2    -0.434351038658E+02   -0.17441E-02   -0.75751E-03  2058   0.299E-01
    120 T=   962. E= -.44055327E+02 F= -.43435104E+02 E0= -.43383080E+02  EK= 0.43523E+01 SP= -.50E+01 SK= 0.69E-05 mag=      0.017
       N       E                     dE             d eps       ncg     rms          rms(c)
DAV:   1    -0.434340134107E+02   -0.65363E-03   -0.25948E-02  3600   0.118E+00    0.958E-02
RMM:   2    -0.434361785723E+02   -0.21652E-02   -0.77890E-03  2032   0.317E-01    0.809E-02
RMM:   3    -0.434376222755E+02   -0.14437E-02   -0.32306E-03  1895   0.126E-01
    121 T=   961. E= -.44051204E+02 F= -.43437622E+02 E0= -.43386347E+02  EK= 0.43494E+01 SP= -.50E+01 SK= 0.16E-02 mag=     -0.213
       N       E                     dE             d eps       ncg     rms          rms(c)
DAV:   1    -0.434308148887E+02    0.53637E-02   -0.48543E-02  3480   0.121E+00    0.129E-01
RMM:   2    -0.434338034189E+02   -0.29885E-02   -0.72755E-03  1921   0.304E-01    0.101E-01
RMM:   3    -0.434351342848E+02   -0.13309E-02   -0.20402E-03  1822   0.113E-01
    122 T=   955. E= -.44044795E+02 F= -.43435134E+02 E0= -.43383385E+02  EK= 0.43223E+01 SP= -.49E+01 SK= 0.67E-02 mag=     -0.118
       N       E                     dE             d eps       ncg     rms          rms(c)
DAV:   1    -0.434255512575E+02    0.82522E-02   -0.65137E-02  3744   0.120E+00    0.115E-01
RMM:   2    -0.434276788666E+02   -0.21276E-02   -0.67965E-03  2033   0.279E-01    0.828E-02
RMM:   3    -0.434286277993E+02   -0.94893E-03   -0.18519E-03  1931   0.107E-01
    123 T=   944. E= -.44039475E+02 F= -.43428628E+02 E0= -.43377009E+02  EK= 0.42698E+01 SP= -.49E+01 SK= 0.15E-01 mag=      0.118
       N       E                     dE             d eps       ncg     rms          rms(c)
DAV:   1    -0.434144992708E+02    0.13180E-01   -0.45144E-02  3424   0.116E+00    0.957E-02
RMM:   2    -0.434161798121E+02   -0.16805E-02   -0.67117E-03  2027   0.281E-01
    124 T=   927. E= -.44033868E+02 F= -.43416180E+02 E0= -.43365541E+02  EK= 0.41937E+01 SP= -.48E+01 SK= 0.25E-01 mag=      0.381
       N       E                     dE             d eps       ncg     rms          rms(c)
DAV:   1    -0.433944641847E+02    0.20035E-01   -0.51773E-02  3880   0.119E+00    0.128E-01
RMM:   2    -0.433969637424E+02   -0.24996E-02   -0.78928E-03  2037   0.275E-01    0.102E-01
RMM:   3    -0.433983370196E+02   -0.13733E-02   -0.24954E-03  1954   0.110E-01
    125 T=   906. E= -.44028492E+02 F= -.43398337E+02 E0= -.43347984E+02  EK= 0.40971E+01 SP= -.48E+01 SK= 0.35E-01 mag=      0.251
       N       E                     dE             d eps       ncg     rms          rms(c)
DAV:   1    -0.433773446217E+02    0.19619E-01   -0.39336E-02  3424   0.114E+00    0.105E-01
RMM:   2    -0.433793090759E+02   -0.19645E-02   -0.70997E-03  1969   0.284E-01    0.690E-02
RMM:   3    -0.433796998360E+02   -0.39076E-03   -0.15476E-03  1823   0.978E-02
    126 T=   881. E= -.44026515E+02 F= -.43379700E+02 E0= -.43328866E+02  EK= 0.39854E+01 SP= -.47E+01 SK= 0.45E-01 mag=     -0.181
       N       E                     dE             d eps       ncg     rms          rms(c)
DAV:   1    -0.433494329160E+02    0.29876E-01   -0.70021E-02  3680   0.116E+00    0.138E-01
RMM:   2    -0.433520195140E+02   -0.25866E-02   -0.77714E-03  2037   0.298E-01    0.109E-01
RMM:   3    -0.433533588251E+02   -0.13393E-02   -0.20125E-03  1980   0.111E-01
    127 T=   854. E= -.44018830E+02 F= -.43353359E+02 E0= -.43304094E+02  EK= 0.38645E+01 SP= -.46E+01 SK= 0.53E-01 mag=     -0.377
       N       E                     dE             d eps       ncg     rms          rms(c)
DAV:   1    -0.433272127981E+02    0.24807E-01   -0.34499E-02  3704   0.112E+00    0.746E-02
RMM:   2    -0.433284555293E+02   -0.12427E-02   -0.66141E-03  2058   0.271E-01
    128 T=   826. E= -.44015936E+02 F= -.43328456E+02 E0= -.43278356E+02  EK= 0.37372E+01 SP= -.45E+01 SK= 0.58E-01 mag=     -0.256
       N       E                     dE             d eps       ncg     rms          rms(c)
DAV:   1    -0.432975583208E+02    0.29654E-01   -0.41308E-02  3864   0.112E+00    0.575E-02
RMM:   2    -0.432988319211E+02   -0.12736E-02   -0.71936E-03  2027   0.279E-01
    129 T=   797. E= -.44012167E+02 F= -.43298832E+02 E0= -.43248781E+02  EK= 0.36066E+01 SP= -.44E+01 SK= 0.60E-01 mag=      0.137
       N       E                     dE             d eps       ncg     rms          rms(c)
DAV:   1    -0.432626224454E+02    0.34936E-01   -0.20413E-02  3448   0.105E+00    0.122E-01
RMM:   2    -0.432648077304E+02   -0.21853E-02   -0.70150E-03  2016   0.291E-01    0.100E-01
RMM:   3    -0.432667785736E+02   -0.19708E-02   -0.31951E-03  1875   0.122E-01    0.679E-02
RMM:   4    -0.432680118780E+02   -0.12333E-02   -0.19440E-03  1823   0.877E-02
    130 T=   769. E= -.44010128E+02 F= -.43268012E+02 E0= -.43218557E+02  EK= 0.34771E+01 SP= -.43E+01 SK= 0.57E-01 mag=      0.145
       N       E                     dE             d eps       ncg     rms          rms(c)
DAV:   1    -0.432330513032E+02    0.33727E-01   -0.26770E-02  3752   0.109E+00    0.107E-01
RMM:   2    -0.432349007131E+02   -0.18494E-02   -0.57719E-03  1866   0.234E-01    0.833E-02
RMM:   3    -0.432359024350E+02   -0.10017E-02   -0.19062E-03  1817   0.897E-02
    131 T=   742. E= -.44004914E+02 F= -.43235902E+02 E0= -.43186611E+02  EK= 0.33564E+01 SP= -.42E+01 SK= 0.52E-01 mag=     -0.101
       N       E                     dE             d eps       ncg     rms          rms(c)
DAV:   1    -0.432023811736E+02    0.32520E-01   -0.32046E-02  3592   0.993E-01    0.112E-01
RMM:   2    -0.432039224679E+02   -0.15413E-02   -0.56821E-03  1973   0.262E-01
    132 T=   717. E= -.43998522E+02 F= -.43203922E+02 E0= -.43155729E+02  EK= 0.32460E+01 SP= -.41E+01 SK= 0.44E-01 mag=     -0.445
       N       E                     dE             d eps       ncg     rms          rms(c)
DAV:   1    -0.431713272056E+02    0.31054E-01   -0.31640E-02  3616   0.106E+00    0.124E-01
RMM:   2    -0.431732427292E+02   -0.19155E-02   -0.53317E-03  2022   0.247E-01    0.101E-01
RMM:   3    -0.431742963283E+02   -0.10536E-02   -0.16559E-03  1878   0.102E-01
    133 T=   695. E= -.43995681E+02 F= -.43174296E+02 E0= -.43126997E+02  EK= 0.31452E+01 SP= -.40E+01 SK= 0.34E-01 mag=     -0.271
       N       E                     dE             d eps       ncg     rms          rms(c)
DAV:   1    -0.431455851111E+02    0.27658E-01   -0.32813E-02  3376   0.101E+00    0.132E-01
RMM:   2    -0.431472331636E+02   -0.16481E-02   -0.60126E-03  1908   0.256E-01
    134 T=   677. E= -.43991165E+02 F= -.43147233E+02 E0= -.43099340E+02  EK= 0.30608E+01 SP= -.39E+01 SK= 0.24E-01 mag=      0.317
       N       E                     dE             d eps       ncg     rms          rms(c)
DAV:   1    -0.431079095244E+02    0.37676E-01   -0.49922E-02  3808   0.106E+00    0.218E-01
RMM:   2    -0.431131486879E+02   -0.52392E-02   -0.87901E-03  1986   0.265E-01    0.179E-01
RMM:   3    -0.431188422047E+02   -0.56935E-02   -0.53207E-03  1847   0.127E-01    0.130E-01
RMM:   4    -0.431234329175E+02   -0.45907E-02   -0.73448E-03  1959   0.130E-01    0.508E-02
RMM:   5    -0.431239304209E+02   -0.49750E-03   -0.11429E-03  1723   0.681E-02
    135 T=   661. E= -.43987856E+02 F= -.43123930E+02 E0= -.43076043E+02  EK= 0.29920E+01 SP= -.39E+01 SK= 0.14E-01 mag=      0.073
       N       E                     dE             d eps       ncg     rms          rms(c)
DAV:   1    -0.430863983091E+02    0.37035E-01   -0.25105E-02  3224   0.965E-01    0.233E-01
RMM:   2    -0.430916518892E+02   -0.52536E-02   -0.10226E-02  1868   0.260E-01    0.187E-01
RMM:   3    -0.430969245405E+02   -0.52727E-02   -0.49934E-03  1826   0.121E-01    0.140E-01
RMM:   4    -0.431015283137E+02   -0.46038E-02   -0.57680E-03  1859   0.114E-01    0.621E-02
RMM:   5    -0.431022737537E+02   -0.74544E-03   -0.11531E-03  1794   0.722E-02
    136 T=   649. E= -.43986696E+02 F= -.43102274E+02 E0= -.43054750E+02  EK= 0.29365E+01 SP= -.38E+01 SK= 0.66E-02 mag=     -0.096
       N       E                     dE             d eps       ncg     rms          rms(c)
DAV:   1    -0.430826758558E+02    0.18852E-01   -0.19171E-02  3360   0.975E-01    0.951E-02
RMM:   2    -0.430837420095E+02   -0.10662E-02   -0.45137E-03  1949   0.239E-01
    137 T=   641. E= -.43981746E+02 F= -.43083742E+02 E0= -.43036549E+02  EK= 0.29020E+01 SP= -.38E+01 SK= 0.16E-02 mag=     -0.140
       N       E                     dE             d eps       ncg     rms          rms(c)
DAV:   1    -0.430667923624E+02    0.15883E-01   -0.19243E-02  3704   0.100E+00    0.119E-01
RMM:   2    -0.430689326697E+02   -0.21403E-02   -0.61780E-03  1990   0.252E-01    0.937E-02
RMM:   3    -0.430697869985E+02   -0.85433E-03   -0.18093E-03  1900   0.999E-02
    138 T=   638. E= -.43977209E+02 F= -.43069787E+02 E0= -.43022760E+02  EK= 0.28860E+01 SP= -.38E+01 SK= 0.43E-05 mag=     -0.028
       N       E                     dE             d eps       ncg     rms          rms(c)
DAV:   1    -0.430616402952E+02    0.72924E-02   -0.19481E-02  3312   0.101E+00    0.957E-02
RMM:   2    -0.430625420763E+02   -0.90178E-03   -0.38259E-03  1945   0.238E-01
    139 T=   638. E= -.43975754E+02 F= -.43062542E+02 E0= -.43015841E+02  EK= 0.28881E+01 SP= -.38E+01 SK= 0.20E-02 mag=      0.192
       N       E                     dE             d eps       ncg     rms          rms(c)
DAV:   1    -0.430545611265E+02    0.70792E-02   -0.29774E-02  3752   0.999E-01    0.126E-01
RMM:   2    -0.430564935886E+02   -0.19325E-02   -0.60864E-03  1993   0.240E-01    0.965E-02
RMM:   3    -0.430578039354E+02   -0.13103E-02   -0.21132E-03  1953   0.104E-01
    140 T=   643. E= -.43971660E+02 F= -.43057804E+02 E0= -.43011623E+02  EK= 0.29099E+01 SP= -.38E+01 SK= 0.75E-02 mag=      0.178
       N       E                     dE             d eps       ncg     rms          rms(c)
DAV:   1    -0.430596499295E+02   -0.31563E-02   -0.18209E-02  3184   0.990E-01    0.106E-01
RMM:   2    -0.430612646466E+02   -0.16147E-02   -0.54276E-03  1909   0.284E-01
    141 T=   653. E= -.43968700E+02 F= -.43061265E+02 E0= -.43014960E+02  EK= 0.29533E+01 SP= -.39E+01 SK= 0.16E-01 mag=     -0.066
       N       E                     dE             d eps       ncg     rms          rms(c)
DAV:   1    -0.430654180033E+02   -0.57681E-02   -0.47456E-02  3680   0.105E+00    0.114E-01
RMM:   2    -0.430672467362E+02   -0.18287E-02   -0.65484E-03  2002   0.270E-01    0.863E-02
RMM:   3    -0.430682040229E+02   -0.95729E-03   -0.19140E-03  1995   0.105E-01
    142 T=   667. E= -.43963599E+02 F= -.43068204E+02 E0= -.43022347E+02  EK= 0.30165E+01 SP= -.39E+01 SK= 0.27E-01 mag=     -0.243
       N       E                     dE             d eps       ncg     rms          rms(c)
DAV:   1    -0.430786974928E+02   -0.11451E-01   -0.16087E-02  3272   0.104E+00    0.138E-01
RMM:   2    -0.430803860550E+02   -0.16886E-02   -0.62725E-03  1878   0.281E-01
    143 T=   684. E= -.43960591E+02 F= -.43080386E+02 E0= -.43034432E+02  EK= 0.30966E+01 SP= -.40E+01 SK= 0.39E-01 mag=     -0.254
       N       E                     dE             d eps       ncg     rms          rms(c)
DAV:   1    -0.430964450881E+02   -0.17748E-01   -0.30371E-02  3672   0.108E+00    0.113E-01
RMM:   2    -0.430981924466E+02   -0.17474E-02   -0.58577E-03  2005   0.252E-01
    144 T=   706. E= -.43958998E+02 F= -.43098192E+02 E0= -.43052109E+02  EK= 0.31941E+01 SP= -.41E+01 SK= 0.50E-01 mag=     -0.063
       N       E                     dE             d eps       ncg     rms          rms(c)
DAV:   1    -0.431198429933E+02   -0.23398E-01   -0.13899E-02  2992   0.103E+00    0.682E-02
RMM:   2    -0.431209382324E+02   -0.10952E-02   -0.71181E-03  2017   0.335E-01
    145 T=   731. E= -.43957240E+02 F= -.43120938E+02 E0= -.43075034E+02  EK= 0.33087E+01 SP= -.42E+01 SK= 0.61E-01 mag=      0.238
       N       E                     dE             d eps       ncg     rms          rms(c)
DAV:   1    -0.431427296813E+02   -0.22887E-01   -0.28741E-02  3640   0.120E+00    0.145E-01
RMM:   2    -0.431453627209E+02   -0.26330E-02   -0.84869E-03  2049   0.327E-01    0.110E-01
RMM:   3    -0.431470043090E+02   -0.16416E-02   -0.33741E-03  1854   0.134E-01
    146 T=   760. E= -.43952639E+02 F= -.43147004E+02 E0= -.43101381E+02  EK= 0.34399E+01 SP= -.43E+01 SK= 0.68E-01 mag=      0.267
       N       E                     dE             d eps       ncg     rms          rms(c)
DAV:   1    -0.431777524052E+02   -0.32390E-01   -0.24983E-02  3392   0.114E+00    0.968E-02
RMM:   2    -0.431789286539E+02   -0.11762E-02   -0.52987E-03  1925   0.279E-01
    147 T=   792. E= -.43948510E+02 F= -.43178929E+02 E0= -.43132725E+02  EK= 0.35850E+01 SP= -.44E+01 SK= 0.71E-01 mag=      0.028
       N       E                     dE             d eps       ncg     rms          rms(c)
DAV:   1    -0.432093019442E+02   -0.31550E-01   -0.45188E-02  3768   0.121E+00    0.107E-01
RMM:   2    -0.432109398736E+02   -0.16379E-02   -0.77355E-03  2049   0.294E-01
    148 T=   826. E= -.43942993E+02 F= -.43210940E+02 E0= -.43164990E+02  EK= 0.37369E+01 SP= -.45E+01 SK= 0.70E-01 mag=     -0.370
       N       E                     dE             d eps       ncg     rms          rms(c)
DAV:   1    -0.432398343148E+02   -0.30532E-01   -0.26448E-02  3288   0.108E+00    0.157E-01
RMM:   2    -0.432427931176E+02   -0.29588E-02   -0.81636E-03  2045   0.337E-01    0.127E-01
RMM:   3    -0.432446970616E+02   -0.19039E-02   -0.28723E-03  1902   0.134E-01    0.102E-01
RMM:   4    -0.432476234181E+02   -0.29264E-02   -0.44900E-03  1957   0.116E-01    0.440E-02
RMM:   5    -0.432480410327E+02   -0.41761E-03   -0.85195E-04  1691   0.632E-02
    149 T=   860. E= -.43944519E+02 F= -.43248041E+02 E0= -.43201585E+02  EK= 0.38886E+01 SP= -.46E+01 SK= 0.64E-01 mag=     -0.055
       N       E                     dE             d eps       ncg     rms          rms(c)
DAV:   1    -0.432740440450E+02   -0.26421E-01   -0.32282E-02  3400   0.119E+00    0.177E-01
RMM:   2    -0.432777083706E+02   -0.36643E-02   -0.76459E-03  1900   0.276E-01    0.146E-01
RMM:   3    -0.432822532903E+02   -0.45449E-02   -0.61582E-03  1824   0.139E-01    0.814E-02
RMM:   4    -0.432838287391E+02   -0.15754E-02   -0.23145E-03  1824   0.100E-01
    150 T=   893. E= -.43941882E+02 F= -.43283829E+02 E0= -.43237338E+02  EK= 0.40404E+01 SP= -.48E+01 SK= 0.54E-01 mag=      0.170
       N       E                     dE             d eps       ncg     rms          rms(c)
DAV:   1    -0.433183245881E+02   -0.36071E-01   -0.24242E-02  3592   0.118E+00    0.884E-02
RMM:   2    -0.433195526752E+02   -0.12281E-02   -0.59620E-03  2013   0.278E-01
    151 T=   925. E= -.43937283E+02 F= -.43319553E+02 E0= -.43272758E+02  EK= 0.41865E+01 SP= -.48E+01 SK= 0.42E-01 mag=      0.200
       N       E                     dE             d eps       ncg     rms          rms(c)
DAV:   1    -0.433536286999E+02   -0.35304E-01   -0.25279E-02  3864   0.117E+00    0.579E-02
RMM:   2    -0.433548503319E+02   -0.12216E-02   -0.70778E-03  2051   0.296E-01
    152 T=   954. E= -.43937185E+02 F= -.43354850E+02 E0= -.43307515E+02  EK= 0.43149E+01 SP= -.49E+01 SK= 0.28E-01 mag=      0.025
       N       E                     dE             d eps       ncg     rms          rms(c)
DAV:   1    -0.433853599559E+02   -0.31731E-01   -0.23105E-02  3440   0.122E+00    0.885E-02
RMM:   2    -0.433869045305E+02   -0.15446E-02   -0.72262E-03  2042   0.309E-01
    153 T=   978. E= -.43934067E+02 F= -.43386905E+02 E0= -.43339514E+02  EK= 0.44249E+01 SP= -.50E+01 SK= 0.15E-01 mag=     -0.259
       N       E                     dE             d eps       ncg     rms          rms(c)
DAV:   1    -0.434128778222E+02   -0.27518E-01   -0.27628E-02  3624   0.127E+00    0.107E-01
RMM:   2    -0.434150857799E+02   -0.22080E-02   -0.88122E-03  2090   0.326E-01    0.860E-02
RMM:   3    -0.434160161485E+02   -0.93037E-03   -0.23176E-03  1980   0.124E-01
    154 T=   997. E= -.43928337E+02 F= -.43416016E+02 E0= -.43368663E+02  EK= 0.45118E+01 SP= -.50E+01 SK= 0.55E-02 mag=     -0.209
       N       E                     dE             d eps       ncg     rms          rms(c)
DAV:   1    -0.434399900850E+02   -0.24904E-01   -0.36450E-02  3328   0.121E+00    0.921E-02
RMM:   2    -0.434420243313E+02   -0.20342E-02   -0.60086E-03  1909   0.304E-01    0.708E-02
RMM:   3    -0.434424063822E+02   -0.38205E-03   -0.12012E-03  1593   0.102E-01
    155 T=  1010. E= -.43924567E+02 F= -.43442406E+02 E0= -.43394039E+02  EK= 0.45672E+01 SP= -.50E+01 SK= 0.41E-03 mag=      0.085
       N       E                     dE             d eps       ncg     rms          rms(c)
DAV:   1    -0.434590473078E+02   -0.17023E-01   -0.57118E-02  3808   0.128E+00    0.117E-01
RMM:   2    -0.434612268931E+02   -0.21796E-02   -0.81392E-03  2109   0.312E-01    0.888E-02
RMM:   3    -0.434624520343E+02   -0.12251E-02   -0.20116E-03  1954   0.123E-01
    156 T=  1014. E= -.43918497E+02 F= -.43462452E+02 E0= -.43414096E+02  EK= 0.45893E+01 SP= -.50E+01 SK= 0.13E-02 mag=      0.247
       N       E                     dE             d eps       ncg     rms          rms(c)
DAV:   1    -0.434772717622E+02   -0.16045E-01   -0.29507E-02  3440   0.123E+00    0.758E-02
RMM:   2    -0.434786295834E+02   -0.13578E-02   -0.67569E-03  2059   0.297E-01
    157 T=  1012. E= -.43912725E+02 F= -.43478630E+02 E0= -.43429563E+02  EK= 0.45770E+01 SP= -.50E+01 SK= 0.85E-02 mag=      0.209
       N       E                     dE             d eps       ncg     rms          rms(c)
DAV:   1    -0.434855714701E+02   -0.82997E-02   -0.34534E-02  3976   0.124E+00    0.765E-02
RMM:   2    -0.434872221194E+02   -0.16506E-02   -0.77960E-03  2074   0.286E-01
    158 T=  1001. E= -.43907028E+02 F= -.43487222E+02 E0= -.43437589E+02  EK= 0.45276E+01 SP= -.50E+01 SK= 0.22E-01 mag=     -0.021
       N       E                     dE             d eps       ncg     rms          rms(c)
DAV:   1    -0.434876947022E+02   -0.21232E-02   -0.18923E-02  3392   0.117E+00    0.108E-01
RMM:   2    -0.434898490979E+02   -0.21544E-02   -0.80327E-03  2046   0.312E-01    0.872E-02
RMM:   3    -0.434915149006E+02   -0.16658E-02   -0.32571E-03  1923   0.135E-01
    159 T=   982. E= -.43904090E+02 F= -.43491515E+02 E0= -.43441693E+02  EK= 0.44443E+01 SP= -.49E+01 SK= 0.39E-01 mag=     -0.160
       N       E                     dE             d eps       ncg     rms          rms(c)
DAV:   1    -0.434886923777E+02    0.11567E-02   -0.35182E-02  3632   0.121E+00    0.956E-02
RMM:   2    -0.434902358223E+02   -0.15434E-02   -0.56815E-03  1905   0.297E-01
    160 T=   959. E= -.43894801E+02 F= -.43490236E+02 E0= -.43439943E+02  EK= 0.43391E+01 SP= -.48E+01 SK= 0.59E-01 mag=     -0.155
       N       E                     dE             d eps       ncg     rms          rms(c)
DAV:   1    -0.434765537850E+02    0.12139E-01   -0.39028E-02  4080   0.123E+00    0.151E-01
RMM:   2    -0.434796591781E+02   -0.31054E-02   -0.83469E-03  2003   0.261E-01    0.124E-01
RMM:   3    -0.434825994871E+02   -0.29403E-02   -0.31393E-03  1824   0.114E-01    0.937E-02
RMM:   4    -0.434848793296E+02   -0.22798E-02   -0.38713E-03  1838   0.971E-02    0.256E-02
RMM:   5    -0.434850073913E+02   -0.12806E-03   -0.51100E-04  1608   0.545E-02
    161 T=   930. E= -.43889668E+02 F= -.43485007E+02 E0= -.43434194E+02  EK= 0.42079E+01 SP= -.47E+01 SK= 0.79E-01 mag=      0.014
       N       E                     dE             d eps       ncg     rms          rms(c)
DAV:   1    -0.434644771642E+02    0.20402E-01   -0.30366E-02  3288   0.109E+00    0.166E-01
RMM:   2    -0.434677538823E+02   -0.32767E-02   -0.97954E-03  1898   0.264E-01    0.133E-01
RMM:   3    -0.434702599441E+02   -0.25061E-02   -0.28394E-03  1834   0.105E-01    0.106E-01
RMM:   4    -0.434733227633E+02   -0.30628E-02   -0.56886E-03  1930   0.969E-02    0.443E-02
RMM:   5    -0.434736120272E+02   -0.28926E-03   -0.50573E-04  1591   0.560E-02
    162 T=   896. E= -.43887625E+02 F= -.43473612E+02 E0= -.43422496E+02  EK= 0.40552E+01 SP= -.46E+01 SK= 0.96E-01 mag=      0.033
       N       E                     dE             d eps       ncg     rms          rms(c)
DAV:   1    -0.434575613965E+02    0.15761E-01   -0.17869E-02  3512   0.111E+00    0.561E-02
RMM:   2    -0.434585547474E+02   -0.99335E-03   -0.53203E-03  2063   0.263E-01
    163 T=   861. E= -.43881549E+02 F= -.43458555E+02 E0= -.43407163E+02  EK= 0.38965E+01 SP= -.44E+01 SK= 0.11E+00 mag=     -0.075
       N       E                     dE             d eps       ncg     rms          rms(c)
DAV:   1    -0.434384066026E+02    0.19155E-01   -0.19820E-02  3856   0.114E+00    0.790E-02
RMM:   2    -0.434400294260E+02   -0.16228E-02   -0.62511E-03  2020   0.259E-01
    164 T=   825. E= -.43875942E+02 F= -.43440029E+02 E0= -.43388579E+02  EK= 0.37327E+01 SP= -.43E+01 SK= 0.12E+00 mag=     -0.222
       N       E                     dE             d eps       ncg     rms          rms(c)
DAV:   1    -0.434187767068E+02    0.19630E-01   -0.14890E-02  3264   0.107E+00    0.914E-02
RMM:   2    -0.434202440117E+02   -0.14673E-02   -0.58268E-03  2015   0.282E-01
    165 T=   789. E= -.43871123E+02 F= -.43420244E+02 E0= -.43368667E+02  EK= 0.35704E+01 SP= -.41E+01 SK= 0.12E+00 mag=     -0.280
       N       E                     dE             d eps       ncg     rms          rms(c)
DAV:   1    -0.433999590250E+02    0.18818E-01   -0.22059E-02  3672   0.113E+00    0.506E-02
RMM:   2    -0.434010512237E+02   -0.10922E-02   -0.61191E-03  2004   0.281E-01
    166 T=   755. E= -.43865881E+02 F= -.43401051E+02 E0= -.43349023E+02  EK= 0.34167E+01 SP= -.40E+01 SK= 0.11E+00 mag=     -0.176
       N       E                     dE             d eps       ncg     rms          rms(c)
DAV:   1    -0.433793069458E+02    0.20652E-01   -0.14788E-02  3208   0.102E+00    0.460E-02
RMM:   2    -0.433803550250E+02   -0.10481E-02   -0.62940E-03  2005   0.291E-01
    167 T=   723. E= -.43859763E+02 F= -.43380355E+02 E0= -.43328082E+02  EK= 0.32728E+01 SP= -.39E+01 SK= 0.10E+00 mag=      0.070
       N       E                     dE             d eps       ncg     rms          rms(c)
DAV:   1    -0.433559483537E+02    0.23359E-01   -0.18704E-02  3568   0.105E+00    0.105E-01
RMM:   2    -0.433578338733E+02   -0.18855E-02   -0.64929E-03  2007   0.268E-01    0.877E-02
RMM:   3    -0.433599138263E+02   -0.20800E-02   -0.40401E-03  1824   0.124E-01    0.559E-02
RMM:   4    -0.433607569564E+02   -0.84313E-03   -0.20976E-03  1824   0.846E-02
    168 T=   694. E= -.43855126E+02 F= -.43360757E+02 E0= -.43308338E+02  EK= 0.31414E+01 SP= -.37E+01 SK= 0.88E-01 mag=      0.050
       N       E                     dE             d eps       ncg     rms          rms(c)
DAV:   1    -0.433372338483E+02    0.22680E-01   -0.19828E-02  3256   0.975E-01    0.107E-01
RMM:   2    -0.433391831736E+02   -0.19493E-02   -0.62661E-03  1856   0.238E-01    0.865E-02
RMM:   3    -0.433407227926E+02   -0.15396E-02   -0.27654E-03  1824   0.946E-02
    169 T=   669. E= -.43849498E+02 F= -.43340723E+02 E0= -.43288287E+02  EK= 0.30251E+01 SP= -.36E+01 SK= 0.70E-01 mag=     -0.065
       N       E                     dE             d eps       ncg     rms          rms(c)
DAV:   1    -0.433226948566E+02    0.16488E-01   -0.37122E-02  3384   0.966E-01    0.857E-02
RMM:   2    -0.433241132626E+02   -0.14184E-02   -0.56959E-03  1932   0.259E-01
    170 T=   647. E= -.43843862E+02 F= -.43324113E+02 E0= -.43271664E+02  EK= 0.29278E+01 SP= -.35E+01 SK= 0.52E-01 mag=     -0.201
       N       E                     dE             d eps       ncg     rms          rms(c)
DAV:   1    -0.433082974621E+02    0.14397E-01   -0.49043E-02  3312   0.101E+00    0.594E-02
RMM:   2    -0.433093703698E+02   -0.10729E-02   -0.55543E-03  2014   0.260E-01
    171 T=   629. E= -.43839411E+02 F= -.43309370E+02 E0= -.43256939E+02  EK= 0.28474E+01 SP= -.34E+01 SK= 0.34E-01 mag=     -0.269
       N       E                     dE             d eps       ncg     rms          rms(c)
DAV:   1    -0.432963263065E+02    0.11971E-01   -0.22531E-02  3184   0.918E-01    0.625E-02
RMM:   2    -0.432972606961E+02   -0.93439E-03   -0.56455E-03  2007   0.268E-01
    172 T=   616. E= -.43834126E+02 F= -.43297261E+02 E0= -.43244733E+02  EK= 0.27870E+01 SP= -.33E+01 SK= 0.19E-01 mag=     -0.202
       N       E                     dE             d eps       ncg     rms          rms(c)
DAV:   1    -0.432868779234E+02    0.94484E-02   -0.15443E-02  3208   0.992E-01    0.653E-02
RMM:   2    -0.432879833910E+02   -0.11055E-02   -0.56168E-03  2001   0.257E-01
    173 T=   607. E= -.43827167E+02 F= -.43287983E+02 E0= -.43235390E+02  EK= 0.27477E+01 SP= -.33E+01 SK= 0.78E-02 mag=     -0.001
       N       E                     dE             d eps       ncg     rms          rms(c)
DAV:   1    -0.432807921216E+02    0.60858E-02   -0.95712E-03  3112   0.907E-01    0.704E-02
RMM:   2    -0.432819353163E+02   -0.11432E-02   -0.53821E-03  2018   0.272E-01
    174 T=   603. E= -.43820199E+02 F= -.43281935E+02 E0= -.43229530E+02  EK= 0.27285E+01 SP= -.33E+01 SK= 0.14E-02 mag=      0.219
       N       E                     dE             d eps       ncg     rms          rms(c)
DAV:   1    -0.432785144538E+02    0.22777E-02   -0.15741E-02  3360   0.102E+00    0.735E-02
RMM:   2    -0.432795072786E+02   -0.99282E-03   -0.53172E-03  1967   0.272E-01
    175 T=   603. E= -.43813738E+02 F= -.43279507E+02 E0= -.43227266E+02  EK= 0.27290E+01 SP= -.33E+01 SK= 0.23E-03 mag=      0.347
       N       E                     dE             d eps       ncg     rms          rms(c)
DAV:   1    -0.432777731900E+02    0.74126E-03   -0.16445E-02  3064   0.902E-01    0.834E-02
RMM:   2    -0.432792540254E+02   -0.14808E-02   -0.66022E-03  2019   0.265E-01
    176 T=   608. E= -.43806779E+02 F= -.43279254E+02 E0= -.43227054E+02  EK= 0.27489E+01 SP= -.33E+01 SK= 0.44E-02 mag=      0.244
       N       E                     dE             d eps       ncg     rms          rms(c)
DAV:   1    -0.432821902127E+02   -0.44170E-02   -0.17878E-02  3296   0.998E-01    0.842E-02
RMM:   2    -0.432833161294E+02   -0.11259E-02   -0.54279E-03  2014   0.273E-01
    177 T=   616. E= -.43800945E+02 F= -.43283316E+02 E0= -.43230934E+02  EK= 0.27886E+01 SP= -.33E+01 SK= 0.13E-01 mag=     -0.063
       N       E                     dE             d eps       ncg     rms          rms(c)
DAV:   1    -0.432875037359E+02   -0.53135E-02   -0.18572E-02  3056   0.923E-01    0.927E-02
RMM:   2    -0.432890961800E+02   -0.15924E-02   -0.61366E-03  2006   0.284E-01
    178 T=   629. E= -.43794255E+02 F= -.43289096E+02 E0= -.43237242E+02  EK= 0.28473E+01 SP= -.34E+01 SK= 0.26E-01 mag=     -0.360
       N       E                     dE             d eps       ncg     rms          rms(c)
DAV:   1    -0.432962564515E+02   -0.87527E-02   -0.17745E-02  3080   0.101E+00    0.103E-01
RMM:   2    -0.432977518916E+02   -0.14954E-02   -0.65959E-03  2014   0.301E-01
    179 T=   647. E= -.43787246E+02 F= -.43297752E+02 E0= -.43246312E+02  EK= 0.29257E+01 SP= -.35E+01 SK= 0.42E-01 mag=     -0.484
       N       E                     dE             d eps       ncg     rms          rms(c)
DAV:   1    -0.433048374825E+02   -0.85810E-02   -0.19307E-02  3256   0.971E-01    0.123E-01
RMM:   2    -0.433072009975E+02   -0.23635E-02   -0.75885E-03  2028   0.294E-01    0.102E-01
RMM:   3    -0.433088794114E+02   -0.16784E-02   -0.30618E-03  1872   0.119E-01
    180 T=   668. E= -.43782318E+02 F= -.43308879E+02 E0= -.43257132E+02  EK= 0.30203E+01 SP= -.36E+01 SK= 0.59E-01 mag=     -0.150
       N       E                     dE             d eps       ncg     rms          rms(c)
DAV:   1    -0.433183621529E+02   -0.11161E-01   -0.33554E-02  3208   0.999E-01    0.124E-01
RMM:   2    -0.433205672121E+02   -0.22051E-02   -0.52187E-03  1892   0.253E-01    0.988E-02
RMM:   3    -0.433212834556E+02   -0.71624E-03   -0.12862E-03  1729   0.946E-02
    181 T=   692. E= -.43779016E+02 F= -.43321283E+02 E0= -.43269924E+02  EK= 0.31298E+01 SP= -.37E+01 SK= 0.76E-01 mag=      0.306
       N       E                     dE             d eps       ncg     rms          rms(c)
DAV:   1    -0.433288714462E+02   -0.83042E-02   -0.66542E-02  3328   0.104E+00    0.163E-01
RMM:   2    -0.433315092536E+02   -0.26378E-02   -0.72839E-03  2029   0.290E-01    0.126E-01
RMM:   3    -0.433333006152E+02   -0.17914E-02   -0.22008E-03  1974   0.120E-01
    182 T=   719. E= -.43774734E+02 F= -.43333301E+02 E0= -.43282474E+02  EK= 0.32542E+01 SP= -.38E+01 SK= 0.90E-01 mag=      0.318
       N       E                     dE             d eps       ncg     rms          rms(c)
DAV:   1    -0.433480484591E+02   -0.16539E-01   -0.29897E-02  3216   0.109E+00    0.110E-01
RMM:   2    -0.433493103487E+02   -0.12619E-02   -0.62147E-03  1965   0.285E-01
    183 T=   750. E= -.43773063E+02 F= -.43349310E+02 E0= -.43297642E+02  EK= 0.33925E+01 SP= -.39E+01 SK= 0.10E+00 mag=     -0.076
       N       E                     dE             d eps       ncg     rms          rms(c)
DAV:   1    -0.433555694093E+02   -0.75210E-02   -0.41703E-02  3584   0.108E+00    0.144E-01
RMM:   2    -0.433580818318E+02   -0.25124E-02   -0.83064E-03  2016   0.301E-01    0.115E-01
RMM:   3    -0.433601302044E+02   -0.20484E-02   -0.29905E-03  1947   0.123E-01    0.927E-02
RMM:   4    -0.433621342977E+02   -0.20041E-02   -0.25055E-03  1831   0.899E-02    0.436E-02
RMM:   5    -0.433625706749E+02   -0.43638E-03   -0.83309E-04  1649   0.581E-02
    184 T=   782. E= -.43770520E+02 F= -.43362571E+02 E0= -.43311341E+02  EK= 0.35396E+01 SP= -.41E+01 SK= 0.11E+00 mag=     -0.069
       N       E                     dE             d eps       ncg     rms          rms(c)
DAV:   1    -0.433717167209E+02   -0.95824E-02   -0.21254E-02  3272   0.110E+00    0.135E-01
RMM:   2    -0.433731330407E+02   -0.14163E-02   -0.52384E-03  1936   0.248E-01
    185 T=   816. E= -.43765781E+02 F= -.43373133E+02 E0= -.43322257E+02  EK= 0.36937E+01 SP= -.42E+01 SK= 0.11E+00 mag=      0.230
       N       E                     dE             d eps       ncg     rms          rms(c)
DAV:   1    -0.433766038308E+02   -0.48871E-02   -0.27522E-02  3744   0.117E+00    0.170E-01
RMM:   2    -0.433798243514E+02   -0.32205E-02   -0.69409E-03  2011   0.260E-01    0.136E-01
RMM:   3    -0.433816678693E+02   -0.18435E-02   -0.18658E-03  1868   0.106E-01    0.111E-01
RMM:   4    -0.433850801211E+02   -0.34123E-02   -0.47493E-03  2043   0.103E-01    0.370E-02
RMM:   5    -0.433853497924E+02   -0.26967E-03   -0.47253E-04  1635   0.576E-02
    186 T=   851. E= -.43764053E+02 F= -.43385350E+02 E0= -.43334604E+02  EK= 0.38505E+01 SP= -.43E+01 SK= 0.10E+00 mag=      0.069
       N       E                     dE             d eps       ncg     rms          rms(c)
DAV:   1    -0.433841200870E+02    0.96003E-03   -0.25352E-02  3376   0.112E+00    0.200E-01
RMM:   2    -0.433879730213E+02   -0.38529E-02   -0.99185E-03  1849   0.312E-01    0.149E-01
RMM:   3    -0.433901654213E+02   -0.21924E-02   -0.28410E-03  1834   0.131E-01    0.115E-01
RMM:   4    -0.433932376971E+02   -0.30723E-02   -0.47289E-03  1945   0.112E-01    0.527E-02
RMM:   5    -0.433936727006E+02   -0.43500E-03   -0.49932E-04  1627   0.668E-02
    187 T=   885. E= -.43763302E+02 F= -.43393673E+02 E0= -.43343228E+02  EK= 0.40020E+01 SP= -.45E+01 SK= 0.90E-01 mag=     -0.063
       N       E                     dE             d eps       ncg     rms          rms(c)
DAV:   1    -0.433980547284E+02   -0.48170E-02   -0.17612E-02  3392   0.114E+00    0.850E-02
RMM:   2    -0.433994078228E+02   -0.13531E-02   -0.60939E-03  1994   0.273E-01
    188 T=   917. E= -.43758002E+02 F= -.43399408E+02 E0= -.43349492E+02  EK= 0.41504E+01 SP= -.46E+01 SK= 0.75E-01 mag=     -0.153
       N       E                     dE             d eps       ncg     rms          rms(c)
DAV:   1    -0.434002630925E+02   -0.22084E-02   -0.22493E-02  3872   0.120E+00    0.925E-02
RMM:   2    -0.434023186461E+02   -0.20556E-02   -0.74033E-03  2037   0.276E-01    0.685E-02
RMM:   3    -0.434031042524E+02   -0.78561E-03   -0.20692E-03  1876   0.107E-01
    189 T=   947. E= -.43754157E+02 F= -.43403104E+02 E0= -.43353468E+02  EK= 0.42847E+01 SP= -.47E+01 SK= 0.57E-01 mag=     -0.144
       N       E                     dE             d eps       ncg     rms          rms(c)
DAV:   1    -0.434023333683E+02   -0.14722E-04   -0.24558E-02  3360   0.120E+00    0.104E-01
RMM:   2    -0.434041223476E+02   -0.17890E-02   -0.49560E-03  2003   0.288E-01
    190 T=   973. E= -.43748621E+02 F= -.43404122E+02 E0= -.43354660E+02  EK= 0.44021E+01 SP= -.48E+01 SK= 0.39E-01 mag=      0.012
       N       E                     dE             d eps       ncg     rms          rms(c)
DAV:   1    -0.433991729116E+02    0.31605E-02   -0.53028E-02  3984   0.128E+00    0.848E-02
RMM:   2    -0.434012410314E+02   -0.20681E-02   -0.76127E-03  2028   0.274E-01    0.599E-02
RMM:   3    -0.434020654543E+02   -0.82442E-03   -0.25230E-03  1924   0.108E-01
    191 T=   994. E= -.43742162E+02 F= -.43402065E+02 E0= -.43353245E+02  EK= 0.44964E+01 SP= -.49E+01 SK= 0.22E-01 mag=      0.209
       N       E                     dE             d eps       ncg     rms          rms(c)
DAV:   1    -0.433931710188E+02    0.80700E-02   -0.18662E-02  3080   0.120E+00    0.136E-01
RMM:   2    -0.433957485937E+02   -0.25776E-02   -0.68165E-03  1916   0.309E-01    0.924E-02
RMM:   3    -0.433966786863E+02   -0.93009E-03   -0.17945E-03  1814   0.123E-01
    192 T=  1008. E= -.43738160E+02 F= -.43396679E+02 E0= -.43347893E+02  EK= 0.45594E+01 SP= -.49E+01 SK= 0.90E-02 mag=      0.148
       N       E                     dE             d eps       ncg     rms          rms(c)
DAV:   1    -0.433875432860E+02    0.82053E-02   -0.54474E-02  3664   0.125E+00    0.683E-02
RMM:   2    -0.433889728196E+02   -0.14295E-02   -0.63848E-03  2035   0.306E-01
    193 T=  1016. E= -.43730962E+02 F= -.43388973E+02 E0= -.43340450E+02  EK= 0.45948E+01 SP= -.49E+01 SK= 0.15E-02 mag=     -0.122
       N       E                     dE             d eps       ncg     rms          rms(c)
DAV:   1    -0.433763050049E+02    0.11238E-01   -0.45095E-02  3776   0.124E+00    0.948E-02
RMM:   2    -0.433781076506E+02   -0.18026E-02   -0.75844E-03  2041   0.300E-01    0.728E-02
RMM:   3    -0.433788241491E+02   -0.71650E-03   -0.19343E-03  1993   0.120E-01
    194 T=  1016. E= -.43726135E+02 F= -.43378824E+02 E0= -.43330942E+02  EK= 0.45950E+01 SP= -.49E+01 SK= 0.33E-03 mag=     -0.215
       N       E                     dE             d eps       ncg     rms          rms(c)
DAV:   1    -0.433667697379E+02    0.11338E-01   -0.23271E-02  3392   0.121E+00    0.926E-02
RMM:   2    -0.433682355497E+02   -0.14658E-02   -0.62797E-03  1969   0.295E-01
    195 T=  1009. E= -.43719036E+02 F= -.43368236E+02 E0= -.43320382E+02  EK= 0.45666E+01 SP= -.49E+01 SK= 0.55E-02 mag=     -0.112
       N       E                     dE             d eps       ncg     rms          rms(c)
DAV:   1    -0.433545097232E+02    0.12260E-01   -0.38696E-02  4104   0.129E+00    0.750E-02
RMM:   2    -0.433558872641E+02   -0.13775E-02   -0.60152E-03  2043   0.262E-01
    196 T=   997. E= -.43710753E+02 F= -.43355887E+02 E0= -.43308220E+02  EK= 0.45086E+01 SP= -.49E+01 SK= 0.16E-01 mag=      0.133
       N       E                     dE             d eps       ncg     rms          rms(c)
DAV:   1    -0.433409002024E+02    0.13610E-01   -0.13206E-02  2704   0.112E+00    0.874E-02
RMM:   2    -0.433426821658E+02   -0.17820E-02   -0.78092E-03  2046   0.332E-01
    197 T=   977. E= -.43704281E+02 F= -.43342682E+02 E0= -.43295678E+02  EK= 0.44218E+01 SP= -.48E+01 SK= 0.31E-01 mag=      0.382
       N       E                     dE             d eps       ncg     rms          rms(c)
DAV:   1    -0.433284436153E+02    0.12457E-01   -0.32380E-02  3856   0.132E+00    0.103E-01
RMM:   2    -0.433305454575E+02   -0.21018E-02   -0.80693E-03  2051   0.318E-01    0.803E-02
RMM:   3    -0.433312637930E+02   -0.71834E-03   -0.21107E-03  1951   0.120E-01
    198 T=   954. E= -.43698126E+02 F= -.43331264E+02 E0= -.43284613E+02  EK= 0.43143E+01 SP= -.47E+01 SK= 0.49E-01 mag=      0.298
       N       E                     dE             d eps       ncg     rms          rms(c)
DAV:   1    -0.433207533092E+02    0.97921E-02   -0.25794E-02  3336   0.121E+00    0.953E-02
RMM:   2    -0.433223815793E+02   -0.16283E-02   -0.63217E-03  1979   0.318E-01
    199 T=   927. E= -.43689796E+02 F= -.43322382E+02 E0= -.43275250E+02  EK= 0.41941E+01 SP= -.46E+01 SK= 0.67E-01 mag=     -0.109
       N       E                     dE             d eps       ncg     rms          rms(c)
DAV:   1    -0.433082908491E+02    0.12462E-01   -0.51734E-02  3992   0.126E+00    0.140E-01
RMM:   2    -0.433109554110E+02   -0.26646E-02   -0.79525E-03  2059   0.271E-01    0.111E-01
RMM:   3    -0.433131378184E+02   -0.21824E-02   -0.30996E-03  1870   0.119E-01    0.861E-02
RMM:   4    -0.433149103374E+02   -0.17725E-02   -0.24962E-03  1843   0.882E-02
    200 T=   898. E= -.43681464E+02 F= -.43314910E+02 E0= -.43268101E+02  EK= 0.40626E+01 SP= -.45E+01 SK= 0.83E-01 mag=     -0.157
       N       E                     dE             d eps       ncg     rms          rms(c)
DAV:   1    -0.433065432147E+02    0.65946E-02   -0.22344E-02  3352   0.116E+00    0.135E-01
RMM:   2    -0.433089265456E+02   -0.23833E-02   -0.97779E-03  1934   0.321E-01    0.934E-02
RMM:   3    -0.433100723619E+02   -0.11458E-02   -0.32045E-03  1824   0.131E-01
    201 T=   867. E= -.43677699E+02 F= -.43310072E+02 E0= -.43263180E+02  EK= 0.39216E+01 SP= -.44E+01 SK= 0.96E-01 mag=      0.103
       N       E                     dE             d eps       ncg     rms          rms(c)
DAV:   1    -0.433039143395E+02    0.50122E-02   -0.37288E-02  3672   0.116E+00    0.142E-01
RMM:   2    -0.433063298699E+02   -0.24155E-02   -0.69079E-03  1915   0.287E-01    0.107E-01
RMM:   3    -0.433080193518E+02   -0.16895E-02   -0.24575E-03  1828   0.122E-01
    202 T=   836. E= -.43671806E+02 F= -.43308019E+02 E0= -.43261513E+02  EK= 0.37823E+01 SP= -.43E+01 SK= 0.10E+00 mag=      0.270
       N       E                     dE             d eps       ncg     rms          rms(c)
DAV:   1    -0.433096621036E+02   -0.33322E-02   -0.26791E-02  3384   0.108E+00    0.969E-02
RMM:   2    -0.433109914200E+02   -0.13293E-02   -0.55861E-03  1940   0.282E-01
    203 T=   806. E= -.43666482E+02 F= -.43310991E+02 E0= -.43264431E+02  EK= 0.36485E+01 SP= -.41E+01 SK= 0.11E+00 mag=      0.256
       N       E                     dE             d eps       ncg     rms          rms(c)
DAV:   1    -0.433155424908E+02   -0.58804E-02   -0.28906E-02  3656   0.107E+00    0.844E-02
RMM:   2    -0.433169423107E+02   -0.13998E-02   -0.60613E-03  2011   0.266E-01
    204 T=   779. E= -.43660879E+02 F= -.43316942E+02 E0= -.43270070E+02  EK= 0.35222E+01 SP= -.40E+01 SK= 0.11E+00 mag=      0.049
       N       E                     dE             d eps       ncg     rms          rms(c)
DAV:   1    -0.433248032394E+02   -0.92607E-02   -0.18958E-02  3400   0.111E+00    0.117E-01
RMM:   2    -0.433268711993E+02   -0.20680E-02   -0.67588E-03  2016   0.295E-01    0.947E-02
RMM:   3    -0.433286771279E+02   -0.18059E-02   -0.29120E-03  1894   0.124E-01    0.617E-02
RMM:   4    -0.433296398678E+02   -0.96274E-03   -0.13699E-03  1786   0.829E-02
    205 T=   753. E= -.43658927E+02 F= -.43329640E+02 E0= -.43282796E+02  EK= 0.34059E+01 SP= -.38E+01 SK= 0.10E+00 mag=     -0.077
       N       E                     dE             d eps       ncg     rms          rms(c)
DAV:   1    -0.433406773267E+02   -0.12000E-01   -0.21609E-02  3368   0.106E+00    0.128E-01
RMM:   2    -0.433428398047E+02   -0.21625E-02   -0.62404E-03  1852   0.254E-01    0.102E-01
RMM:   3    -0.433443448164E+02   -0.15050E-02   -0.22144E-03  1824   0.976E-02
    206 T=   731. E= -.43652181E+02 F= -.43344345E+02 E0= -.43297463E+02  EK= 0.33053E+01 SP= -.37E+01 SK= 0.91E-01 mag=     -0.049
       N       E                     dE             d eps       ncg     rms          rms(c)
DAV:   1    -0.433644061715E+02   -0.21566E-01   -0.28300E-02  3360   0.105E+00    0.113E-01
RMM:   2    -0.433655436036E+02   -0.11374E-02   -0.52757E-03  2003   0.288E-01
    207 T=   712. E= -.43645358E+02 F= -.43365544E+02 E0= -.43318535E+02  EK= 0.32217E+01 SP= -.36E+01 SK= 0.79E-01 mag=      0.095
       N       E                     dE             d eps       ncg     rms          rms(c)
DAV:   1    -0.433898360821E+02   -0.25430E-01   -0.32248E-02  3416   0.105E+00    0.762E-02
RMM:   2    -0.433909572473E+02   -0.11212E-02   -0.52405E-03  2005   0.267E-01
    208 T=   697. E= -.43640574E+02 F= -.43390957E+02 E0= -.43344128E+02  EK= 0.31514E+01 SP= -.35E+01 SK= 0.65E-01 mag=      0.273
       N       E                     dE             d eps       ncg     rms          rms(c)
DAV:   1    -0.434191621015E+02   -0.29326E-01   -0.17079E-02  3400   0.996E-01    0.912E-02
RMM:   2    -0.434203491268E+02   -0.11870E-02   -0.59637E-03  1971   0.283E-01
    209 T=   685. E= -.43635448E+02 F= -.43420349E+02 E0= -.43373652E+02  EK= 0.30975E+01 SP= -.34E+01 SK= 0.52E-01 mag=      0.361
       N       E                     dE             d eps       ncg     rms          rms(c)
DAV:   1    -0.434516750650E+02   -0.32513E-01   -0.16142E-02  2872   0.106E+00    0.106E-01
RMM:   2    -0.434533478779E+02   -0.16728E-02   -0.59131E-03  1970   0.271E-01
    210 T=   677. E= -.43627962E+02 F= -.43453348E+02 E0= -.43406388E+02  EK= 0.30617E+01 SP= -.33E+01 SK= 0.38E-01 mag=      0.265
       N       E                     dE             d eps       ncg     rms          rms(c)
DAV:   1    -0.434898819799E+02   -0.38207E-01   -0.12096E-02  3184   0.963E-01    0.109E-01
RMM:   2    -0.434915114681E+02   -0.16295E-02   -0.50709E-03  1989   0.276E-01
    211 T=   673. E= -.43621343E+02 F= -.43491511E+02 E0= -.43444205E+02  EK= 0.30425E+01 SP= -.32E+01 SK= 0.26E-01 mag=     -0.007
       N       E                     dE             d eps       ncg     rms          rms(c)
DAV:   1    -0.435331492871E+02   -0.43267E-01   -0.20930E-02  3624   0.113E+00    0.706E-02
RMM:   2    -0.435343506245E+02   -0.12013E-02   -0.71131E-03  1977   0.308E-01
    212 T=   672. E= -.43615310E+02 F= -.43534351E+02 E0= -.43487293E+02  EK= 0.30396E+01 SP= -.31E+01 SK= 0.17E-01 mag=     -0.331
       N       E                     dE             d eps       ncg     rms          rms(c)
DAV:   1    -0.435718518242E+02   -0.38703E-01   -0.26999E-02  3344   0.972E-01    0.143E-01
RMM:   2    -0.435747151563E+02   -0.28633E-02   -0.83730E-03  1985   0.301E-01    0.120E-01
RMM:   3    -0.435773524268E+02   -0.26373E-02   -0.36155E-03  1899   0.122E-01    0.889E-02
RMM:   4    -0.435797033726E+02   -0.23509E-02   -0.49570E-03  1969   0.111E-01    0.287E-02
RMM:   5    -0.435798123989E+02   -0.10903E-03   -0.46804E-04  1620   0.571E-02
    213 T=   674. E= -.43612352E+02 F= -.43579812E+02 E0= -.43532275E+02  EK= 0.30483E+01 SP= -.31E+01 SK= 0.90E-02 mag=     -0.054
       N       E                     dE             d eps       ncg     rms          rms(c)
DAV:   1    -0.436204485971E+02   -0.40745E-01   -0.22101E-02  3264   0.993E-01    0.135E-01
RMM:   2    -0.436226385513E+02   -0.21900E-02   -0.56858E-03  1912   0.223E-01    0.112E-01
RMM:   3    -0.436247583602E+02   -0.21198E-02   -0.29586E-03  1824   0.972E-02    0.833E-02
RMM:   4    -0.436264671542E+02   -0.17088E-02   -0.25384E-03  1838   0.801E-02
    214 T=   678. E= -.43610195E+02 F= -.43626467E+02 E0= -.43579009E+02  EK= 0.30691E+01 SP= -.31E+01 SK= 0.39E-02 mag=      0.132
       N       E                     dE             d eps       ncg     rms          rms(c)
DAV:   1    -0.436749086971E+02   -0.50150E-01   -0.14459E-02  3312   0.100E+00    0.683E-02
RMM:   2    -0.436756223320E+02   -0.71363E-03   -0.43783E-03  1979   0.244E-01
    215 T=   687. E= -.43605634E+02 F= -.43675622E+02 E0= -.43628012E+02  EK= 0.31062E+01 SP= -.30E+01 SK= 0.98E-03 mag=      0.161
       N       E                     dE             d eps       ncg     rms          rms(c)
DAV:   1    -0.437256117500E+02   -0.50703E-01   -0.16151E-02  3512   0.101E+00    0.306E-02
RMM:   2    -0.437263417832E+02   -0.73003E-03   -0.54505E-03  2016   0.274E-01
    216 T=   697. E= -.43601924E+02 F= -.43726342E+02 E0= -.43678489E+02  EK= 0.31546E+01 SP= -.30E+01 SK= 0.78E-05 mag=      0.029
       N       E                     dE             d eps       ncg     rms          rms(c)
DAV:   1    -0.437766746242E+02   -0.51063E-01   -0.11291E-02  2800   0.101E+00    0.541E-02
RMM:   2    -0.437774241655E+02   -0.74954E-03   -0.47735E-03  2003   0.259E-01
    217 T=   710. E= -.43599119E+02 F= -.43777424E+02 E0= -.43729602E+02  EK= 0.32126E+01 SP= -.30E+01 SK= 0.51E-03 mag=     -0.196
       N       E                     dE             d eps       ncg     rms          rms(c)
DAV:   1    -0.438268838311E+02   -0.50209E-01   -0.14477E-02  3360   0.105E+00    0.725E-02
RMM:   2    -0.438280144566E+02   -0.11306E-02   -0.54904E-03  2006   0.280E-01
    218 T=   726. E= -.43592757E+02 F= -.43828014E+02 E0= -.43780549E+02  EK= 0.32827E+01 SP= -.30E+01 SK= 0.20E-02 mag=     -0.369
       N       E                     dE             d eps       ncg     rms          rms(c)
DAV:   1    -0.438780553025E+02   -0.51171E-01   -0.13024E-02  3352   0.103E+00    0.720E-02
RMM:   2    -0.438791387409E+02   -0.10834E-02   -0.56272E-03  2019   0.290E-01
    219 T=   743. E= -.43586509E+02 F= -.43879139E+02 E0= -.43831582E+02  EK= 0.33611E+01 SP= -.31E+01 SK= 0.38E-02 mag=     -0.344
       N       E                     dE             d eps       ncg     rms          rms(c)
DAV:   1    -0.439294355629E+02   -0.51380E-01   -0.11621E-02  2960   0.109E+00    0.316E-02
RMM:   2    -0.439302607238E+02   -0.82516E-03   -0.62659E-03  2060   0.299E-01
    220 T=   761. E= -.43581784E+02 F= -.43930261E+02 E0= -.43882141E+02  EK= 0.34445E+01 SP= -.31E+01 SK= 0.55E-02 mag=     -0.098
       N       E                     dE             d eps       ncg     rms          rms(c)
DAV:   1    -0.439768336160E+02   -0.47398E-01   -0.16197E-02  3400   0.106E+00    0.639E-02
RMM:   2    -0.439778288142E+02   -0.99520E-03   -0.58467E-03  2019   0.282E-01
    221 T=   780. E= -.43575841E+02 F= -.43977829E+02 E0= -.43929909E+02  EK= 0.35304E+01 SP= -.31E+01 SK= 0.67E-02 mag=      0.262
       N       E                     dE             d eps       ncg     rms          rms(c)
DAV:   1    -0.440195297034E+02   -0.42696E-01   -0.17673E-02  3200   0.110E+00    0.102E-01
RMM:   2    -0.440212678148E+02   -0.17381E-02   -0.66536E-03  1996   0.303E-01
    222 T=   799. E= -.43568101E+02 F= -.44021268E+02 E0= -.43974163E+02  EK= 0.36169E+01 SP= -.32E+01 SK= 0.72E-02 mag=      0.533
       N       E                     dE             d eps       ncg     rms          rms(c)
DAV:   1    -0.440617926613E+02   -0.42263E-01   -0.15629E-02  3384   0.110E+00    0.990E-02
RMM:   2    -0.440634948810E+02   -0.17022E-02   -0.67713E-03  2015   0.313E-01
    223 T=   818. E= -.43561598E+02 F= -.44063495E+02 E0= -.44016294E+02  EK= 0.37019E+01 SP= -.32E+01 SK= 0.68E-02 mag=      0.478
       N       E                     dE             d eps       ncg     rms          rms(c)
DAV:   1    -0.441028750486E+02   -0.41082E-01   -0.16252E-02  3248   0.113E+00    0.412E-02
RMM:   2    -0.441038550021E+02   -0.97995E-03   -0.71850E-03  2057   0.326E-01
    224 T=   836. E= -.43556606E+02 F= -.44103855E+02 E0= -.44055658E+02  EK= 0.37822E+01 SP= -.32E+01 SK= 0.57E-02 mag=      0.075
       N       E                     dE             d eps       ncg     rms          rms(c)
DAV:   1    -0.441331820171E+02   -0.30307E-01   -0.21004E-02  3512   0.111E+00    0.106E-01
RMM:   2    -0.441350960489E+02   -0.19140E-02   -0.83639E-03  2064   0.319E-01    0.858E-02
RMM:   3    -0.441362397629E+02   -0.11437E-02   -0.28203E-03  1919   0.126E-01
    225 T=   852. E= -.43549618E+02 F= -.44136240E+02 E0= -.44088644E+02  EK= 0.38529E+01 SP= -.33E+01 SK= 0.41E-02 mag=     -0.261
       N       E                     dE             d eps       ncg     rms          rms(c)
DAV:   1    -0.441640091022E+02   -0.28913E-01   -0.24711E-02  3376   0.112E+00    0.963E-02
RMM:   2    -0.441651836880E+02   -0.11746E-02   -0.51312E-03  1922   0.279E-01
    226 T=   865. E= -.43542528E+02 F= -.44165184E+02 E0= -.44117682E+02  EK= 0.39147E+01 SP= -.33E+01 SK= 0.23E-02 mag=     -0.372
       N       E                     dE             d eps       ncg     rms          rms(c)
DAV:   1    -0.441882874492E+02   -0.24278E-01   -0.31948E-02  3880   0.119E+00    0.611E-02
RMM:   2    -0.441893900602E+02   -0.11026E-02   -0.61230E-03  2017   0.266E-01
    227 T=   876. E= -.43536852E+02 F= -.44189390E+02 E0= -.44141437E+02  EK= 0.39628E+01 SP= -.33E+01 SK= 0.88E-03 mag=     -0.195
       N       E                     dE             d eps       ncg     rms          rms(c)
DAV:   1    -0.442056590533E+02   -0.17372E-01   -0.13790E-02  3088   0.107E+00    0.801E-02
RMM:   2    -0.442069732033E+02   -0.13142E-02   -0.68350E-03  2030   0.309E-01
    228 T=   883. E= -.43531520E+02 F= -.44206973E+02 E0= -.44159041E+02  EK= 0.39948E+01 SP= -.33E+01 SK= 0.74E-04 mag=      0.182
       N       E                     dE             d eps       ncg     rms          rms(c)
DAV:   1    -0.442151291645E+02   -0.94701E-02   -0.24713E-02  3576   0.126E+00    0.116E-01
RMM:   2    -0.442172089442E+02   -0.20798E-02   -0.80354E-03  2056   0.315E-01    0.916E-02
RMM:   3    -0.442182269289E+02   -0.10180E-02   -0.24466E-03  1941   0.125E-01
    229 T=   887. E= -.43525046E+02 F= -.44218227E+02 E0= -.44171092E+02  EK= 0.40114E+01 SP= -.33E+01 SK= 0.19E-03 mag=      0.207
       N       E                     dE             d eps       ncg     rms          rms(c)
DAV:   1    -0.442238020647E+02   -0.65931E-02   -0.43226E-02  3304   0.117E+00    0.105E-01
RMM:   2    -0.442255586629E+02   -0.17566E-02   -0.67045E-03  1965   0.307E-01
    230 T=   887. E= -.43517585E+02 F= -.44225559E+02 E0= -.44177673E+02  EK= 0.40143E+01 SP= -.33E+01 SK= 0.14E-02 mag=     -0.096
       N       E                     dE             d eps       ncg     rms          rms(c)
DAV:   1    -0.442180358492E+02    0.57662E-02   -0.65257E-02  3824   0.126E+00    0.173E-01
RMM:   2    -0.442212405577E+02   -0.32047E-02   -0.90250E-03  2028   0.299E-01    0.136E-01
RMM:   3    -0.442251259602E+02   -0.38854E-02   -0.43446E-03  1899   0.136E-01    0.965E-02
RMM:   4    -0.442273354038E+02   -0.22094E-02   -0.30001E-03  1829   0.102E-01    0.383E-02
RMM:   5    -0.442276139463E+02   -0.27854E-03   -0.68029E-04  1619   0.568E-02
    231 T=   884. E= -.43511417E+02 F= -.44227614E+02 E0= -.44179744E+02  EK= 0.40000E+01 SP= -.33E+01 SK= 0.35E-02 mag=     -0.040
       N       E                     dE             d eps       ncg     rms          rms(c)
DAV:   1    -0.442133399014E+02    0.13996E-01   -0.31976E-02  3440   0.111E+00    0.179E-01
RMM:   2    -0.442166796322E+02   -0.33397E-02   -0.91476E-03  1885   0.288E-01    0.143E-01
RMM:   3    -0.442202964709E+02   -0.36168E-02   -0.42198E-03  1824   0.124E-01    0.103E-01
RMM:   4    -0.442226758592E+02   -0.23794E-02   -0.29429E-03  1824   0.997E-02    0.475E-02
RMM:   5    -0.442229871686E+02   -0.31131E-03   -0.45026E-04  1607   0.555E-02
    232 T=   876. E= -.43509906E+02 F= -.44222987E+02 E0= -.44175137E+02  EK= 0.39641E+01 SP= -.33E+01 SK= 0.65E-02 mag=      0.032
       N       E                     dE             d eps       ncg     rms          rms(c)
DAV:   1    -0.442118029894E+02    0.10873E-01   -0.17030E-02  3456   0.111E+00    0.641E-02
RMM:   2    -0.442127536041E+02   -0.95061E-03   -0.51372E-03  1979   0.265E-01
    233 T=   866. E= -.43504330E+02 F= -.44212754E+02 E0= -.44164961E+02  EK= 0.39177E+01 SP= -.32E+01 SK= 0.99E-02 mag=      0.091
       N       E                     dE             d eps       ncg     rms          rms(c)
DAV:   1    -0.441948570286E+02    0.16946E-01   -0.20287E-02  4016   0.116E+00    0.861E-02
RMM:   2    -0.441966205859E+02   -0.17636E-02   -0.66023E-03  1977   0.258E-01
    234 T=   853. E= -.43498434E+02 F= -.44196621E+02 E0= -.44148878E+02  EK= 0.38585E+01 SP= -.32E+01 SK= 0.13E-01 mag=      0.105
       N       E                     dE             d eps       ncg     rms          rms(c)
DAV:   1    -0.441764733184E+02    0.18384E-01   -0.17388E-02  3320   0.111E+00    0.983E-02
RMM:   2    -0.441780038604E+02   -0.15305E-02   -0.62621E-03  2011   0.302E-01
    235 T=   838. E= -.43492757E+02 F= -.44178004E+02 E0= -.44130237E+02  EK= 0.37911E+01 SP= -.31E+01 SK= 0.16E-01 mag=      0.056
       N       E                     dE             d eps       ncg     rms          rms(c)
DAV:   1    -0.441569146926E+02    0.19559E-01   -0.24968E-02  3488   0.117E+00    0.510E-02
RMM:   2    -0.441580444542E+02   -0.11298E-02   -0.68361E-03  2024   0.297E-01
    236 T=   822. E= -.43486194E+02 F= -.44158044E+02 E0= -.44110225E+02  EK= 0.37198E+01 SP= -.31E+01 SK= 0.18E-01 mag=     -0.044
       N       E                     dE             d eps       ncg     rms          rms(c)
DAV:   1    -0.441320175097E+02    0.24897E-01   -0.15437E-02  3112   0.106E+00    0.564E-02
RMM:   2    -0.441332478263E+02   -0.12303E-02   -0.71907E-03  2022   0.312E-01
    237 T=   805. E= -.43478356E+02 F= -.44133248E+02 E0= -.44085490E+02  EK= 0.36435E+01 SP= -.30E+01 SK= 0.19E-01 mag=     -0.153
       N       E                     dE             d eps       ncg     rms          rms(c)
DAV:   1    -0.441013446456E+02    0.30673E-01   -0.22087E-02  3720   0.113E+00    0.123E-01
RMM:   2    -0.441035352377E+02   -0.21906E-02   -0.71081E-03  1993   0.284E-01    0.102E-01
RMM:   3    -0.441060666842E+02   -0.25314E-02   -0.41588E-03  1824   0.133E-01    0.660E-02
RMM:   4    -0.441072208533E+02   -0.11542E-02   -0.21365E-03  1824   0.919E-02
    238 T=   788. E= -.43473106E+02 F= -.44107221E+02 E0= -.44059338E+02  EK= 0.35641E+01 SP= -.29E+01 SK= 0.19E-01 mag=     -0.041
       N       E                     dE             d eps       ncg     rms          rms(c)
DAV:   1    -0.440724532898E+02    0.33613E-01   -0.21322E-02  3376   0.105E+00    0.129E-01
RMM:   2    -0.440749062955E+02   -0.24530E-02   -0.69344E-03  1846   0.266E-01    0.107E-01
RMM:   3    -0.440771538656E+02   -0.22476E-02   -0.33114E-03  1824   0.105E-01    0.753E-02
RMM:   4    -0.440787438939E+02   -0.15900E-02   -0.27839E-03  1826   0.877E-02
    239 T=   770. E= -.43469332E+02 F= -.44078744E+02 E0= -.44030818E+02  EK= 0.34834E+01 SP= -.29E+01 SK= 0.17E-01 mag=      0.054
       N       E                     dE             d eps       ncg     rms          rms(c)
DAV:   1    -0.440479167723E+02    0.29237E-01   -0.15683E-02  3496   0.103E+00    0.648E-02
RMM:   2    -0.440487851445E+02   -0.86837E-03   -0.50108E-03  1983   0.239E-01
    240 T=   753. E= -.43463337E+02 F= -.44048785E+02 E0= -.44000807E+02  EK= 0.34079E+01 SP= -.28E+01 SK= 0.15E-01 mag=      0.087
       N       E                     dE             d eps       ncg     rms          rms(c)
DAV:   1    -0.440170293277E+02    0.30887E-01   -0.19196E-02  3472   0.102E+00    0.536E-02
RMM:   2    -0.440179467436E+02   -0.91742E-03   -0.55054E-03  1991   0.274E-01
    241 T=   737. E= -.43458325E+02 F= -.44017947E+02 E0= -.43969870E+02  EK= 0.33364E+01 SP= -.28E+01 SK= 0.12E-01 mag=      0.046
       N       E                     dE             d eps       ncg     rms          rms(c)
DAV:   1    -0.439856795123E+02    0.31350E-01   -0.16811E-02  3440   0.107E+00    0.690E-02
RMM:   2    -0.439868390875E+02   -0.11596E-02   -0.58988E-03  2020   0.283E-01
    242 T=   724. E= -.43451943E+02 F= -.43986839E+02 E0= -.43938696E+02  EK= 0.32733E+01 SP= -.27E+01 SK= 0.79E-02 mag=     -0.053
       N       E                     dE             d eps       ncg     rms          rms(c)
DAV:   1    -0.439557013889E+02    0.29978E-01   -0.16938E-02  3000   0.103E+00    0.633E-02
RMM:   2    -0.439566421168E+02   -0.94073E-03   -0.56083E-03  1997   0.296E-01
    243 T=   712. E= -.43443756E+02 F= -.43956642E+02 E0= -.43908501E+02  EK= 0.32213E+01 SP= -.27E+01 SK= 0.45E-02 mag=     -0.161
       N       E                     dE             d eps       ncg     rms          rms(c)
DAV:   1    -0.439255922492E+02    0.30109E-01   -0.10175E-02  2904   0.100E+00    0.497E-02
RMM:   2    -0.439264663143E+02   -0.87407E-03   -0.54474E-03  2002   0.288E-01
    244 T=   702. E= -.43435783E+02 F= -.43926466E+02 E0= -.43878274E+02  EK= 0.31782E+01 SP= -.27E+01 SK= 0.18E-02 mag=     -0.212
       N       E                     dE             d eps       ncg     rms          rms(c)
DAV:   1    -0.438951892088E+02    0.30403E-01   -0.14730E-02  3264   0.103E+00    0.704E-02
RMM:   2    -0.438962503899E+02   -0.10612E-02   -0.53364E-03  2019   0.271E-01
    245 T=   695. E= -.43427289E+02 F= -.43896250E+02 E0= -.43847869E+02  EK= 0.31453E+01 SP= -.27E+01 SK= 0.26E-03 mag=     -0.151
       N       E                     dE             d eps       ncg     rms          rms(c)
DAV:   1    -0.438657193115E+02    0.29470E-01   -0.14978E-02  3320   0.102E+00    0.795E-02
RMM:   2    -0.438669257952E+02   -0.12065E-02   -0.53795E-03  1991   0.279E-01
    246 T=   690. E= -.43419482E+02 F= -.43866926E+02 E0= -.43818351E+02  EK= 0.31229E+01 SP= -.27E+01 SK= 0.15E-03 mag=      0.018
       N       E                     dE             d eps       ncg     rms          rms(c)
DAV:   1    -0.438382715996E+02    0.27448E-01   -0.15256E-02  3400   0.101E+00    0.558E-02
RMM:   2    -0.438392342626E+02   -0.96266E-03   -0.62497E-03  2033   0.294E-01
    247 T=   688. E= -.43412703E+02 F= -.43839234E+02 E0= -.43790672E+02  EK= 0.31117E+01 SP= -.27E+01 SK= 0.17E-02 mag=      0.221
       N       E                     dE             d eps       ncg     rms          rms(c)
DAV:   1    -0.438086451718E+02    0.29626E-01   -0.18333E-02  3256   0.101E+00    0.849E-02
RMM:   2    -0.438100013992E+02   -0.13562E-02   -0.65313E-03  2007   0.293E-01
    248 T=   688. E= -.43404236E+02 F= -.43810001E+02 E0= -.43761466E+02  EK= 0.31113E+01 SP= -.27E+01 SK= 0.50E-02 mag=      0.297
       N       E                     dE             d eps       ncg     rms          rms(c)
DAV:   1    -0.437803509089E+02    0.28294E-01   -0.15851E-02  3240   0.102E+00    0.104E-01
RMM:   2    -0.437818796134E+02   -0.15287E-02   -0.63474E-03  2004   0.288E-01
    249 T=   690. E= -.43396352E+02 F= -.43781880E+02 E0= -.43732906E+02  EK= 0.31224E+01 SP= -.27E+01 SK= 0.10E-01 mag=      0.174
       N       E                     dE             d eps       ncg     rms          rms(c)
DAV:   1    -0.437537483207E+02    0.26603E-01   -0.14563E-02  3200   0.103E+00    0.862E-02
RMM:   2    -0.437552339311E+02   -0.14856E-02   -0.63331E-03  2007   0.301E-01
    250 T=   695. E= -.43388916E+02 F= -.43755234E+02 E0= -.43706011E+02  EK= 0.31452E+01 SP= -.28E+01 SK= 0.17E-01 mag=     -0.106
       N       E                     dE             d eps       ncg     rms          rms(c)
DAV:   1    -0.437267686168E+02    0.26980E-01   -0.15243E-02  3104   0.103E+00    0.814E-02
RMM:   2    -0.437280234712E+02   -0.12549E-02   -0.66484E-03  2018   0.306E-01
    251 T=   703. E= -.43380803E+02 F= -.43728023E+02 E0= -.43679046E+02  EK= 0.31788E+01 SP= -.29E+01 SK= 0.24E-01 mag=     -0.399
       N       E                     dE             d eps       ncg     rms          rms(c)
DAV:   1    -0.436943896218E+02    0.32379E-01   -0.19502E-02  3464   0.105E+00    0.137E-01
RMM:   2    -0.436970286221E+02   -0.26390E-02   -0.79415E-03  1996   0.307E-01    0.115E-01
RMM:   3    -0.436997431518E+02   -0.27145E-02   -0.44067E-03  1830   0.132E-01    0.817E-02
RMM:   4    -0.437016281381E+02   -0.18850E-02   -0.38806E-03  1863   0.106E-01    0.283E-02
RMM:   5    -0.437017807462E+02   -0.15261E-03   -0.57112E-04  1595   0.556E-02
    252 T=   711. E= -.43377722E+02 F= -.43701781E+02 E0= -.43651966E+02  EK= 0.32186E+01 SP= -.29E+01 SK= 0.32E-01 mag=     -0.045
       N       E                     dE             d eps       ncg     rms          rms(c)
DAV:   1    -0.436646939515E+02    0.36934E-01   -0.19546E-02  3280   0.103E+00    0.154E-01
RMM:   2    -0.436674976000E+02   -0.28036E-02   -0.67284E-03  1834   0.225E-01    0.128E-01
RMM:   3    -0.436706052352E+02   -0.31076E-02   -0.41591E-03  1824   0.105E-01    0.925E-02
RMM:   4    -0.436728061103E+02   -0.22009E-02   -0.39243E-03  1865   0.942E-02    0.409E-02
RMM:   5    -0.436731447090E+02   -0.33860E-03   -0.72229E-04  1609   0.555E-02
    253 T=   721. E= -.43376382E+02 F= -.43673145E+02 E0= -.43623071E+02  EK= 0.32639E+01 SP= -.30E+01 SK= 0.41E-01 mag=      0.052
       N       E                     dE             d eps       ncg     rms          rms(c)
DAV:   1    -0.436428242090E+02    0.29982E-01   -0.85143E-03  2944   0.993E-01    0.472E-02
RMM:   2    -0.436435387260E+02   -0.71452E-03   -0.43167E-03  2014   0.248E-01
    254 T=   734. E= -.43371598E+02 F= -.43643539E+02 E0= -.43593140E+02  EK= 0.33208E+01 SP= -.31E+01 SK= 0.49E-01 mag=     -0.082
       N       E                     dE             d eps       ncg     rms          rms(c)
DAV:   1    -0.436108650263E+02    0.31959E-01   -0.14979E-02  3656   0.107E+00    0.750E-02
RMM:   2    -0.436121538819E+02   -0.12889E-02   -0.57656E-03  1992   0.251E-01
    255 T=   748. E= -.43366559E+02 F= -.43612154E+02 E0= -.43561791E+02  EK= 0.33845E+01 SP= -.32E+01 SK= 0.56E-01 mag=     -0.294
       N       E                     dE             d eps       ncg     rms          rms(c)
DAV:   1    -0.435795649269E+02    0.31300E-01   -0.15968E-02  3008   0.105E+00    0.884E-02
RMM:   2    -0.435807704339E+02   -0.12055E-02   -0.54524E-03  2005   0.282E-01
    256 T=   763. E= -.43363140E+02 F= -.43580770E+02 E0= -.43530297E+02  EK= 0.34538E+01 SP= -.33E+01 SK= 0.62E-01 mag=     -0.418
       N       E                     dE             d eps       ncg     rms          rms(c)
DAV:   1    -0.435474373240E+02    0.32128E-01   -0.24431E-02  3640   0.113E+00    0.612E-02
RMM:   2    -0.435486207024E+02   -0.11834E-02   -0.62626E-03  2004   0.280E-01
    257 T=   780. E= -.43358216E+02 F= -.43548621E+02 E0= -.43497492E+02  EK= 0.35299E+01 SP= -.34E+01 SK= 0.65E-01 mag=     -0.338
       N       E                     dE             d eps       ncg     rms          rms(c)
DAV:   1    -0.435129951631E+02    0.34442E-01   -0.11691E-02  2904   0.107E+00    0.466E-02
RMM:   2    -0.435140103284E+02   -0.10152E-02   -0.63397E-03  2024   0.308E-01
    258 T=   798. E= -.43352342E+02 F= -.43514010E+02 E0= -.43462036E+02  EK= 0.36089E+01 SP= -.35E+01 SK= 0.67E-01 mag=     -0.042
       N       E                     dE             d eps       ncg     rms          rms(c)
DAV:   1    -0.434740445412E+02    0.38951E-01   -0.17966E-02  3408   0.114E+00    0.836E-02
RMM:   2    -0.434754436219E+02   -0.13991E-02   -0.60103E-03  2006   0.292E-01
    259 T=   815. E= -.43344834E+02 F= -.43475444E+02 E0= -.43423523E+02  EK= 0.36882E+01 SP= -.36E+01 SK= 0.66E-01 mag=      0.329
       N       E                     dE             d eps       ncg     rms          rms(c)
DAV:   1    -0.434329679534E+02    0.41077E-01   -0.18443E-02  3296   0.117E+00    0.103E-01
RMM:   2    -0.434347408330E+02   -0.17729E-02   -0.74338E-03  2073   0.335E-01
    260 T=   833. E= -.43336816E+02 F= -.43434741E+02 E0= -.43383373E+02  EK= 0.37666E+01 SP= -.37E+01 SK= 0.63E-01 mag=      0.600
       N       E                     dE             d eps       ncg     rms          rms(c)
DAV:   1    -0.433911732482E+02    0.41795E-01   -0.25083E-02  3536   0.116E+00    0.929E-02
RMM:   2    -0.433929973474E+02   -0.18241E-02   -0.75088E-03  2047   0.307E-01    0.791E-02
RMM:   3    -0.433942774496E+02   -0.12801E-02   -0.27918E-03  1915   0.123E-01
    261 T=   849. E= -.43332246E+02 F= -.43394277E+02 E0= -.43341875E+02  EK= 0.38401E+01 SP= -.38E+01 SK= 0.58E-01 mag=      0.231
       N       E                     dE             d eps       ncg     rms          rms(c)
DAV:   1    -0.433464804825E+02    0.46517E-01   -0.31874E-02  3344   0.115E+00    0.115E-01
RMM:   2    -0.433487729905E+02   -0.22925E-02   -0.57770E-03  1909   0.278E-01    0.954E-02
RMM:   3    -0.433497702058E+02   -0.99722E-03   -0.15415E-03  1791   0.103E-01
    262 T=   863. E= -.43327110E+02 F= -.43349770E+02 E0= -.43297259E+02  EK= 0.39064E+01 SP= -.39E+01 SK= 0.51E-01 mag=     -0.401
       N       E                     dE             d eps       ncg     rms          rms(c)
DAV:   1    -0.432969189504E+02    0.51854E-01   -0.69620E-02  3592   0.119E+00    0.166E-01
RMM:   2    -0.433000187175E+02   -0.30998E-02   -0.77085E-03  2047   0.297E-01    0.133E-01
RMM:   3    -0.433024236929E+02   -0.24050E-02   -0.27551E-03  1932   0.127E-01    0.108E-01
RMM:   4    -0.433053351749E+02   -0.29115E-02   -0.37395E-03  1909   0.107E-01    0.548E-02
RMM:   5    -0.433061087719E+02   -0.77360E-03   -0.12596E-03  1792   0.716E-02
    263 T=   876. E= -.43325426E+02 F= -.43306109E+02 E0= -.43252161E+02  EK= 0.39640E+01 SP= -.40E+01 SK= 0.43E-01 mag=     -0.110
       N       E                     dE             d eps       ncg     rms          rms(c)
DAV:   1    -0.432510166980E+02    0.54318E-01   -0.23750E-02  3520   0.117E+00    0.156E-01
RMM:   2    -0.432537339307E+02   -0.27172E-02   -0.71129E-03  1992   0.268E-01    0.123E-01
RMM:   3    -0.432560603643E+02   -0.23264E-02   -0.24762E-03  1824   0.121E-01    0.947E-02
RMM:   4    -0.432577391339E+02   -0.16788E-02   -0.13802E-03  1811   0.809E-02
    264 T=   887. E= -.43321896E+02 F= -.43257739E+02 E0= -.43204265E+02  EK= 0.40108E+01 SP= -.41E+01 SK= 0.34E-01 mag=      0.273
       N       E                     dE             d eps       ncg     rms          rms(c)
DAV:   1    -0.432058957547E+02    0.50165E-01   -0.38015E-02  3744   0.117E+00    0.954E-02
RMM:   2    -0.432075458431E+02   -0.16501E-02   -0.68915E-03  1944   0.276E-01
    265 T=   895. E= -.43316135E+02 F= -.43207546E+02 E0= -.43154847E+02  EK= 0.40481E+01 SP= -.42E+01 SK= 0.26E-01 mag=      0.579
       N       E                     dE             d eps       ncg     rms          rms(c)
DAV:   1    -0.431556181720E+02    0.50278E-01   -0.26643E-02  3952   0.118E+00    0.943E-02
RMM:   2    -0.431572116994E+02   -0.15935E-02   -0.63132E-03  2031   0.285E-01
    266 T=   900. E= -.43313955E+02 F= -.43157212E+02 E0= -.43104212E+02  EK= 0.40705E+01 SP= -.42E+01 SK= 0.18E-01 mag=      0.630
       N       E                     dE             d eps       ncg     rms          rms(c)
DAV:   1    -0.431069246997E+02    0.48693E-01   -0.19186E-02  3560   0.115E+00    0.691E-02
RMM:   2    -0.431083019440E+02   -0.13772E-02   -0.65939E-03  2042   0.291E-01
    267 T=   902. E= -.43313102E+02 F= -.43108302E+02 E0= -.43053428E+02  EK= 0.40808E+01 SP= -.43E+01 SK= 0.12E-01 mag=      0.323
       N       E                     dE             d eps       ncg     rms          rms(c)
DAV:   1    -0.430567585292E+02    0.50166E-01   -0.27744E-02  3576   0.121E+00    0.500E-02
RMM:   2    -0.430580764296E+02   -0.13179E-02   -0.71644E-03  2051   0.297E-01
    268 T=   902. E= -.43308310E+02 F= -.43058076E+02 E0= -.43003097E+02  EK= 0.40809E+01 SP= -.43E+01 SK= 0.68E-02 mag=     -0.293
       N       E                     dE             d eps       ncg     rms          rms(c)
DAV:   1    -0.430013344249E+02    0.55424E-01   -0.22165E-02  3560   0.114E+00    0.130E-01
RMM:   2    -0.430038775654E+02   -0.25431E-02   -0.73798E-03  2038   0.309E-01    0.109E-01
RMM:   3    -0.430059932231E+02   -0.21157E-02   -0.37895E-03  1835   0.128E-01    0.838E-02
RMM:   4    -0.430081325064E+02   -0.21393E-02   -0.37999E-03  1893   0.104E-01    0.492E-02
RMM:   5    -0.430091321609E+02   -0.99965E-03   -0.32937E-03  1905   0.835E-02
    269 T=   899. E= -.43306650E+02 F= -.43009132E+02 E0= -.42953656E+02  EK= 0.40663E+01 SP= -.44E+01 SK= 0.31E-02 mag=     -0.045
       N       E                     dE             d eps       ncg     rms          rms(c)
DAV:   1    -0.429533138249E+02    0.54819E-01   -0.30790E-02  3448   0.116E+00    0.128E-01
RMM:   2    -0.429561081879E+02   -0.27944E-02   -0.73902E-03  2014   0.290E-01    0.106E-01
RMM:   3    -0.429581317048E+02   -0.20235E-02   -0.39860E-03  1824   0.117E-01    0.765E-02
RMM:   4    -0.429597487116E+02   -0.16170E-02   -0.27659E-03  1839   0.898E-02
    270 T=   893. E= -.43302478E+02 F= -.42959749E+02 E0= -.42905437E+02  EK= 0.40413E+01 SP= -.44E+01 SK= 0.92E-03 mag=      0.304
       N       E                     dE             d eps       ncg     rms          rms(c)
DAV:   1    -0.429106379732E+02    0.47494E-01   -0.51537E-02  3872   0.119E+00    0.108E-01
RMM:   2    -0.429124819116E+02   -0.18439E-02   -0.74372E-03  2039   0.289E-01    0.780E-02
RMM:   3    -0.429136533186E+02   -0.11714E-02   -0.28789E-03  1880   0.120E-01
    271 T=   886. E= -.43298922E+02 F= -.42913653E+02 E0= -.42859338E+02  EK= 0.40072E+01 SP= -.44E+01 SK= 0.44E-04 mag=      0.406
       N       E                     dE             d eps       ncg     rms          rms(c)
DAV:   1    -0.428693031386E+02    0.43179E-01   -0.34345E-02  3536   0.111E+00    0.818E-02
RMM:   2    -0.428705848312E+02   -0.12817E-02   -0.56806E-03  2030   0.296E-01
    272 T=   877. E= -.43295405E+02 F= -.42870585E+02 E0= -.42815519E+02  EK= 0.39655E+01 SP= -.44E+01 SK= 0.22E-03 mag=      0.215
       N       E                     dE             d eps       ncg     rms          rms(c)
DAV:   1    -0.428291309867E+02    0.40172E-01   -0.37199E-02  4008   0.121E+00    0.638E-02
RMM:   2    -0.428302279171E+02   -0.10969E-02   -0.60428E-03  2053   0.274E-01
    273 T=   866. E= -.43292670E+02 F= -.42830228E+02 E0= -.42775200E+02  EK= 0.39165E+01 SP= -.44E+01 SK= 0.11E-02 mag=     -0.209
       N       E                     dE             d eps       ncg     rms          rms(c)
DAV:   1    -0.427892150681E+02    0.39916E-01   -0.19369E-02  3424   0.109E+00    0.951E-02
RMM:   2    -0.427911473805E+02   -0.19323E-02   -0.67550E-03  2024   0.294E-01    0.785E-02
RMM:   3    -0.427918727308E+02   -0.72535E-03   -0.18572E-03  1919   0.110E-01
    274 T=   854. E= -.43288964E+02 F= -.42791873E+02 E0= -.42739088E+02  EK= 0.38626E+01 SP= -.44E+01 SK= 0.24E-02 mag=     -0.514
       N       E                     dE             d eps       ncg     rms          rms(c)
DAV:   1    -0.427575970680E+02    0.33550E-01   -0.28786E-02  3456   0.113E+00    0.888E-02
RMM:   2    -0.427588401056E+02   -0.12430E-02   -0.44508E-03  1978   0.270E-01
    275 T=   843. E= -.43281035E+02 F= -.42758840E+02 E0= -.42706116E+02  EK= 0.38123E+01 SP= -.43E+01 SK= 0.39E-02 mag=     -0.548
       N       E                     dE             d eps       ncg     rms          rms(c)
DAV:   1    -0.427296637629E+02    0.27933E-01   -0.24463E-02  3160   0.121E+00    0.651E-02
RMM:   2    -0.427310188797E+02   -0.13551E-02   -0.66491E-03  2077   0.275E-01
    276 T=   831. E= -.43276349E+02 F= -.42731019E+02 E0= -.42677019E+02  EK= 0.37592E+01 SP= -.43E+01 SK= 0.52E-02 mag=     -0.264
       N       E                     dE             d eps       ncg     rms          rms(c)
DAV:   1    -0.427055794232E+02    0.24084E-01   -0.15723E-02  3344   0.104E+00    0.627E-02
RMM:   2    -0.427068215909E+02   -0.12422E-02   -0.58963E-03  2048   0.309E-01
    277 T=   819. E= -.43273279E+02 F= -.42706822E+02 E0= -.42653089E+02  EK= 0.37050E+01 SP= -.43E+01 SK= 0.61E-02 mag=      0.268
       N       E                     dE             d eps       ncg     rms          rms(c)
DAV:   1    -0.426818017070E+02    0.23778E-01   -0.30897E-02  3896   0.119E+00    0.112E-01
RMM:   2    -0.426840813721E+02   -0.22797E-02   -0.78001E-03  2034   0.296E-01    0.944E-02
RMM:   3    -0.426853649755E+02   -0.12836E-02   -0.28755E-03  1917   0.119E-01
    278 T=   808. E= -.43267244E+02 F= -.42685365E+02 E0= -.42634478E+02  EK= 0.36549E+01 SP= -.42E+01 SK= 0.67E-02 mag=      0.493
       N       E                     dE             d eps       ncg     rms          rms(c)
DAV:   1    -0.426710295379E+02    0.13052E-01   -0.37242E-02  3312   0.107E+00    0.101E-01
RMM:   2    -0.426723966215E+02   -0.13671E-02   -0.59076E-03  1982   0.294E-01
    279 T=   798. E= -.43261940E+02 F= -.42672397E+02 E0= -.42619479E+02  EK= 0.36120E+01 SP= -.42E+01 SK= 0.68E-02 mag=      0.306
       N       E                     dE             d eps       ncg     rms          rms(c)
DAV:   1    -0.426599899032E+02    0.11040E-01   -0.55712E-02  3832   0.118E+00    0.966E-02
RMM:   2    -0.426617183487E+02   -0.17284E-02   -0.66536E-03  2048   0.278E-01
    280 T=   790. E= -.43254871E+02 F= -.42661718E+02 E0= -.42608743E+02  EK= 0.35738E+01 SP= -.42E+01 SK= 0.66E-02 mag=     -0.229
       N       E                     dE             d eps       ncg     rms          rms(c)
DAV:   1    -0.426494759305E+02    0.10514E-01   -0.18610E-02  3472   0.102E+00    0.145E-01
RMM:   2    -0.426521559127E+02   -0.26800E-02   -0.67636E-03  2035   0.312E-01    0.118E-01
RMM:   3    -0.426542922715E+02   -0.21364E-02   -0.29523E-03  1904   0.137E-01    0.898E-02
RMM:   4    -0.426562361265E+02   -0.19439E-02   -0.24136E-03  1886   0.102E-01    0.511E-02
RMM:   5    -0.426571213365E+02   -0.88521E-03   -0.20769E-03  1869   0.715E-02
    281 T=   781. E= -.43255376E+02 F= -.42657121E+02 E0= -.42604424E+02  EK= 0.35355E+01 SP= -.41E+01 SK= 0.60E-02 mag=     -0.105
       N       E                     dE             d eps       ncg     rms          rms(c)
DAV:   1    -0.426443336810E+02    0.11902E-01   -0.41454E-02  3560   0.111E+00    0.173E-01
RMM:   2    -0.426482416058E+02   -0.39079E-02   -0.74558E-03  1948   0.268E-01    0.144E-01
RMM:   3    -0.426532235464E+02   -0.49819E-02   -0.61153E-03  1824   0.132E-01    0.755E-02
RMM:   4    -0.426547803647E+02   -0.15568E-02   -0.26427E-03  1824   0.982E-02
    282 T=   775. E= -.43252739E+02 F= -.42654780E+02 E0= -.42602164E+02  EK= 0.35050E+01 SP= -.41E+01 SK= 0.51E-02 mag=      0.130
       N       E                     dE             d eps       ncg     rms          rms(c)
DAV:   1    -0.426529141109E+02    0.30944E-03   -0.31236E-02  3848   0.110E+00    0.941E-02
RMM:   2    -0.426544556524E+02   -0.15415E-02   -0.63174E-03  1980   0.273E-01
    283 T=   770. E= -.43246947E+02 F= -.42654456E+02 E0= -.42602803E+02  EK= 0.34826E+01 SP= -.41E+01 SK= 0.41E-02 mag=      0.367
       N       E                     dE             d eps       ncg     rms          rms(c)
DAV:   1    -0.426534153884E+02   -0.50128E-03   -0.29940E-02  3736   0.107E+00    0.139E-01
RMM:   2    -0.426562375144E+02   -0.28221E-02   -0.66780E-03  2015   0.286E-01    0.116E-01
RMM:   3    -0.426584947413E+02   -0.22572E-02   -0.27266E-03  1857   0.118E-01    0.886E-02
RMM:   4    -0.426609560075E+02   -0.24613E-02   -0.55408E-03  1988   0.112E-01    0.266E-02
RMM:   5    -0.426610375329E+02   -0.81525E-04   -0.38852E-04  1593   0.540E-02
    284 T=   766. E= -.43247026E+02 F= -.42661038E+02 E0= -.42608720E+02  EK= 0.34646E+01 SP= -.41E+01 SK= 0.31E-02 mag=      0.131
       N       E                     dE             d eps       ncg     rms          rms(c)
DAV:   1    -0.426601239817E+02    0.83203E-03   -0.37567E-02  3376   0.113E+00    0.148E-01
RMM:   2    -0.426631298113E+02   -0.30058E-02   -0.85259E-03  1894   0.269E-01    0.121E-01
RMM:   3    -0.426655598264E+02   -0.24300E-02   -0.35898E-03  1818   0.114E-01    0.952E-02
RMM:   4    -0.426679121283E+02   -0.23523E-02   -0.42409E-03  1828   0.919E-02    0.490E-02
RMM:   5    -0.426683819934E+02   -0.46987E-03   -0.74426E-04  1612   0.555E-02
    285 T=   763. E= -.43245746E+02 F= -.42668382E+02 E0= -.42616280E+02  EK= 0.34525E+01 SP= -.40E+01 SK= 0.22E-02 mag=     -0.138
       N       E                     dE             d eps       ncg     rms          rms(c)
DAV:   1    -0.426759384402E+02   -0.80263E-02   -0.15544E-02  3664   0.105E+00    0.787E-02
RMM:   2    -0.426771811284E+02   -0.12427E-02   -0.44591E-03  2014   0.249E-01
    286 T=   762. E= -.43241265E+02 F= -.42677181E+02 E0= -.42625440E+02  EK= 0.34490E+01 SP= -.40E+01 SK= 0.13E-02 mag=     -0.305
       N       E                     dE             d eps       ncg     rms          rms(c)
DAV:   1    -0.426861924438E+02   -0.10254E-01   -0.19901E-02  3912   0.115E+00    0.947E-02
RMM:   2    -0.426879474216E+02   -0.17550E-02   -0.56470E-03  2029   0.273E-01
    287 T=   762. E= -.43238769E+02 F= -.42687947E+02 E0= -.42636135E+02  EK= 0.34496E+01 SP= -.40E+01 SK= 0.71E-03 mag=     -0.267
       N       E                     dE             d eps       ncg     rms          rms(c)
DAV:   1    -0.426997390839E+02   -0.13547E-01   -0.13050E-02  2960   0.103E+00    0.803E-02
RMM:   2    -0.427011963387E+02   -0.14573E-02   -0.56998E-03  2020   0.298E-01
    288 T=   764. E= -.43236652E+02 F= -.42701196E+02 E0= -.42649095E+02  EK= 0.34562E+01 SP= -.40E+01 SK= 0.29E-03 mag=     -0.014
       N       E                     dE             d eps       ncg     rms          rms(c)
DAV:   1    -0.427139304036E+02   -0.14191E-01   -0.25674E-02  3880   0.120E+00    0.638E-02
RMM:   2    -0.427152318741E+02   -0.13015E-02   -0.62596E-03  2026   0.296E-01
    289 T=   767. E= -.43231701E+02 F= -.42715232E+02 E0= -.42663562E+02  EK= 0.34703E+01 SP= -.40E+01 SK= 0.61E-04 mag=      0.337
       N       E                     dE             d eps       ncg     rms          rms(c)
DAV:   1    -0.427245699819E+02   -0.10640E-01   -0.20563E-02  3600   0.104E+00    0.110E-01
RMM:   2    -0.427267596497E+02   -0.21897E-02   -0.72016E-03  2016   0.301E-01    0.922E-02
RMM:   3    -0.427283405331E+02   -0.15809E-02   -0.28965E-03  1874   0.120E-01
    290 T=   771. E= -.43227186E+02 F= -.42728341E+02 E0= -.42677056E+02  EK= 0.34865E+01 SP= -.40E+01 SK= 0.16E-06 mag=      0.196
       N       E                     dE             d eps       ncg     rms          rms(c)
DAV:   1    -0.427409114410E+02   -0.14152E-01   -0.36055E-02  3408   0.115E+00    0.926E-02
RMM:   2    -0.427431023710E+02   -0.21909E-02   -0.70497E-03  1999   0.318E-01    0.641E-02
RMM:   3    -0.427436285847E+02   -0.52621E-03   -0.16328E-03  1780   0.109E-01
    291 T=   775. E= -.43223921E+02 F= -.42743629E+02 E0= -.42691599E+02  EK= 0.35068E+01 SP= -.40E+01 SK= 0.57E-04 mag=     -0.202
       N       E                     dE             d eps       ncg     rms          rms(c)
DAV:   1    -0.427531168565E+02   -0.10014E-01   -0.67166E-02  3680   0.110E+00    0.118E-01
RMM:   2    -0.427552549166E+02   -0.21381E-02   -0.76034E-03  2033   0.296E-01    0.892E-02
RMM:   3    -0.427562761124E+02   -0.10212E-02   -0.21462E-03  1917   0.109E-01
    292 T=   780. E= -.43218138E+02 F= -.42756276E+02 E0= -.42705290E+02  EK= 0.35297E+01 SP= -.40E+01 SK= 0.18E-03 mag=     -0.450
       N       E                     dE             d eps       ncg     rms          rms(c)
DAV:   1    -0.427693937207E+02   -0.14139E-01   -0.41720E-02  3344   0.126E+00    0.905E-02
RMM:   2    -0.427707642952E+02   -0.13706E-02   -0.59994E-03  2065   0.306E-01
    293 T=   786. E= -.43212438E+02 F= -.42770764E+02 E0= -.42719053E+02  EK= 0.35565E+01 SP= -.40E+01 SK= 0.32E-03 mag=     -0.420
       N       E                     dE             d eps       ncg     rms          rms(c)
DAV:   1    -0.427839496919E+02   -0.14556E-01   -0.36880E-02  3864   0.112E+00    0.344E-02
RMM:   2    -0.427850055056E+02   -0.10558E-02   -0.56834E-03  2014   0.271E-01
    294 T=   792. E= -.43208380E+02 F= -.42785006E+02 E0= -.42732373E+02  EK= 0.35831E+01 SP= -.40E+01 SK= 0.43E-03 mag=     -0.095
       N       E                     dE             d eps       ncg     rms          rms(c)
DAV:   1    -0.427952169286E+02   -0.11267E-01   -0.15239E-02  3272   0.109E+00    0.711E-02
RMM:   2    -0.427966723242E+02   -0.14554E-02   -0.62006E-03  2009   0.287E-01
    295 T=   797. E= -.43204446E+02 F= -.42796672E+02 E0= -.42744542E+02  EK= 0.36078E+01 SP= -.40E+01 SK= 0.49E-03 mag=      0.410
       N       E                     dE             d eps       ncg     rms          rms(c)
DAV:   1    -0.428030255826E+02   -0.78087E-02   -0.25655E-02  3496   0.114E+00    0.131E-01
RMM:   2    -0.428057619299E+02   -0.27363E-02   -0.67997E-03  2010   0.296E-01    0.110E-01
RMM:   3    -0.428083095949E+02   -0.25477E-02   -0.41134E-03  1833   0.134E-01    0.793E-02
RMM:   4    -0.428101934765E+02   -0.18839E-02   -0.41464E-03  1884   0.106E-01    0.363E-02
RMM:   5    -0.428105447728E+02   -0.35130E-03   -0.97883E-04  1699   0.587E-02
    296 T=   803. E= -.43202424E+02 F= -.42810545E+02 E0= -.42757693E+02  EK= 0.36333E+01 SP= -.40E+01 SK= 0.49E-03 mag=      0.033
       N       E                     dE             d eps       ncg     rms          rms(c)
DAV:   1    -0.428141809873E+02   -0.39875E-02   -0.25347E-02  3000   0.108E+00    0.158E-01
RMM:   2    -0.428176804025E+02   -0.34994E-02   -0.59504E-03  1880   0.257E-01    0.131E-01
RMM:   3    -0.428203120122E+02   -0.26316E-02   -0.29077E-03  1825   0.107E-01    0.990E-02
RMM:   4    -0.428230427765E+02   -0.27308E-02   -0.47492E-03  1970   0.106E-01    0.489E-02
RMM:   5    -0.428236289999E+02   -0.58622E-03   -0.13137E-03  1766   0.677E-02
    297 T=   808. E= -.43200862E+02 F= -.42823629E+02 E0= -.42770741E+02  EK= 0.36572E+01 SP= -.40E+01 SK= 0.43E-03 mag=     -0.055
       N       E                     dE             d eps       ncg     rms          rms(c)
DAV:   1    -0.428351466891E+02   -0.12104E-01   -0.27001E-02  3800   0.110E+00    0.605E-02
RMM:   2    -0.428365435227E+02   -0.13968E-02   -0.57481E-03  2061   0.253E-01
    298 T=   814. E= -.43197097E+02 F= -.42836544E+02 E0= -.42783530E+02  EK= 0.36822E+01 SP= -.40E+01 SK= 0.31E-03 mag=      0.100
       N       E                     dE             d eps       ncg     rms          rms(c)
DAV:   1    -0.428478659183E+02   -0.12719E-01   -0.29738E-02  3960   0.113E+00    0.803E-02
RMM:   2    -0.428496121833E+02   -0.17463E-02   -0.61730E-03  2029   0.274E-01
    299 T=   819. E= -.43195177E+02 F= -.42849612E+02 E0= -.42797120E+02  EK= 0.37040E+01 SP= -.40E+01 SK= 0.18E-03 mag=      0.375
       N       E                     dE             d eps       ncg     rms          rms(c)
DAV:   1    -0.428619020152E+02   -0.14036E-01   -0.16891E-02  2912   0.107E+00    0.100E-01
RMM:   2    -0.428638388768E+02   -0.19369E-02   -0.59613E-03  2038   0.284E-01    0.812E-02
RMM:   3    -0.428651751756E+02   -0.13363E-02   -0.25048E-03  1896   0.122E-01
    300 T=   823. E= -.43194554E+02 F= -.42865175E+02 E0= -.42812863E+02  EK= 0.37249E+01 SP= -.41E+01 SK= 0.61E-04 mag=      0.202
       N       E                     dE             d eps       ncg     rms          rms(c)
DAV:   1    -0.428790941548E+02   -0.15255E-01   -0.37478E-02  3648   0.115E+00    0.103E-01
RMM:   2    -0.428810334065E+02   -0.19393E-02   -0.53620E-03  1939   0.278E-01    0.803E-02
RMM:   3    -0.428816590500E+02   -0.62564E-03   -0.12380E-03  1516   0.948E-02
    301 T=   829. E= -.43189548E+02 F= -.42881659E+02 E0= -.42828933E+02  EK= 0.37485E+01 SP= -.41E+01 SK= 0.92E-06 mag=     -0.157
       N       E                     dE             d eps       ncg     rms          rms(c)
DAV:   1    -0.428958615590E+02   -0.14828E-01   -0.43483E-02  3544   0.110E+00    0.104E-01
RMM:   2    -0.428981208203E+02   -0.22593E-02   -0.69518E-03  2004   0.276E-01    0.829E-02
RMM:   3    -0.428988853023E+02   -0.76448E-03   -0.16994E-03  1923   0.107E-01
    302 T=   833. E= -.43184603E+02 F= -.42898885E+02 E0= -.42846959E+02  EK= 0.37694E+01 SP= -.41E+01 SK= 0.52E-04 mag=     -0.337
       N       E                     dE             d eps       ncg     rms          rms(c)
DAV:   1    -0.429174731112E+02   -0.19352E-01   -0.27909E-02  3720   0.115E+00    0.879E-02
RMM:   2    -0.429189772584E+02   -0.15041E-02   -0.60136E-03  2026   0.267E-01
    303 T=   837. E= -.43181705E+02 F= -.42918977E+02 E0= -.42866651E+02  EK= 0.37873E+01 SP= -.41E+01 SK= 0.27E-03 mag=     -0.248
       N       E                     dE             d eps       ncg     rms          rms(c)
DAV:   1    -0.429367641150E+02   -0.19291E-01   -0.40086E-02  3824   0.112E+00    0.844E-02
RMM:   2    -0.429385447664E+02   -0.17807E-02   -0.68282E-03  2031   0.272E-01
    304 T=   840. E= -.43178283E+02 F= -.42938545E+02 E0= -.42886237E+02  EK= 0.38008E+01 SP= -.40E+01 SK= 0.71E-03 mag=      0.073
       N       E                     dE             d eps       ncg     rms          rms(c)
DAV:   1    -0.429560633181E+02   -0.19299E-01   -0.22943E-02  3360   0.107E+00    0.118E-01
RMM:   2    -0.429585561148E+02   -0.24928E-02   -0.68571E-03  2026   0.288E-01    0.957E-02
RMM:   3    -0.429606040389E+02   -0.20479E-02   -0.30090E-03  1924   0.125E-01    0.568E-02
RMM:   4    -0.429615468805E+02   -0.94284E-03   -0.16614E-03  1823   0.861E-02
    305 T=   842. E= -.43178392E+02 F= -.42961547E+02 E0= -.42909571E+02  EK= 0.38095E+01 SP= -.40E+01 SK= 0.14E-02 mag=      0.085
       N       E                     dE             d eps       ncg     rms          rms(c)
DAV:   1    -0.429772395613E+02   -0.16636E-01   -0.35730E-02  3472   0.111E+00    0.139E-01
RMM:   2    -0.429802461136E+02   -0.30066E-02   -0.72179E-03  1920   0.255E-01    0.112E-01
RMM:   3    -0.429822591195E+02   -0.20130E-02   -0.26437E-03  1824   0.103E-01    0.835E-02
RMM:   4    -0.429841637090E+02   -0.19046E-02   -0.31102E-03  1836   0.858E-02    0.309E-02
RMM:   5    -0.429843177553E+02   -0.15405E-03   -0.36434E-04  1517   0.461E-02
    306 T=   843. E= -.43176382E+02 F= -.42984318E+02 E0= -.42932573E+02  EK= 0.38151E+01 SP= -.40E+01 SK= 0.24E-02 mag=      0.000
       N       E                     dE             d eps       ncg     rms          rms(c)
DAV:   1    -0.430054932753E+02   -0.21330E-01   -0.21827E-02  3336   0.104E+00    0.606E-02
RMM:   2    -0.430067596676E+02   -0.12664E-02   -0.50944E-03  2010   0.253E-01
    307 T=   844. E= -.43171684E+02 F= -.43006760E+02 E0= -.42955497E+02  EK= 0.38179E+01 SP= -.40E+01 SK= 0.36E-02 mag=     -0.143
       N       E                     dE             d eps       ncg     rms          rms(c)
DAV:   1    -0.430258985426E+02   -0.20405E-01   -0.27749E-02  3736   0.113E+00    0.927E-02
RMM:   2    -0.430279244289E+02   -0.20259E-02   -0.66512E-03  2019   0.258E-01    0.766E-02
RMM:   3    -0.430290180122E+02   -0.10936E-02   -0.21965E-03  1836   0.106E-01
    308 T=   843. E= -.43168327E+02 F= -.43029018E+02 E0= -.42978290E+02  EK= 0.38141E+01 SP= -.40E+01 SK= 0.52E-02 mag=     -0.127
       N       E                     dE             d eps       ncg     rms          rms(c)
DAV:   1    -0.430497246381E+02   -0.21800E-01   -0.35011E-02  3368   0.105E+00    0.918E-02
RMM:   2    -0.430519239981E+02   -0.21994E-02   -0.56107E-03  1976   0.262E-01    0.580E-02
RMM:   3    -0.430522874392E+02   -0.36344E-03   -0.14841E-03  1718   0.964E-02
    309 T=   841. E= -.43166607E+02 F= -.43052287E+02 E0= -.43001685E+02  EK= 0.38046E+01 SP= -.39E+01 SK= 0.69E-02 mag=      0.059
       N       E                     dE             d eps       ncg     rms          rms(c)
DAV:   1    -0.430710532343E+02   -0.19129E-01   -0.55412E-02  3464   0.110E+00    0.998E-02
RMM:   2    -0.430727595311E+02   -0.17063E-02   -0.57758E-03  2026   0.268E-01
    310 T=   838. E= -.43159596E+02 F= -.43072760E+02 E0= -.43022817E+02  EK= 0.37929E+01 SP= -.39E+01 SK= 0.87E-02 mag=      0.286
       N       E                     dE             d eps       ncg     rms          rms(c)
DAV:   1    -0.430905572917E+02   -0.19504E-01   -0.37353E-02  3560   0.112E+00    0.108E-01
RMM:   2    -0.430924371586E+02   -0.18799E-02   -0.59018E-03  2043   0.271E-01    0.853E-02
RMM:   3    -0.430931637628E+02   -0.72660E-03   -0.16765E-03  1846   0.108E-01
    311 T=   834. E= -.43156579E+02 F= -.43093164E+02 E0= -.43043696E+02  EK= 0.37729E+01 SP= -.38E+01 SK= 0.11E-01 mag=      0.167
       N       E                     dE             d eps       ncg     rms          rms(c)
DAV:   1    -0.431096482824E+02   -0.17211E-01   -0.34803E-02  3376   0.109E+00    0.122E-01
RMM:   2    -0.431115522410E+02   -0.19040E-02   -0.64307E-03  1909   0.256E-01    0.853E-02
RMM:   3    -0.431120596496E+02   -0.50741E-03   -0.15747E-03  1666   0.950E-02
    312 T=   828. E= -.43154097E+02 F= -.43112060E+02 E0= -.43062521E+02  EK= 0.37471E+01 SP= -.38E+01 SK= 0.12E-01 mag=     -0.119
       N       E                     dE             d eps       ncg     rms          rms(c)
DAV:   1    -0.431237207242E+02   -0.12168E-01   -0.41789E-02  3472   0.111E+00    0.124E-01
RMM:   2    -0.431260800034E+02   -0.23593E-02   -0.75888E-03  2069   0.288E-01    0.964E-02
RMM:   3    -0.431271412853E+02   -0.10613E-02   -0.20835E-03  1876   0.111E-01
    313 T=   822. E= -.43148222E+02 F= -.43127141E+02 E0= -.43078460E+02  EK= 0.37180E+01 SP= -.38E+01 SK= 0.14E-01 mag=     -0.265
       N       E                     dE             d eps       ncg     rms          rms(c)
DAV:   1    -0.431411833007E+02   -0.15103E-01   -0.41283E-02  3376   0.109E+00    0.909E-02
RMM:   2    -0.431425654085E+02   -0.13821E-02   -0.60350E-03  2007   0.267E-01
    314 T=   814. E= -.43145382E+02 F= -.43142565E+02 E0= -.43093544E+02  EK= 0.36842E+01 SP= -.37E+01 SK= 0.15E-01 mag=     -0.188
       N       E                     dE             d eps       ncg     rms          rms(c)
DAV:   1    -0.431513995276E+02   -0.10216E-01   -0.54724E-02  3648   0.112E+00    0.871E-02
RMM:   2    -0.431530033048E+02   -0.16038E-02   -0.72321E-03  2040   0.290E-01
    315 T=   806. E= -.43140975E+02 F= -.43153003E+02 E0= -.43104068E+02  EK= 0.36458E+01 SP= -.36E+01 SK= 0.16E-01 mag=      0.086
       N       E                     dE             d eps       ncg     rms          rms(c)
DAV:   1    -0.431566067128E+02   -0.52072E-02   -0.25341E-02  3456   0.108E+00    0.139E-01
RMM:   2    -0.431592516642E+02   -0.26450E-02   -0.73550E-03  2053   0.309E-01    0.113E-01
RMM:   3    -0.431611368845E+02   -0.18852E-02   -0.24680E-03  1941   0.126E-01    0.806E-02
RMM:   4    -0.431628561508E+02   -0.17193E-02   -0.21058E-03  1872   0.960E-02
    316 T=   797. E= -.43139827E+02 F= -.43162856E+02 E0= -.43114138E+02  EK= 0.36035E+01 SP= -.36E+01 SK= 0.16E-01 mag=      0.117
       N       E                     dE             d eps       ncg     rms          rms(c)
DAV:   1    -0.431632432599E+02   -0.21064E-02   -0.34420E-02  3488   0.112E+00    0.137E-01
RMM:   2    -0.431657399029E+02   -0.24966E-02   -0.69956E-03  1906   0.255E-01    0.108E-01
RMM:   3    -0.431673828676E+02   -0.16430E-02   -0.24679E-03  1824   0.103E-01
    317 T=   787. E= -.43133565E+02 F= -.43167383E+02 E0= -.43118698E+02  EK= 0.35620E+01 SP= -.35E+01 SK= 0.15E-01 mag=     -0.037
       N       E                     dE             d eps       ncg     rms          rms(c)
DAV:   1    -0.431690732108E+02   -0.33333E-02   -0.36371E-02  3384   0.105E+00    0.122E-01
RMM:   2    -0.431709239821E+02   -0.18508E-02   -0.65762E-03  1959   0.279E-01    0.896E-02
RMM:   3    -0.431717714953E+02   -0.84751E-03   -0.19029E-03  1848   0.108E-01
    318 T=   778. E= -.43129214E+02 F= -.43171771E+02 E0= -.43123463E+02  EK= 0.35204E+01 SP= -.35E+01 SK= 0.14E-01 mag=     -0.218
       N       E                     dE             d eps       ncg     rms          rms(c)
DAV:   1    -0.431723453207E+02   -0.14213E-02   -0.31658E-02  3376   0.106E+00    0.110E-01
RMM:   2    -0.431737935912E+02   -0.14483E-02   -0.68593E-03  2024   0.275E-01
    319 T=   769. E= -.43125456E+02 F= -.43173794E+02 E0= -.43125568E+02  EK= 0.34788E+01 SP= -.34E+01 SK= 0.12E-01 mag=     -0.272
       N       E                     dE             d eps       ncg     rms          rms(c)
DAV:   1    -0.431706302610E+02    0.17151E-02   -0.44347E-02  3656   0.112E+00    0.103E-01
RMM:   2    -0.431723288244E+02   -0.16986E-02   -0.68486E-03  2041   0.284E-01
    320 T=   760. E= -.43120809E+02 F= -.43172329E+02 E0= -.43123783E+02  EK= 0.34385E+01 SP= -.34E+01 SK= 0.10E-01 mag=     -0.141
       N       E                     dE             d eps       ncg     rms          rms(c)
DAV:   1    -0.431659007489E+02    0.47295E-02   -0.26331E-02  3432   0.107E+00    0.133E-01
RMM:   2    -0.431686273068E+02   -0.27266E-02   -0.79899E-03  2042   0.306E-01    0.108E-01
RMM:   3    -0.431706902923E+02   -0.20630E-02   -0.29494E-03  1923   0.125E-01    0.736E-02
RMM:   4    -0.431720299002E+02   -0.13396E-02   -0.17425E-03  1819   0.876E-02
    321 T=   752. E= -.43119957E+02 F= -.43172030E+02 E0= -.43123473E+02  EK= 0.34002E+01 SP= -.34E+01 SK= 0.82E-02 mag=      0.067
       N       E                     dE             d eps       ncg     rms          rms(c)
DAV:   1    -0.431617293775E+02    0.89609E-02   -0.33994E-02  3464   0.109E+00    0.158E-01
RMM:   2    -0.431648876129E+02   -0.31582E-02   -0.71064E-03  1882   0.256E-01    0.126E-01
RMM:   3    -0.431672972618E+02   -0.24096E-02   -0.27898E-03  1824   0.104E-01    0.867E-02
RMM:   4    -0.431692306529E+02   -0.19334E-02   -0.21879E-03  1826   0.834E-02    0.420E-02
RMM:   5    -0.431695173198E+02   -0.28667E-03   -0.40040E-04  1441   0.455E-02
    322 T=   744. E= -.43117566E+02 F= -.43169517E+02 E0= -.43120914E+02  EK= 0.33668E+01 SP= -.33E+01 SK= 0.59E-02 mag=      0.020
       N       E                     dE             d eps       ncg     rms          rms(c)
DAV:   1    -0.431649407140E+02    0.42899E-02   -0.16230E-02  3296   0.987E-01    0.662E-02
RMM:   2    -0.431658363441E+02   -0.89563E-03   -0.40104E-03  1970   0.240E-01
    323 T=   738. E= -.43112700E+02 F= -.43165836E+02 E0= -.43117400E+02  EK= 0.33407E+01 SP= -.33E+01 SK= 0.38E-02 mag=     -0.204
       N       E                     dE             d eps       ncg     rms          rms(c)
DAV:   1    -0.431587288983E+02    0.62118E-02   -0.18621E-02  3552   0.109E+00    0.944E-02
RMM:   2    -0.431604495034E+02   -0.17206E-02   -0.70489E-03  2030   0.267E-01
    324 T=   734. E= -.43107386E+02 F= -.43160450E+02 E0= -.43112703E+02  EK= 0.33199E+01 SP= -.33E+01 SK= 0.20E-02 mag=     -0.428
       N       E                     dE             d eps       ncg     rms          rms(c)
DAV:   1    -0.431551845159E+02    0.35444E-02   -0.17815E-02  3088   0.102E+00    0.110E-01
RMM:   2    -0.431568473647E+02   -0.16628E-02   -0.50874E-03  2022   0.272E-01
    325 T=   731. E= -.43103731E+02 F= -.43156847E+02 E0= -.43109240E+02  EK= 0.33060E+01 SP= -.33E+01 SK= 0.71E-03 mag=     -0.440
       N       E                     dE             d eps       ncg     rms          rms(c)
DAV:   1    -0.431552320818E+02   -0.47566E-04   -0.22207E-02  3536   0.108E+00    0.512E-02
RMM:   2    -0.431563796734E+02   -0.11476E-02   -0.63569E-03  2030   0.286E-01
    326 T=   730. E= -.43100101E+02 F= -.43156380E+02 E0= -.43107905E+02  EK= 0.33024E+01 SP= -.32E+01 SK= 0.69E-04 mag=     -0.185
       N       E                     dE             d eps       ncg     rms          rms(c)
DAV:   1    -0.431535058903E+02    0.17262E-02   -0.15400E-02  3240   0.982E-01    0.622E-02
RMM:   2    -0.431546877076E+02   -0.11818E-02   -0.61960E-03  2014   0.289E-01
    327 T=   731. E= -.43094114E+02 F= -.43154688E+02 E0= -.43106261E+02  EK= 0.33071E+01 SP= -.32E+01 SK= 0.10E-03 mag=      0.251
       N       E                     dE             d eps       ncg     rms          rms(c)
DAV:   1    -0.431485568728E+02    0.49490E-02   -0.18211E-02  3344   0.106E+00    0.131E-01
RMM:   2    -0.431511416001E+02   -0.25847E-02   -0.68392E-03  2003   0.269E-01    0.108E-01
RMM:   3    -0.431536286036E+02   -0.24870E-02   -0.40709E-03  1831   0.125E-01    0.749E-02
RMM:   4    -0.431552588461E+02   -0.16302E-02   -0.37198E-03  1852   0.983E-02
    328 T=   733. E= -.43090786E+02 F= -.43155259E+02 E0= -.43106716E+02  EK= 0.33184E+01 SP= -.33E+01 SK= 0.78E-03 mag=      0.099
       N       E                     dE             d eps       ncg     rms          rms(c)
DAV:   1    -0.431509544150E+02    0.26742E-02   -0.20041E-02  3328   0.102E+00    0.136E-01
RMM:   2    -0.431534731261E+02   -0.25187E-02   -0.56540E-03  1881   0.237E-01    0.107E-01
RMM:   3    -0.431555413712E+02   -0.20682E-02   -0.27872E-03  1824   0.980E-02    0.753E-02
RMM:   4    -0.431569648638E+02   -0.14235E-02   -0.23240E-03  1825   0.779E-02
    329 T=   738. E= -.43088367E+02 F= -.43156965E+02 E0= -.43108323E+02  EK= 0.33368E+01 SP= -.33E+01 SK= 0.20E-02 mag=     -0.103
       N       E                     dE             d eps       ncg     rms          rms(c)
DAV:   1    -0.431589409137E+02   -0.33995E-02   -0.21128E-02  3440   0.102E+00    0.873E-02
RMM:   2    -0.431601070891E+02   -0.11662E-02   -0.51270E-03  1976   0.241E-01
    330 T=   744. E= -.43082990E+02 F= -.43160107E+02 E0= -.43111780E+02  EK= 0.33662E+01 SP= -.33E+01 SK= 0.37E-02 mag=     -0.261
       N       E                     dE             d eps       ncg     rms          rms(c)
DAV:   1    -0.431644115350E+02   -0.54706E-02   -0.23544E-02  3704   0.103E+00    0.786E-02
RMM:   2    -0.431657161651E+02   -0.13046E-02   -0.54050E-03  2001   0.255E-01
    331 T=   752. E= -.43079522E+02 F= -.43165716E+02 E0= -.43117494E+02  EK= 0.34022E+01 SP= -.33E+01 SK= 0.55E-02 mag=     -0.303
       N       E                     dE             d eps       ncg     rms          rms(c)
DAV:   1    -0.431728308803E+02   -0.84193E-02   -0.15709E-02  3392   0.105E+00    0.852E-02
RMM:   2    -0.431741925833E+02   -0.13617E-02   -0.53987E-03  1999   0.267E-01
    332 T=   762. E= -.43076861E+02 F= -.43174193E+02 E0= -.43125600E+02  EK= 0.34456E+01 SP= -.34E+01 SK= 0.74E-02 mag=     -0.178
       N       E                     dE             d eps       ncg     rms          rms(c)
DAV:   1    -0.431847279625E+02   -0.11897E-01   -0.19112E-02  3208   0.108E+00    0.675E-02
RMM:   2    -0.431858164793E+02   -0.10885E-02   -0.59763E-03  2025   0.286E-01
    333 T=   773. E= -.43072117E+02 F= -.43185816E+02 E0= -.43136933E+02  EK= 0.34988E+01 SP= -.34E+01 SK= 0.89E-02 mag=      0.091
       N       E                     dE             d eps       ncg     rms          rms(c)
DAV:   1    -0.431961978103E+02   -0.11470E-01   -0.14443E-02  3376   0.104E+00    0.856E-02
RMM:   2    -0.431976440437E+02   -0.14462E-02   -0.65898E-03  2034   0.293E-01
    334 T=   786. E= -.43065860E+02 F= -.43197644E+02 E0= -.43149449E+02  EK= 0.35572E+01 SP= -.34E+01 SK= 0.99E-02 mag=      0.402
       N       E                     dE             d eps       ncg     rms          rms(c)
DAV:   1    -0.432070431155E+02   -0.10845E-01   -0.18150E-02  3456   0.110E+00    0.126E-01
RMM:   2    -0.432094738848E+02   -0.24308E-02   -0.71079E-03  2003   0.291E-01    0.108E-01
RMM:   3    -0.432115915665E+02   -0.21177E-02   -0.34955E-03  1828   0.126E-01    0.827E-02
RMM:   4    -0.432138071451E+02   -0.22156E-02   -0.49602E-03  1976   0.109E-01    0.316E-02
RMM:   5    -0.432139942513E+02   -0.18711E-03   -0.54978E-04  1623   0.558E-02
    335 T=   800. E= -.43064792E+02 F= -.43213994E+02 E0= -.43164818E+02  EK= 0.36172E+01 SP= -.35E+01 SK= 0.10E-01 mag=      0.055
       N       E                     dE             d eps       ncg     rms          rms(c)
DAV:   1    -0.432196179174E+02   -0.58108E-02   -0.26390E-02  3320   0.106E+00    0.156E-01
RMM:   2    -0.432231103777E+02   -0.34925E-02   -0.91840E-03  1879   0.258E-01    0.133E-01
RMM:   3    -0.432264694013E+02   -0.33590E-02   -0.51957E-03  1824   0.114E-01    0.992E-02
RMM:   4    -0.432293938828E+02   -0.29245E-02   -0.68578E-03  1950   0.114E-01    0.482E-02
RMM:   5    -0.432298588797E+02   -0.46500E-03   -0.10720E-03  1713   0.653E-02
    336 T=   813. E= -.43063474E+02 F= -.43229859E+02 E0= -.43180562E+02  EK= 0.36776E+01 SP= -.35E+01 SK= 0.10E-01 mag=     -0.059
       N       E                     dE             d eps       ncg     rms          rms(c)
DAV:   1    -0.432448933139E+02   -0.15499E-01   -0.17030E-02  3464   0.106E+00    0.619E-02
RMM:   2    -0.432460992792E+02   -0.12060E-02   -0.57432E-03  2016   0.260E-01
    337 T=   827. E= -.43059087E+02 F= -.43246099E+02 E0= -.43196654E+02  EK= 0.37408E+01 SP= -.36E+01 SK= 0.90E-02 mag=      0.068
       N       E                     dE             d eps       ncg     rms          rms(c)
DAV:   1    -0.432602821139E+02   -0.15389E-01   -0.22541E-02  3936   0.112E+00    0.834E-02
RMM:   2    -0.432620743002E+02   -0.17922E-02   -0.65016E-03  2036   0.259E-01
    338 T=   840. E= -.43055770E+02 F= -.43262074E+02 E0= -.43213035E+02  EK= 0.38002E+01 SP= -.36E+01 SK= 0.74E-02 mag=      0.333
       N       E                     dE             d eps       ncg     rms          rms(c)
DAV:   1    -0.432764196732E+02   -0.16138E-01   -0.17282E-02  3232   0.107E+00    0.108E-01
RMM:   2    -0.432782803534E+02   -0.18607E-02   -0.63229E-03  2025   0.291E-01    0.907E-02
RMM:   3    -0.432795161728E+02   -0.12358E-02   -0.21305E-03  1955   0.121E-01
    339 T=   852. E= -.43055142E+02 F= -.43279516E+02 E0= -.43230366E+02  EK= 0.38543E+01 SP= -.36E+01 SK= 0.54E-02 mag=      0.172
       N       E                     dE             d eps       ncg     rms          rms(c)
DAV:   1    -0.432929413230E+02   -0.14661E-01   -0.39120E-02  3456   0.118E+00    0.105E-01
RMM:   2    -0.432950716505E+02   -0.21303E-02   -0.70013E-03  1962   0.297E-01    0.877E-02
RMM:   3    -0.432956721539E+02   -0.60050E-03   -0.18053E-03  1794   0.104E-01
    340 T=   863. E= -.43050376E+02 F= -.43295672E+02 E0= -.43245772E+02  EK= 0.39055E+01 SP= -.37E+01 SK= 0.34E-02 mag=     -0.202
       N       E                     dE             d eps       ncg     rms          rms(c)
DAV:   1    -0.433056844153E+02   -0.10613E-01   -0.55457E-02  3560   0.116E+00    0.138E-01
RMM:   2    -0.433079435991E+02   -0.22592E-02   -0.78155E-03  2032   0.299E-01    0.106E-01
RMM:   3    -0.433089250452E+02   -0.98145E-03   -0.19022E-03  1991   0.116E-01
    341 T=   873. E= -.43044722E+02 F= -.43308925E+02 E0= -.43259592E+02  EK= 0.39473E+01 SP= -.37E+01 SK= 0.16E-02 mag=     -0.358
       N       E                     dE             d eps       ncg     rms          rms(c)
DAV:   1    -0.433223141303E+02   -0.14371E-01   -0.31827E-02  3472   0.119E+00    0.101E-01
RMM:   2    -0.433235611261E+02   -0.12470E-02   -0.66616E-03  2024   0.290E-01
    342 T=   880. E= -.43041909E+02 F= -.43323561E+02 E0= -.43272698E+02  EK= 0.39791E+01 SP= -.37E+01 SK= 0.42E-03 mag=     -0.217
       N       E                     dE             d eps       ncg     rms          rms(c)
DAV:   1    -0.433304012046E+02   -0.80871E-02   -0.46477E-02  3960   0.117E+00    0.906E-02
RMM:   2    -0.433320111993E+02   -0.16100E-02   -0.83756E-03  2040   0.285E-01
    343 T=   883. E= -.43037086E+02 F= -.43332011E+02 E0= -.43280846E+02  EK= 0.39970E+01 SP= -.37E+01 SK= 0.10E-05 mag=      0.177
       N       E                     dE             d eps       ncg     rms          rms(c)
DAV:   1    -0.433324875452E+02   -0.20863E-02   -0.21644E-02  3544   0.111E+00    0.148E-01
RMM:   2    -0.433352865810E+02   -0.27990E-02   -0.83764E-03  2029   0.316E-01    0.122E-01
RMM:   3    -0.433383004638E+02   -0.30139E-02   -0.40719E-03  1901   0.138E-01    0.809E-02
RMM:   4    -0.433400329556E+02   -0.17325E-02   -0.26149E-03  1838   0.102E-01
    344 T=   884. E= -.43037028E+02 F= -.43340033E+02 E0= -.43288536E+02  EK= 0.39995E+01 SP= -.37E+01 SK= 0.54E-03 mag=      0.147
       N       E                     dE             d eps       ncg     rms          rms(c)
DAV:   1    -0.433367125256E+02    0.15879E-02   -0.36036E-02  3720   0.120E+00    0.148E-01
RMM:   2    -0.433394604484E+02   -0.27479E-02   -0.82094E-03  1867   0.267E-01    0.118E-01
RMM:   3    -0.433414424783E+02   -0.19820E-02   -0.29453E-03  1824   0.106E-01    0.886E-02
RMM:   4    -0.433434644134E+02   -0.20219E-02   -0.29324E-03  1836   0.844E-02    0.413E-02
RMM:   5    -0.433437423416E+02   -0.27793E-03   -0.43216E-04  1533   0.481E-02
    345 T=   882. E= -.43034751E+02 F= -.43343742E+02 E0= -.43291690E+02  EK= 0.39895E+01 SP= -.37E+01 SK= 0.20E-02 mag=     -0.077
       N       E                     dE             d eps       ncg     rms          rms(c)
DAV:   1    -0.433410204961E+02    0.24439E-02   -0.22112E-02  3560   0.109E+00    0.869E-02
RMM:   2    -0.433421432722E+02   -0.11228E-02   -0.50963E-03  1949   0.255E-01
    346 T=   877. E= -.43028962E+02 F= -.43342143E+02 E0= -.43290262E+02  EK= 0.39678E+01 SP= -.37E+01 SK= 0.44E-02 mag=     -0.349
       N       E                     dE             d eps       ncg     rms          rms(c)
DAV:   1    -0.433338402834E+02    0.71802E-02   -0.21124E-02  3712   0.117E+00    0.104E-01
RMM:   2    -0.433359212142E+02   -0.20809E-02   -0.87607E-03  2020   0.273E-01    0.842E-02
RMM:   3    -0.433368816653E+02   -0.96045E-03   -0.24746E-03  1891   0.109E-01
    347 T=   869. E= -.43025097E+02 F= -.43336882E+02 E0= -.43284919E+02  EK= 0.39313E+01 SP= -.36E+01 SK= 0.73E-02 mag=     -0.152
       N       E                     dE             d eps       ncg     rms          rms(c)
DAV:   1    -0.433262477986E+02    0.96734E-02   -0.37025E-02  3256   0.113E+00    0.109E-01
RMM:   2    -0.433286984415E+02   -0.24506E-02   -0.63451E-03  1983   0.286E-01    0.810E-02
RMM:   3    -0.433291726684E+02   -0.47423E-03   -0.15128E-03  1801   0.996E-02
    348 T=   858. E= -.43022467E+02 F= -.43329173E+02 E0= -.43276645E+02  EK= 0.38832E+01 SP= -.36E+01 SK= 0.10E-01 mag=      0.273
       N       E                     dE             d eps       ncg     rms          rms(c)
DAV:   1    -0.433124487169E+02    0.16250E-01   -0.73460E-02  3784   0.119E+00    0.139E-01
RMM:   2    -0.433147153836E+02   -0.22667E-02   -0.76929E-03  2030   0.305E-01    0.104E-01
RMM:   3    -0.433159620872E+02   -0.12467E-02   -0.17936E-03  1989   0.109E-01
    349 T=   846. E= -.43015776E+02 F= -.43315962E+02 E0= -.43264082E+02  EK= 0.38272E+01 SP= -.35E+01 SK= 0.13E-01 mag=      0.304
       N       E                     dE             d eps       ncg     rms          rms(c)
DAV:   1    -0.433014026550E+02    0.13313E-01   -0.31905E-02  3512   0.118E+00    0.925E-02
RMM:   2    -0.433027870353E+02   -0.13844E-02   -0.62774E-03  2006   0.281E-01
    350 T=   832. E= -.43012698E+02 F= -.43302787E+02 E0= -.43249435E+02  EK= 0.37631E+01 SP= -.35E+01 SK= 0.16E-01 mag=     -0.030
       N       E                     dE             d eps       ncg     rms          rms(c)
DAV:   1    -0.432796468401E+02    0.21756E-01   -0.44210E-02  3872   0.118E+00    0.118E-01
RMM:   2    -0.432816591999E+02   -0.20124E-02   -0.78235E-03  2011   0.281E-01    0.912E-02
RMM:   3    -0.432832356391E+02   -0.15764E-02   -0.25228E-03  1961   0.116E-01
    351 T=   816. E= -.43007630E+02 F= -.43283236E+02 E0= -.43230426E+02  EK= 0.36919E+01 SP= -.34E+01 SK= 0.18E-01 mag=     -0.233
       N       E                     dE             d eps       ncg     rms          rms(c)
DAV:   1    -0.432616228456E+02    0.20036E-01   -0.27178E-02  3336   0.106E+00    0.103E-01
RMM:   2    -0.432628009584E+02   -0.11781E-02   -0.49755E-03  1931   0.273E-01
    352 T=   800. E= -.43002440E+02 F= -.43262801E+02 E0= -.43209720E+02  EK= 0.36193E+01 SP= -.34E+01 SK= 0.18E-01 mag=     -0.251
       N       E                     dE             d eps       ncg     rms          rms(c)
DAV:   1    -0.432369615682E+02    0.24661E-01   -0.33983E-02  3896   0.113E+00    0.108E-01
RMM:   2    -0.432386135978E+02   -0.16520E-02   -0.56807E-03  2013   0.241E-01
    353 T=   784. E= -.42994880E+02 F= -.43238614E+02 E0= -.43185247E+02  EK= 0.35463E+01 SP= -.33E+01 SK= 0.18E-01 mag=     -0.089
       N       E                     dE             d eps       ncg     rms          rms(c)
DAV:   1    -0.432130427599E+02    0.23919E-01   -0.12150E-02  2736   0.101E+00    0.105E-01
RMM:   2    -0.432146435866E+02   -0.16008E-02   -0.60013E-03  2015   0.287E-01
    354 T=   768. E= -.42990198E+02 F= -.43214644E+02 E0= -.43161383E+02  EK= 0.34736E+01 SP= -.33E+01 SK= 0.16E-01 mag=      0.160
       N       E                     dE             d eps       ncg     rms          rms(c)
DAV:   1    -0.431885049272E+02    0.24538E-01   -0.29577E-02  4040   0.119E+00    0.695E-02
RMM:   2    -0.431899509826E+02   -0.14461E-02   -0.75409E-03  2018   0.299E-01
    355 T=   753. E= -.42985190E+02 F= -.43189951E+02 E0= -.43137369E+02  EK= 0.34050E+01 SP= -.32E+01 SK= 0.13E-01 mag=      0.391
       N       E                     dE             d eps       ncg     rms          rms(c)
DAV:   1    -0.431583932589E+02    0.30112E-01   -0.23251E-02  3536   0.975E-01    0.128E-01
RMM:   2    -0.431609418623E+02   -0.25486E-02   -0.86734E-03  2004   0.314E-01    0.107E-01
RMM:   3    -0.431629585170E+02   -0.20167E-02   -0.35892E-03  1909   0.122E-01    0.834E-02
RMM:   4    -0.431650799365E+02   -0.21214E-02   -0.46908E-03  1952   0.104E-01    0.346E-02
RMM:   5    -0.431652378697E+02   -0.15793E-03   -0.43694E-04  1612   0.534E-02
    356 T=   738. E= -.42983847E+02 F= -.43165238E+02 E0= -.43112114E+02  EK= 0.33386E+01 SP= -.32E+01 SK= 0.10E-01 mag=      0.088
       N       E                     dE             d eps       ncg     rms          rms(c)
DAV:   1    -0.431327600315E+02    0.32320E-01   -0.25675E-02  3232   0.104E+00    0.125E-01
RMM:   2    -0.431350091322E+02   -0.22491E-02   -0.68985E-03  1874   0.247E-01    0.104E-01
RMM:   3    -0.431368689773E+02   -0.18598E-02   -0.32956E-03  1824   0.105E-01    0.813E-02
RMM:   4    -0.431384793150E+02   -0.16103E-02   -0.26007E-03  1831   0.825E-02
    357 T=   725. E= -.42980425E+02 F= -.43138479E+02 E0= -.43085876E+02  EK= 0.32793E+01 SP= -.31E+01 SK= 0.69E-02 mag=     -0.185
       N       E                     dE             d eps       ncg     rms          rms(c)
DAV:   1    -0.431114103440E+02    0.25459E-01   -0.15104E-02  3576   0.101E+00    0.844E-02
RMM:   2    -0.431124741919E+02   -0.10638E-02   -0.48137E-03  2004   0.242E-01
    358 T=   714. E= -.42975510E+02 F= -.43112474E+02 E0= -.43060070E+02  EK= 0.32305E+01 SP= -.31E+01 SK= 0.38E-02 mag=     -0.274
       N       E                     dE             d eps       ncg     rms          rms(c)
DAV:   1    -0.430877047593E+02    0.23706E-01   -0.21466E-02  3752   0.100E+00    0.458E-02
RMM:   2    -0.430884800088E+02   -0.77525E-03   -0.47164E-03  2001   0.250E-01
    359 T=   705. E= -.42973738E+02 F= -.43088480E+02 E0= -.43036089E+02  EK= 0.31893E+01 SP= -.31E+01 SK= 0.14E-02 mag=     -0.137
       N       E                     dE             d eps       ncg     rms          rms(c)
DAV:   1    -0.430641267657E+02    0.23578E-01   -0.14825E-02  3408   0.994E-01    0.577E-02
RMM:   2    -0.430649700936E+02   -0.84333E-03   -0.47309E-03  1996   0.244E-01
    360 T=   698. E= -.42971629E+02 F= -.43064970E+02 E0= -.43012899E+02  EK= 0.31586E+01 SP= -.31E+01 SK= 0.14E-03 mag=      0.162
       N       E                     dE             d eps       ncg     rms          rms(c)
DAV:   1    -0.430401434291E+02    0.23983E-01   -0.12803E-02  2848   0.999E-01    0.880E-02
RMM:   2    -0.430415166740E+02   -0.13732E-02   -0.55063E-03  2015   0.264E-01
    361 T=   694. E= -.42965819E+02 F= -.43041517E+02 E0= -.42990501E+02  EK= 0.31415E+01 SP= -.31E+01 SK= 0.24E-03 mag=      0.440
       N       E                     dE             d eps       ncg     rms          rms(c)
DAV:   1    -0.430193031469E+02    0.20840E-01   -0.12314E-02  3288   0.974E-01    0.900E-02
RMM:   2    -0.430206725789E+02   -0.13694E-02   -0.51906E-03  1992   0.275E-01
    362 T=   693. E= -.42960416E+02 F= -.43020673E+02 E0= -.42970378E+02  EK= 0.31369E+01 SP= -.31E+01 SK= 0.19E-02 mag=      0.487
       N       E                     dE             d eps       ncg     rms          rms(c)
DAV:   1    -0.430027969008E+02    0.16506E-01   -0.13306E-02  3352   0.102E+00    0.538E-02
RMM:   2    -0.430037719876E+02   -0.97509E-03   -0.52377E-03  2000   0.268E-01
    363 T=   695. E= -.42956480E+02 F= -.43003772E+02 E0= -.42952930E+02  EK= 0.31452E+01 SP= -.31E+01 SK= 0.51E-02 mag=      0.244
       N       E                     dE             d eps       ncg     rms          rms(c)
DAV:   1    -0.429860864754E+02    0.16710E-01   -0.14617E-02  3272   0.976E-01    0.721E-02
RMM:   2    -0.429872355277E+02   -0.11491E-02   -0.55996E-03  2005   0.271E-01
    364 T=   700. E= -.42950937E+02 F= -.42987236E+02 E0= -.42936580E+02  EK= 0.31657E+01 SP= -.31E+01 SK= 0.97E-02 mag=     -0.204
       N       E                     dE             d eps       ncg     rms          rms(c)
DAV:   1    -0.429679874756E+02    0.18099E-01   -0.14047E-02  3408   0.995E-01    0.117E-01
RMM:   2    -0.429699740352E+02   -0.19866E-02   -0.64147E-03  2007   0.273E-01    0.974E-02
RMM:   3    -0.429712260912E+02   -0.12521E-02   -0.23973E-03  1922   0.112E-01
    365 T=   707. E= -.42945740E+02 F= -.42971226E+02 E0= -.42922023E+02  EK= 0.31965E+01 SP= -.32E+01 SK= 0.15E-01 mag=     -0.214
       N       E                     dE             d eps       ncg     rms          rms(c)
DAV:   1    -0.429574826611E+02    0.12491E-01   -0.40394E-02  3184   0.101E+00    0.107E-01
RMM:   2    -0.429594766245E+02   -0.19940E-02   -0.66801E-03  1916   0.289E-01    0.777E-02
RMM:   3    -0.429600504005E+02   -0.57378E-03   -0.16125E-03  1826   0.984E-02
    366 T=   716. E= -.42943062E+02 F= -.42960050E+02 E0= -.42910081E+02  EK= 0.32394E+01 SP= -.32E+01 SK= 0.22E-01 mag=      0.087
       N       E                     dE             d eps       ncg     rms          rms(c)
DAV:   1    -0.429457227005E+02    0.13754E-01   -0.72879E-02  3560   0.106E+00    0.121E-01
RMM:   2    -0.429477010021E+02   -0.19783E-02   -0.72124E-03  2013   0.281E-01    0.912E-02
RMM:   3    -0.429486687129E+02   -0.96771E-03   -0.17910E-03  1984   0.110E-01
    367 T=   728. E= -.42938069E+02 F= -.42948669E+02 E0= -.42899726E+02  EK= 0.32936E+01 SP= -.33E+01 SK= 0.28E-01 mag=      0.299
       N       E                     dE             d eps       ncg     rms          rms(c)
DAV:   1    -0.429389719506E+02    0.87291E-02   -0.37659E-02  3216   0.107E+00    0.896E-02
RMM:   2    -0.429402252755E+02   -0.12533E-02   -0.58322E-03  1998   0.279E-01
    368 T=   742. E= -.42934093E+02 F= -.42940225E+02 E0= -.42891350E+02  EK= 0.33583E+01 SP= -.34E+01 SK= 0.34E-01 mag=      0.322
       N       E                     dE             d eps       ncg     rms          rms(c)
DAV:   1    -0.429304677519E+02    0.85042E-02   -0.34734E-02  3736   0.105E+00    0.854E-02
RMM:   2    -0.429319488540E+02   -0.14811E-02   -0.64109E-03  2003   0.262E-01
    369 T=   758. E= -.42929643E+02 F= -.42931949E+02 E0= -.42883008E+02  EK= 0.34310E+01 SP= -.35E+01 SK= 0.39E-01 mag=      0.116
       N       E                     dE             d eps       ncg     rms          rms(c)
DAV:   1    -0.429232248537E+02    0.72429E-02   -0.16299E-02  3352   0.103E+00    0.101E-01
RMM:   2    -0.429250465890E+02   -0.18217E-02   -0.69264E-03  2004   0.294E-01    0.813E-02
RMM:   3    -0.429264409963E+02   -0.13944E-02   -0.25650E-03  1935   0.122E-01
    370 T=   776. E= -.42927785E+02 F= -.42926441E+02 E0= -.42877841E+02  EK= 0.35101E+01 SP= -.36E+01 SK= 0.43E-01 mag=     -0.106
       N       E                     dE             d eps       ncg     rms          rms(c)
DAV:   1    -0.429179725218E+02    0.70741E-02   -0.25188E-02  3424   0.106E+00    0.102E-01
RMM:   2    -0.429197409873E+02   -0.17685E-02   -0.55124E-03  1857   0.278E-01
    371 T=   796. E= -.42919470E+02 F= -.42919741E+02 E0= -.42871681E+02  EK= 0.35990E+01 SP= -.36E+01 SK= 0.45E-01 mag=     -0.253
       N       E                     dE             d eps       ncg     rms          rms(c)
DAV:   1    -0.429067954472E+02    0.11177E-01   -0.33138E-02  3928   0.114E+00    0.171E-01
RMM:   2    -0.429104784190E+02   -0.36830E-02   -0.74627E-03  1963   0.250E-01    0.141E-01
RMM:   3    -0.429138139454E+02   -0.33355E-02   -0.29298E-03  1824   0.109E-01    0.108E-01
RMM:   4    -0.429172096896E+02   -0.33957E-02   -0.62924E-03  1979   0.109E-01    0.240E-02
RMM:   5    -0.429172545941E+02   -0.44905E-04   -0.40124E-04  1623   0.547E-02
    372 T=   815. E= -.42916977E+02 F= -.42917255E+02 E0= -.42869126E+02  EK= 0.36891E+01 SP= -.37E+01 SK= 0.44E-01 mag=     -0.044
       N       E                     dE             d eps       ncg     rms          rms(c)
DAV:   1    -0.428997867214E+02    0.17423E-01   -0.33184E-02  3504   0.101E+00    0.195E-01
RMM:   2    -0.429043913229E+02   -0.46046E-02   -0.10465E-02  1872   0.256E-01    0.161E-01
RMM:   3    -0.429083333212E+02   -0.39420E-02   -0.38673E-03  1831   0.105E-01    0.127E-01
RMM:   4    -0.429131483137E+02   -0.48150E-02   -0.10409E-02  2025   0.121E-01    0.388E-02
RMM:   5    -0.429132703509E+02   -0.12204E-03   -0.56613E-04  1625   0.601E-02
    373 T=   835. E= -.42916492E+02 F= -.42913270E+02 E0= -.42865449E+02  EK= 0.37761E+01 SP= -.38E+01 SK= 0.41E-01 mag=      0.071
       N       E                     dE             d eps       ncg     rms          rms(c)
DAV:   1    -0.429082050185E+02    0.49433E-02   -0.17639E-02  3496   0.107E+00    0.634E-02
RMM:   2    -0.429092172655E+02   -0.10122E-02   -0.51442E-03  2011   0.285E-01
    374 T=   854. E= -.42912003E+02 F= -.42909217E+02 E0= -.42861648E+02  EK= 0.38650E+01 SP= -.39E+01 SK= 0.37E-01 mag=      0.057
       N       E                     dE             d eps       ncg     rms          rms(c)
DAV:   1    -0.429015733032E+02    0.66317E-02   -0.17928E-02  3560   0.110E+00    0.990E-02
RMM:   2    -0.429036051178E+02   -0.20318E-02   -0.66129E-03  2010   0.272E-01    0.806E-02
RMM:   3    -0.429045502246E+02   -0.94511E-03   -0.17650E-03  1833   0.103E-01
    375 T=   873. E= -.42908169E+02 F= -.42904550E+02 E0= -.42857233E+02  EK= 0.39481E+01 SP= -.40E+01 SK= 0.30E-01 mag=     -0.042
       N       E                     dE             d eps       ncg     rms          rms(c)
DAV:   1    -0.428991039903E+02    0.45011E-02   -0.24256E-02  3224   0.110E+00    0.880E-02
RMM:   2    -0.429005311702E+02   -0.14272E-02   -0.43538E-03  1935   0.253E-01
    376 T=   890. E= -.42904044E+02 F= -.42900531E+02 E0= -.42853434E+02  EK= 0.40249E+01 SP= -.41E+01 SK= 0.23E-01 mag=     -0.158
       N       E                     dE             d eps       ncg     rms          rms(c)
DAV:   1    -0.428918790866E+02    0.72249E-02   -0.37533E-02  3896   0.117E+00    0.113E-01
RMM:   2    -0.428939052070E+02   -0.20261E-02   -0.60053E-03  2005   0.243E-01    0.891E-02
RMM:   3    -0.428953950394E+02   -0.14898E-02   -0.19908E-03  1882   0.993E-02
    377 T=   905. E= -.42898379E+02 F= -.42895395E+02 E0= -.42848561E+02  EK= 0.40923E+01 SP= -.41E+01 SK= 0.16E-01 mag=     -0.053
       N       E                     dE             d eps       ncg     rms          rms(c)
DAV:   1    -0.428876098956E+02    0.62953E-02   -0.22131E-02  3280   0.108E+00    0.123E-01
RMM:   2    -0.428900858640E+02   -0.24760E-02   -0.53310E-03  1911   0.288E-01    0.871E-02
RMM:   3    -0.428907403676E+02   -0.65450E-03   -0.13910E-03  1715   0.107E-01
    378 T=   916. E= -.42894899E+02 F= -.42890740E+02 E0= -.42844093E+02  EK= 0.41458E+01 SP= -.42E+01 SK= 0.97E-02 mag=      0.088
       N       E                     dE             d eps       ncg     rms          rms(c)
DAV:   1    -0.428823915629E+02    0.76943E-02   -0.56262E-02  3720   0.116E+00    0.103E-01
RMM:   2    -0.428841591752E+02   -0.17676E-02   -0.65089E-03  2019   0.288E-01
    379 T=   925. E= -.42887861E+02 F= -.42884159E+02 E0= -.42837852E+02  EK= 0.41865E+01 SP= -.42E+01 SK= 0.44E-02 mag=      0.197
       N       E                     dE             d eps       ncg     rms          rms(c)
DAV:   1    -0.428758432300E+02    0.65483E-02   -0.46220E-02  3776   0.117E+00    0.101E-01
RMM:   2    -0.428776692899E+02   -0.18261E-02   -0.66486E-03  2019   0.276E-01    0.758E-02
RMM:   3    -0.428782913858E+02   -0.62210E-03   -0.17467E-03  1976   0.109E-01
    380 T=   930. E= -.42885914E+02 F= -.42878291E+02 E0= -.42832107E+02  EK= 0.42070E+01 SP= -.42E+01 SK= 0.11E-02 mag=      0.107
       N       E                     dE             d eps       ncg     rms          rms(c)
DAV:   1    -0.428691403046E+02    0.85290E-02   -0.35779E-02  3288   0.115E+00    0.121E-01
RMM:   2    -0.428711885647E+02   -0.20483E-02   -0.67774E-03  1915   0.292E-01    0.843E-02
RMM:   3    -0.428717414507E+02   -0.55289E-03   -0.18361E-03  1746   0.107E-01
    381 T=   931. E= -.42882233E+02 F= -.42871741E+02 E0= -.42825627E+02  EK= 0.42117E+01 SP= -.42E+01 SK= 0.31E-05 mag=     -0.097
       N       E                     dE             d eps       ncg     rms          rms(c)
DAV:   1    -0.428608470481E+02    0.10342E-01   -0.51443E-02  3848   0.118E+00    0.123E-01
RMM:   2    -0.428628846462E+02   -0.20376E-02   -0.63419E-03  2029   0.280E-01    0.914E-02
RMM:   3    -0.428638113907E+02   -0.92674E-03   -0.16671E-03  1909   0.102E-01
    382 T=   929. E= -.42875906E+02 F= -.42863811E+02 E0= -.42817934E+02  EK= 0.42008E+01 SP= -.42E+01 SK= 0.13E-02 mag=     -0.133
       N       E                     dE             d eps       ncg     rms          rms(c)
DAV:   1    -0.428557345157E+02    0.71501E-02   -0.34122E-02  3512   0.112E+00    0.839E-02
RMM:   2    -0.428572831717E+02   -0.15487E-02   -0.63357E-03  1992   0.273E-01
    383 T=   922. E= -.42872872E+02 F= -.42857283E+02 E0= -.42811273E+02  EK= 0.41714E+01 SP= -.42E+01 SK= 0.48E-02 mag=     -0.005
       N       E                     dE             d eps       ncg     rms          rms(c)
DAV:   1    -0.428455060003E+02    0.10229E-01   -0.52127E-02  3944   0.119E+00    0.109E-01
RMM:   2    -0.428475676229E+02   -0.20616E-02   -0.75511E-03  2026   0.281E-01    0.850E-02
RMM:   3    -0.428486057020E+02   -0.10381E-02   -0.21767E-03  1982   0.109E-01
    384 T=   912. E= -.42869027E+02 F= -.42848606E+02 E0= -.42802848E+02  EK= 0.41253E+01 SP= -.42E+01 SK= 0.10E-01 mag=      0.066
       N       E                     dE             d eps       ncg     rms          rms(c)
DAV:   1    -0.428411673614E+02    0.64003E-02   -0.30462E-02  3408   0.111E+00    0.920E-02
RMM:   2    -0.428426120452E+02   -0.14447E-02   -0.54327E-03  1962   0.276E-01
    385 T=   900. E= -.42863498E+02 F= -.42842612E+02 E0= -.42796830E+02  EK= 0.40700E+01 SP= -.41E+01 SK= 0.16E-01 mag=      0.067
       N       E                     dE             d eps       ncg     rms          rms(c)
DAV:   1    -0.428332962441E+02    0.78711E-02   -0.49633E-02  3944   0.120E+00    0.108E-01
RMM:   2    -0.428350568973E+02   -0.17607E-02   -0.68326E-03  2018   0.275E-01
    386 T=   885. E= -.42854586E+02 F= -.42835057E+02 E0= -.42789360E+02  EK= 0.40049E+01 SP= -.40E+01 SK= 0.23E-01 mag=      0.007
       N       E                     dE             d eps       ncg     rms          rms(c)
DAV:   1    -0.428289615336E+02    0.43347E-02   -0.17433E-02  3152   0.105E+00    0.112E-01
RMM:   2    -0.428307647426E+02   -0.18032E-02   -0.70073E-03  2078   0.320E-01    0.838E-02
RMM:   3    -0.428318618135E+02   -0.10971E-02   -0.19713E-03  1979   0.128E-01
    387 T=   868. E= -.42852666E+02 F= -.42831862E+02 E0= -.42786245E+02  EK= 0.39279E+01 SP= -.40E+01 SK= 0.30E-01 mag=     -0.043
       N       E                     dE             d eps       ncg     rms          rms(c)
DAV:   1    -0.428280757302E+02    0.26890E-02   -0.32479E-02  3872   0.115E+00    0.950E-02
RMM:   2    -0.428292868618E+02   -0.12111E-02   -0.49568E-03  1992   0.257E-01
    388 T=   851. E= -.42846415E+02 F= -.42829287E+02 E0= -.42783721E+02  EK= 0.38492E+01 SP= -.39E+01 SK= 0.35E-01 mag=     -0.067
       N       E                     dE             d eps       ncg     rms          rms(c)
DAV:   1    -0.428199331267E+02    0.81426E-02   -0.29007E-02  3840   0.115E+00    0.164E-01
RMM:   2    -0.428234959760E+02   -0.35628E-02   -0.84606E-03  1947   0.258E-01    0.135E-01
RMM:   3    -0.428286761515E+02   -0.51802E-02   -0.75438E-03  1824   0.144E-01    0.791E-02
RMM:   4    -0.428298627156E+02   -0.11866E-02   -0.25135E-03  1824   0.930E-02
    389 T=   833. E= -.42842885E+02 F= -.42829863E+02 E0= -.42784338E+02  EK= 0.37667E+01 SP= -.38E+01 SK= 0.40E-01 mag=     -0.013
       N       E                     dE             d eps       ncg     rms          rms(c)
DAV:   1    -0.428226755606E+02    0.60006E-02   -0.26028E-02  3328   0.102E+00    0.178E-01
RMM:   2    -0.428260602240E+02   -0.33847E-02   -0.85682E-03  1909   0.271E-01    0.139E-01
RMM:   3    -0.428299185621E+02   -0.38583E-02   -0.50083E-03  1824   0.119E-01    0.962E-02
RMM:   4    -0.428318418276E+02   -0.19233E-02   -0.24297E-03  1824   0.893E-02    0.471E-02
RMM:   5    -0.428321336000E+02   -0.29177E-03   -0.42434E-04  1568   0.491E-02
    390 T=   814. E= -.42840916E+02 F= -.42832134E+02 E0= -.42786652E+02  EK= 0.36824E+01 SP= -.37E+01 SK= 0.42E-01 mag=      0.016
       N       E                     dE             d eps       ncg     rms          rms(c)
DAV:   1    -0.428368824512E+02   -0.50406E-02   -0.18080E-02  3504   0.104E+00    0.616E-02
RMM:   2    -0.428378126335E+02   -0.93018E-03   -0.50165E-03  1987   0.248E-01
    391 T=   797. E= -.42836252E+02 F= -.42837813E+02 E0= -.42792377E+02  EK= 0.36045E+01 SP= -.36E+01 SK= 0.43E-01 mag=      0.010
       N       E                     dE             d eps       ncg     rms          rms(c)
DAV:   1    -0.428455912380E+02   -0.87088E-02   -0.19410E-02  3824   0.112E+00    0.610E-02
RMM:   2    -0.428469062228E+02   -0.13150E-02   -0.56551E-03  2007   0.251E-01
    392 T=   780. E= -.42833096E+02 F= -.42846906E+02 E0= -.42801528E+02  EK= 0.35308E+01 SP= -.36E+01 SK= 0.42E-01 mag=     -0.022
       N       E                     dE             d eps       ncg     rms          rms(c)
DAV:   1    -0.428587382113E+02   -0.13147E-01   -0.14915E-02  2992   0.992E-01    0.790E-02
RMM:   2    -0.428601840706E+02   -0.14459E-02   -0.57037E-03  2010   0.287E-01
    393 T=   766. E= -.42829308E+02 F= -.42860184E+02 E0= -.42814872E+02  EK= 0.34657E+01 SP= -.35E+01 SK= 0.39E-01 mag=     -0.046
       N       E                     dE             d eps       ncg     rms          rms(c)
DAV:   1    -0.428780896127E+02   -0.19351E-01   -0.22905E-02  4128   0.111E+00    0.419E-02
RMM:   2    -0.428791330882E+02   -0.10435E-02   -0.59027E-03  1990   0.277E-01
    394 T=   754. E= -.42825181E+02 F= -.42879133E+02 E0= -.42833828E+02  EK= 0.34115E+01 SP= -.34E+01 SK= 0.35E-01 mag=     -0.048
       N       E                     dE             d eps       ncg     rms          rms(c)
DAV:   1    -0.428993191843E+02   -0.21230E-01   -0.14315E-02  3400   0.974E-01    0.549E-02
RMM:   2    -0.429006105557E+02   -0.12914E-02   -0.65372E-03  1995   0.286E-01
    395 T=   744. E= -.42820664E+02 F= -.42900611E+02 E0= -.42855318E+02  EK= 0.33662E+01 SP= -.33E+01 SK= 0.30E-01 mag=     -0.019
       N       E                     dE             d eps       ncg     rms          rms(c)
DAV:   1    -0.429241251171E+02   -0.24806E-01   -0.18283E-02  3688   0.106E+00    0.910E-02
RMM:   2    -0.429255755410E+02   -0.14504E-02   -0.56171E-03  1996   0.261E-01
    396 T=   736. E= -.42815156E+02 F= -.42925576E+02 E0= -.42880311E+02  EK= 0.33320E+01 SP= -.32E+01 SK= 0.25E-01 mag=      0.024
       N       E                     dE             d eps       ncg     rms          rms(c)
DAV:   1    -0.429553064740E+02   -0.31181E-01   -0.15062E-02  3416   0.103E+00    0.704E-02
RMM:   2    -0.429565288651E+02   -0.12224E-02   -0.61408E-03  2015   0.304E-01
    397 T=   731. E= -.42811107E+02 F= -.42956529E+02 E0= -.42911286E+02  EK= 0.33094E+01 SP= -.32E+01 SK= 0.19E-01 mag=      0.059
       N       E                     dE             d eps       ncg     rms          rms(c)
DAV:   1    -0.429901563352E+02   -0.34850E-01   -0.16936E-02  3520   0.102E+00    0.380E-02
RMM:   2    -0.429911683002E+02   -0.10120E-02   -0.61556E-03  2007   0.279E-01
    398 T=   729. E= -.42806701E+02 F= -.42991168E+02 E0= -.42945881E+02  EK= 0.32981E+01 SP= -.31E+01 SK= 0.15E-01 mag=      0.066
       N       E                     dE             d eps       ncg     rms          rms(c)
DAV:   1    -0.430251480139E+02   -0.34992E-01   -0.14487E-02  3312   0.102E+00    0.886E-02
RMM:   2    -0.430267820287E+02   -0.16340E-02   -0.70453E-03  2037   0.282E-01
    399 T=   729. E= -.42800281E+02 F= -.43026782E+02 E0= -.42981463E+02  EK= 0.32971E+01 SP= -.31E+01 SK= 0.10E-01 mag=      0.034
       N       E                     dE             d eps       ncg     rms          rms(c)
DAV:   1    -0.430645642366E+02   -0.39416E-01   -0.20803E-02  3648   0.109E+00    0.108E-01
RMM:   2    -0.430663315727E+02   -0.17673E-02   -0.65213E-03  2011   0.302E-01
    400 T=   731. E= -.42794411E+02 F= -.43066332E+02 E0= -.43021002E+02  EK= 0.33067E+01 SP= -.30E+01 SK= 0.70E-02 mag=     -0.025
       N       E                     dE             d eps       ncg     rms          rms(c)
DAV:   1    -0.431094388437E+02   -0.44875E-01   -0.16885E-02  3288   0.103E+00    0.622E-02
RMM:   2    -0.431107469804E+02   -0.13081E-02   -0.64986E-03  2019   0.301E-01
    401 T=   735. E= -.42791082E+02 F= -.43110747E+02 E0= -.43065351E+02  EK= 0.33255E+01 SP= -.30E+01 SK= 0.44E-02 mag=     -0.074
       N       E                     dE             d eps       ncg     rms          rms(c)
DAV:   1    -0.431541581578E+02   -0.44719E-01   -0.18607E-02  3488   0.106E+00    0.702E-02
RMM:   2    -0.431554379138E+02   -0.12798E-02   -0.71835E-03  2040   0.298E-01
    402 T=   741. E= -.42785543E+02 F= -.43155438E+02 E0= -.43109923E+02  EK= 0.33534E+01 SP= -.30E+01 SK= 0.25E-02 mag=     -0.087
       N       E                     dE             d eps       ncg     rms          rms(c)
DAV:   1    -0.431946126029E+02   -0.40454E-01   -0.24148E-02  3648   0.107E+00    0.141E-01
RMM:   2    -0.431976491808E+02   -0.30366E-02   -0.84537E-03  1991   0.299E-01    0.118E-01
RMM:   3    -0.432010281375E+02   -0.33790E-02   -0.57582E-03  1826   0.133E-01    0.755E-02
RMM:   4    -0.432025082831E+02   -0.14801E-02   -0.35779E-03  1824   0.102E-01
    403 T=   749. E= -.42782955E+02 F= -.43202508E+02 E0= -.43156839E+02  EK= 0.33865E+01 SP= -.30E+01 SK= 0.12E-02 mag=     -0.017
       N       E                     dE             d eps       ncg     rms          rms(c)
DAV:   1    -0.432411225918E+02   -0.40094E-01   -0.23523E-02  3368   0.107E+00    0.151E-01
RMM:   2    -0.432441301776E+02   -0.30076E-02   -0.92041E-03  1917   0.265E-01    0.119E-01
RMM:   3    -0.432469842865E+02   -0.28541E-02   -0.50518E-03  1824   0.113E-01    0.857E-02
RMM:   4    -0.432486973039E+02   -0.17130E-02   -0.30234E-03  1824   0.867E-02
    404 T=   757. E= -.42780306E+02 F= -.43248697E+02 E0= -.43202923E+02  EK= 0.34241E+01 SP= -.30E+01 SK= 0.51E-03 mag=      0.038
       N       E                     dE             d eps       ncg     rms          rms(c)
DAV:   1    -0.432941026072E+02   -0.47118E-01   -0.19599E-02  3432   0.106E+00    0.882E-02
RMM:   2    -0.432950693046E+02   -0.96670E-03   -0.51636E-03  2011   0.261E-01
    405 T=   767. E= -.42775897E+02 F= -.43295069E+02 E0= -.43249153E+02  EK= 0.34681E+01 SP= -.29E+01 SK= 0.16E-03 mag=      0.049
       N       E                     dE             d eps       ncg     rms          rms(c)
DAV:   1    -0.433395505770E+02   -0.45448E-01   -0.25049E-02  3656   0.105E+00    0.453E-02
RMM:   2    -0.433405165764E+02   -0.96600E-03   -0.58003E-03  2027   0.280E-01
    406 T=   776. E= -.42773461E+02 F= -.43340517E+02 E0= -.43294418E+02  EK= 0.35126E+01 SP= -.29E+01 SK= 0.25E-04 mag=      0.013
       N       E                     dE             d eps       ncg     rms          rms(c)
DAV:   1    -0.433824738106E+02   -0.42923E-01   -0.18809E-02  3512   0.111E+00    0.803E-02
RMM:   2    -0.433838887375E+02   -0.14149E-02   -0.63001E-03  2039   0.284E-01
    407 T=   787. E= -.42770088E+02 F= -.43383889E+02 E0= -.43337651E+02  EK= 0.35586E+01 SP= -.29E+01 SK= 0.21E-07 mag=     -0.049
       N       E                     dE             d eps       ncg     rms          rms(c)
DAV:   1    -0.434239667295E+02   -0.41493E-01   -0.21307E-02  3376   0.115E+00    0.780E-02
RMM:   2    -0.434253997818E+02   -0.14331E-02   -0.60515E-03  2025   0.299E-01
    408 T=   797. E= -.42764163E+02 F= -.43425400E+02 E0= -.43379036E+02  EK= 0.36067E+01 SP= -.29E+01 SK= 0.40E-05 mag=     -0.106
       N       E                     dE             d eps       ncg     rms          rms(c)
DAV:   1    -0.434633042568E+02   -0.39338E-01   -0.13755E-02  3168   0.109E+00    0.636E-02
RMM:   2    -0.434644883870E+02   -0.11841E-02   -0.64069E-03  2046   0.305E-01
    409 T=   807. E= -.42759375E+02 F= -.43464488E+02 E0= -.43417964E+02  EK= 0.36516E+01 SP= -.29E+01 SK= 0.20E-05 mag=     -0.116
       N       E                     dE             d eps       ncg     rms          rms(c)
DAV:   1    -0.434983663536E+02   -0.35062E-01   -0.19889E-02  3464   0.112E+00    0.566E-02
RMM:   2    -0.434995584394E+02   -0.11921E-02   -0.60865E-03  2012   0.298E-01
    410 T=   816. E= -.42754372E+02 F= -.43499558E+02 E0= -.43452806E+02  EK= 0.36919E+01 SP= -.29E+01 SK= 0.27E-05 mag=     -0.065
       N       E                     dE             d eps       ncg     rms          rms(c)
DAV:   1    -0.435273356004E+02   -0.28969E-01   -0.21201E-02  3424   0.112E+00    0.105E-01
RMM:   2    -0.435291347902E+02   -0.17992E-02   -0.65390E-03  1984   0.287E-01
    411 T=   824. E= -.42748195E+02 F= -.43529135E+02 E0= -.43482219E+02  EK= 0.37260E+01 SP= -.29E+01 SK= 0.47E-04 mag=      0.029
       N       E                     dE             d eps       ncg     rms          rms(c)
DAV:   1    -0.435533114861E+02   -0.25976E-01   -0.19354E-02  3736   0.113E+00    0.104E-01
RMM:   2    -0.435551840002E+02   -0.18725E-02   -0.69540E-03  2034   0.301E-01    0.792E-02
RMM:   3    -0.435558659297E+02   -0.68193E-03   -0.17025E-03  1944   0.115E-01
    412 T=   829. E= -.42744964E+02 F= -.43555866E+02 E0= -.43508867E+02  EK= 0.37516E+01 SP= -.29E+01 SK= 0.19E-03 mag=      0.058
       N       E                     dE             d eps       ncg     rms          rms(c)
DAV:   1    -0.435707297598E+02   -0.15546E-01   -0.38486E-02  3584   0.110E+00    0.137E-01
RMM:   2    -0.435744593301E+02   -0.37296E-02   -0.69315E-03  1883   0.288E-01    0.112E-01
RMM:   3    -0.435754462296E+02   -0.98690E-03   -0.14691E-03  1751   0.967E-02
    413 T=   833. E= -.42739453E+02 F= -.43575446E+02 E0= -.43528245E+02  EK= 0.37689E+01 SP= -.29E+01 SK= 0.49E-03 mag=      0.016
       N       E                     dE             d eps       ncg     rms          rms(c)
DAV:   1    -0.435898347390E+02   -0.15375E-01   -0.82012E-02  3464   0.121E+00    0.113E-01
RMM:   2    -0.435919731387E+02   -0.21384E-02   -0.91565E-03  2025   0.339E-01    0.696E-02
RMM:   3    -0.435926084253E+02   -0.63529E-03   -0.17459E-03  1964   0.115E-01
    414 T=   835. E= -.42736505E+02 F= -.43592608E+02 E0= -.43545319E+02  EK= 0.37774E+01 SP= -.29E+01 SK= 0.96E-03 mag=     -0.063
       N       E                     dE             d eps       ncg     rms          rms(c)
DAV:   1    -0.436012326512E+02   -0.92595E-02   -0.64961E-02  3552   0.116E+00    0.744E-02
RMM:   2    -0.436028380723E+02   -0.16054E-02   -0.73564E-03  2009   0.289E-01
    415 T=   835. E= -.42732213E+02 F= -.43602838E+02 E0= -.43555439E+02  EK= 0.37761E+01 SP= -.29E+01 SK= 0.16E-02 mag=     -0.132
       N       E                     dE             d eps       ncg     rms          rms(c)
DAV:   1    -0.436025308128E+02   -0.12982E-02   -0.45055E-02  3616   0.113E+00    0.104E-01
RMM:   2    -0.436044395759E+02   -0.19088E-02   -0.69084E-03  2000   0.269E-01    0.822E-02
RMM:   3    -0.436055815574E+02   -0.11420E-02   -0.23601E-03  1934   0.113E-01
    416 T=   832. E= -.42727675E+02 F= -.43605582E+02 E0= -.43558156E+02  EK= 0.37637E+01 SP= -.29E+01 SK= 0.24E-02 mag=     -0.076
       N       E                     dE             d eps       ncg     rms          rms(c)
DAV:   1    -0.436028201739E+02    0.16194E-02   -0.26767E-02  3272   0.107E+00    0.845E-02
RMM:   2    -0.436040289257E+02   -0.12088E-02   -0.55813E-03  1939   0.271E-01
    417 T=   828. E= -.42722593E+02 F= -.43604029E+02 E0= -.43556482E+02  EK= 0.37439E+01 SP= -.29E+01 SK= 0.32E-02 mag=      0.078
       N       E                     dE             d eps       ncg     rms          rms(c)
DAV:   1    -0.435932208105E+02    0.95994E-02   -0.36250E-02  3760   0.113E+00    0.797E-02
RMM:   2    -0.435946524765E+02   -0.14317E-02   -0.57920E-03  2014   0.247E-01
    418 T=   821. E= -.42714940E+02 F= -.43594652E+02 E0= -.43547381E+02  EK= 0.37158E+01 SP= -.28E+01 SK= 0.40E-02 mag=      0.233
       N       E                     dE             d eps       ncg     rms          rms(c)
DAV:   1    -0.435780783609E+02    0.15142E-01   -0.17454E-02  2968   0.105E+00    0.106E-01
RMM:   2    -0.435799190979E+02   -0.18407E-02   -0.64037E-03  2029   0.289E-01    0.813E-02
RMM:   3    -0.435812022386E+02   -0.12831E-02   -0.26763E-03  1851   0.126E-01
    419 T=   813. E= -.42712098E+02 F= -.43581202E+02 E0= -.43533920E+02  EK= 0.36767E+01 SP= -.28E+01 SK= 0.46E-02 mag=      0.198
       N       E                     dE             d eps       ncg     rms          rms(c)
DAV:   1    -0.435611514160E+02    0.18768E-01   -0.27229E-02  3808   0.113E+00    0.741E-02
RMM:   2    -0.435621272141E+02   -0.97580E-03   -0.41255E-03  1958   0.252E-01
    420 T=   803. E= -.42707344E+02 F= -.43562127E+02 E0= -.43514496E+02  EK= 0.36327E+01 SP= -.28E+01 SK= 0.49E-02 mag=     -0.016
       N       E                     dE             d eps       ncg     rms          rms(c)
DAV:   1    -0.435318432746E+02    0.29308E-01   -0.27760E-02  4000   0.110E+00    0.115E-01
RMM:   2    -0.435340713372E+02   -0.22281E-02   -0.66629E-03  1963   0.236E-01    0.945E-02
RMM:   3    -0.435358327647E+02   -0.17614E-02   -0.24091E-03  1828   0.103E-01
    421 T=   792. E= -.42702412E+02 F= -.43535833E+02 E0= -.43488574E+02  EK= 0.35817E+01 SP= -.28E+01 SK= 0.48E-02 mag=     -0.143
       N       E                     dE             d eps       ncg     rms          rms(c)
DAV:   1    -0.435046681822E+02    0.29403E-01   -0.25132E-02  3280   0.101E+00    0.106E-01
RMM:   2    -0.435064818498E+02   -0.18137E-02   -0.61645E-03  1917   0.277E-01    0.729E-02
RMM:   3    -0.435068414457E+02   -0.35960E-03   -0.14178E-03  1695   0.986E-02
    422 T=   780. E= -.42699931E+02 F= -.43506841E+02 E0= -.43459389E+02  EK= 0.35269E+01 SP= -.27E+01 SK= 0.43E-02 mag=     -0.128
       N       E                     dE             d eps       ncg     rms          rms(c)
DAV:   1    -0.434700088987E+02    0.36473E-01   -0.42223E-02  3568   0.106E+00    0.117E-01
RMM:   2    -0.434715061264E+02   -0.14972E-02   -0.58470E-03  2009   0.270E-01
    423 T=   768. E= -.42693410E+02 F= -.43471506E+02 E0= -.43423951E+02  EK= 0.34725E+01 SP= -.27E+01 SK= 0.34E-02 mag=      0.025
       N       E                     dE             d eps       ncg     rms          rms(c)
DAV:   1    -0.434310169486E+02    0.38992E-01   -0.27584E-02  3616   0.110E+00    0.109E-01
RMM:   2    -0.434327691655E+02   -0.17522E-02   -0.57859E-03  2025   0.269E-01
    424 T=   755. E= -.42689574E+02 F= -.43432769E+02 E0= -.43385607E+02  EK= 0.34158E+01 SP= -.27E+01 SK= 0.23E-02 mag=      0.251
       N       E                     dE             d eps       ncg     rms          rms(c)
DAV:   1    -0.433900850579E+02    0.40932E-01   -0.18782E-02  3408   0.102E+00    0.820E-02
RMM:   2    -0.433917102994E+02   -0.16252E-02   -0.65858E-03  2029   0.296E-01
    425 T=   743. E= -.42684787E+02 F= -.43391710E+02 E0= -.43345218E+02  EK= 0.33628E+01 SP= -.27E+01 SK= 0.12E-02 mag=      0.433
       N       E                     dE             d eps       ncg     rms          rms(c)
DAV:   1    -0.433458166857E+02    0.44268E-01   -0.21528E-02  3240   0.108E+00    0.911E-02
RMM:   2    -0.433473086891E+02   -0.14920E-02   -0.61572E-03  2023   0.275E-01
    426 T=   733. E= -.42678129E+02 F= -.43347309E+02 E0= -.43300931E+02  EK= 0.33144E+01 SP= -.26E+01 SK= 0.34E-03 mag=      0.456
       N       E                     dE             d eps       ncg     rms          rms(c)
DAV:   1    -0.432963253008E+02    0.49491E-01   -0.13811E-02  3152   0.976E-01    0.128E-01
RMM:   2    -0.432987860898E+02   -0.24608E-02   -0.68365E-03  1961   0.281E-01    0.107E-01
RMM:   3    -0.433014258092E+02   -0.26397E-02   -0.39831E-03  1827   0.125E-01    0.688E-02
RMM:   4    -0.433027726750E+02   -0.13469E-02   -0.26544E-03  1824   0.945E-02
    427 T=   722. E= -.42676575E+02 F= -.43302773E+02 E0= -.43255396E+02  EK= 0.32678E+01 SP= -.26E+01 SK= 0.65E-06 mag=      0.097
       N       E                     dE             d eps       ncg     rms          rms(c)
DAV:   1    -0.432468976134E+02    0.54528E-01   -0.20170E-02  3448   0.103E+00    0.148E-01
RMM:   2    -0.432496109080E+02   -0.27133E-02   -0.61407E-03  1870   0.239E-01    0.121E-01
RMM:   3    -0.432519758408E+02   -0.23649E-02   -0.26452E-03  1824   0.968E-02    0.937E-02
RMM:   4    -0.432543653477E+02   -0.23895E-02   -0.34014E-03  1834   0.903E-02    0.421E-02
RMM:   5    -0.432547210395E+02   -0.35569E-03   -0.57635E-04  1620   0.565E-02
    428 T=   713. E= -.42673946E+02 F= -.43254721E+02 E0= -.43207477E+02  EK= 0.32265E+01 SP= -.26E+01 SK= 0.51E-03 mag=     -0.120
       N       E                     dE             d eps       ncg     rms          rms(c)
DAV:   1    -0.432049519017E+02    0.49413E-01   -0.97529E-03  3088   0.949E-01    0.576E-02
RMM:   2    -0.432058007889E+02   -0.84889E-03   -0.46624E-03  2001   0.245E-01
    429 T=   706. E= -.42668764E+02 F= -.43205801E+02 E0= -.43158615E+02  EK= 0.31955E+01 SP= -.27E+01 SK= 0.21E-02 mag=     -0.160
       N       E                     dE             d eps       ncg     rms          rms(c)
DAV:   1    -0.431558378236E+02    0.49114E-01   -0.15073E-02  3808   0.105E+00    0.651E-02
RMM:   2    -0.431568949214E+02   -0.10571E-02   -0.43576E-03  2005   0.225E-01
    430 T=   701. E= -.42664494E+02 F= -.43156895E+02 E0= -.43109548E+02  EK= 0.31727E+01 SP= -.27E+01 SK= 0.51E-02 mag=     -0.023
       N       E                     dE             d eps       ncg     rms          rms(c)
DAV:   1    -0.431072622587E+02    0.48576E-01   -0.11622E-02  2832   0.974E-01    0.729E-02
RMM:   2    -0.431084349500E+02   -0.11727E-02   -0.55169E-03  2006   0.280E-01
    431 T=   698. E= -.42660657E+02 F= -.43108435E+02 E0= -.43061338E+02  EK= 0.31594E+01 SP= -.27E+01 SK= 0.96E-02 mag=      0.219
       N       E                     dE             d eps       ncg     rms          rms(c)
DAV:   1    -0.430602632360E+02    0.46999E-01   -0.20233E-02  3784   0.105E+00    0.722E-02
RMM:   2    -0.430614562985E+02   -0.11931E-02   -0.55187E-03  2006   0.275E-01
    432 T=   698. E= -.42654958E+02 F= -.43061456E+02 E0= -.43015113E+02  EK= 0.31594E+01 SP= -.28E+01 SK= 0.16E-01 mag=      0.447
       N       E                     dE             d eps       ncg     rms          rms(c)
DAV:   1    -0.430144638241E+02    0.45799E-01   -0.13619E-02  3120   0.948E-01    0.858E-02
RMM:   2    -0.430159702445E+02   -0.15064E-02   -0.60161E-03  1997   0.280E-01
    433 T=   701. E= -.42648356E+02 F= -.43015970E+02 E0= -.42969783E+02  EK= 0.31717E+01 SP= -.28E+01 SK= 0.23E-01 mag=      0.474
       N       E                     dE             d eps       ncg     rms          rms(c)
DAV:   1    -0.429730685224E+02    0.41395E-01   -0.14829E-02  3312   0.105E+00    0.849E-02
RMM:   2    -0.429743840179E+02   -0.13155E-02   -0.58723E-03  2002   0.273E-01
    434 T=   707. E= -.42642577E+02 F= -.42974384E+02 E0= -.42927099E+02  EK= 0.31972E+01 SP= -.29E+01 SK= 0.31E-01 mag=      0.224
       N       E                     dE             d eps       ncg     rms          rms(c)
DAV:   1    -0.429333909803E+02    0.39678E-01   -0.14415E-02  3312   0.963E-01    0.741E-02
RMM:   2    -0.429347368057E+02   -0.13458E-02   -0.60041E-03  2006   0.283E-01
    435 T=   715. E= -.42636387E+02 F= -.42934737E+02 E0= -.42887502E+02  EK= 0.32349E+01 SP= -.30E+01 SK= 0.40E-01 mag=     -0.241
       N       E                     dE             d eps       ncg     rms          rms(c)
DAV:   1    -0.428938506403E+02    0.39540E-01   -0.16015E-02  3384   0.104E+00    0.114E-01
RMM:   2    -0.428957922533E+02   -0.19416E-02   -0.66350E-03  2008   0.286E-01    0.950E-02
RMM:   3    -0.428968080480E+02   -0.10158E-02   -0.21862E-03  1924   0.114E-01
    436 T=   726. E= -.42630079E+02 F= -.42896808E+02 E0= -.42850822E+02  EK= 0.32839E+01 SP= -.31E+01 SK= 0.49E-01 mag=     -0.316
       N       E                     dE             d eps       ncg     rms          rms(c)
DAV:   1    -0.428635972966E+02    0.32195E-01   -0.37565E-02  3184   0.100E+00    0.934E-02
RMM:   2    -0.428651189240E+02   -0.15216E-02   -0.69490E-03  1927   0.273E-01
    437 T=   740. E= -.42625271E+02 F= -.42865119E+02 E0= -.42817450E+02  EK= 0.33466E+01 SP= -.32E+01 SK= 0.57E-01 mag=      0.020
       N       E                     dE             d eps       ncg     rms          rms(c)
DAV:   1    -0.428281963931E+02    0.35401E-01   -0.61103E-02  3680   0.110E+00    0.145E-01
RMM:   2    -0.428311301408E+02   -0.29337E-02   -0.82257E-03  2020   0.274E-01    0.119E-01
RMM:   3    -0.428339201944E+02   -0.27901E-02   -0.36055E-03  1882   0.120E-01    0.914E-02
RMM:   4    -0.428361948035E+02   -0.22746E-02   -0.39539E-03  1893   0.995E-02    0.389E-02
RMM:   5    -0.428365193060E+02   -0.32450E-03   -0.77279E-04  1623   0.580E-02
    438 T=   756. E= -.42621650E+02 F= -.42836519E+02 E0= -.42788646E+02  EK= 0.34194E+01 SP= -.33E+01 SK= 0.64E-01 mag=      0.096
       N       E                     dE             d eps       ncg     rms          rms(c)
DAV:   1    -0.428010840482E+02    0.35111E-01   -0.26467E-02  3136   0.988E-01    0.163E-01
RMM:   2    -0.428046558368E+02   -0.35718E-02   -0.96350E-03  1873   0.256E-01    0.133E-01
RMM:   3    -0.428076833367E+02   -0.30275E-02   -0.39088E-03  1824   0.110E-01    0.100E-01
RMM:   4    -0.428102936817E+02   -0.26103E-02   -0.57961E-03  1880   0.988E-02    0.386E-02
RMM:   5    -0.428105147318E+02   -0.22105E-03   -0.52378E-04  1615   0.513E-02
    439 T=   773. E= -.42621081E+02 F= -.42810515E+02 E0= -.42762413E+02  EK= 0.34986E+01 SP= -.34E+01 SK= 0.69E-01 mag=     -0.043
       N       E                     dE             d eps       ncg     rms          rms(c)
DAV:   1    -0.427861582715E+02    0.24135E-01   -0.17455E-02  3448   0.101E+00    0.773E-02
RMM:   2    -0.427872636568E+02   -0.11054E-02   -0.46353E-03  2002   0.240E-01
    440 T=   794. E= -.42616308E+02 F= -.42787264E+02 E0= -.42739323E+02  EK= 0.35902E+01 SP= -.35E+01 SK= 0.71E-01 mag=     -0.290
       N       E                     dE             d eps       ncg     rms          rms(c)
DAV:   1    -0.427634872344E+02    0.22671E-01   -0.19276E-02  3536   0.108E+00    0.116E-01
RMM:   2    -0.427658394622E+02   -0.23522E-02   -0.72021E-03  2024   0.277E-01    0.955E-02
RMM:   3    -0.427672774386E+02   -0.14380E-02   -0.24136E-03  1857   0.113E-01
    441 T=   815. E= -.42611663E+02 F= -.42767277E+02 E0= -.42719376E+02  EK= 0.36886E+01 SP= -.36E+01 SK= 0.71E-01 mag=     -0.196
       N       E                     dE             d eps       ncg     rms          rms(c)
DAV:   1    -0.427494194847E+02    0.16420E-01   -0.38332E-02  3208   0.109E+00    0.100E-01
RMM:   2    -0.427518342106E+02   -0.24147E-02   -0.60456E-03  1959   0.270E-01    0.712E-02
RMM:   3    -0.427523516206E+02   -0.51741E-03   -0.15130E-03  1783   0.953E-02
    442 T=   838. E= -.42610436E+02 F= -.42752352E+02 E0= -.42703561E+02  EK= 0.37900E+01 SP= -.37E+01 SK= 0.67E-01 mag=      0.115
       N       E                     dE             d eps       ncg     rms          rms(c)
DAV:   1    -0.427344684696E+02    0.17366E-01   -0.80823E-02  3336   0.114E+00    0.112E-01
RMM:   2    -0.427365520946E+02   -0.20836E-02   -0.78000E-03  2029   0.312E-01    0.845E-02
RMM:   3    -0.427375251152E+02   -0.97302E-03   -0.21080E-03  1949   0.116E-01
    443 T=   861. E= -.42604811E+02 F= -.42737525E+02 E0= -.42689143E+02  EK= 0.38946E+01 SP= -.38E+01 SK= 0.60E-01 mag=      0.295
       N       E                     dE             d eps       ncg     rms          rms(c)
DAV:   1    -0.427253010054E+02    0.11251E-01   -0.52909E-02  3272   0.113E+00    0.726E-02
RMM:   2    -0.427266697624E+02   -0.13688E-02   -0.62173E-03  2026   0.298E-01
    444 T=   884. E= -.42599689E+02 F= -.42726670E+02 E0= -.42677488E+02  EK= 0.39983E+01 SP= -.39E+01 SK= 0.51E-01 mag=      0.266
       N       E                     dE             d eps       ncg     rms          rms(c)
DAV:   1    -0.427145698411E+02    0.10731E-01   -0.45060E-02  3656   0.120E+00    0.613E-02
RMM:   2    -0.427158501972E+02   -0.12804E-02   -0.68524E-03  2029   0.291E-01
    445 T=   905. E= -.42595129E+02 F= -.42715850E+02 E0= -.42666029E+02  EK= 0.40938E+01 SP= -.40E+01 SK= 0.41E-01 mag=      0.025
       N       E                     dE             d eps       ncg     rms          rms(c)
DAV:   1    -0.427023828390E+02    0.12187E-01   -0.22520E-02  3472   0.111E+00    0.905E-02
RMM:   2    -0.427043056934E+02   -0.19229E-02   -0.80148E-03  2054   0.330E-01    0.734E-02
RMM:   3    -0.427052563319E+02   -0.95064E-03   -0.23202E-03  1952   0.129E-01
    446 T=   923. E= -.42591529E+02 F= -.42705256E+02 E0= -.42655354E+02  EK= 0.41775E+01 SP= -.41E+01 SK= 0.29E-01 mag=     -0.156
       N       E                     dE             d eps       ncg     rms          rms(c)
DAV:   1    -0.426923943304E+02    0.11911E-01   -0.34674E-02  3696   0.123E+00    0.843E-02
RMM:   2    -0.426942535605E+02   -0.18592E-02   -0.67569E-03  1910   0.308E-01    0.628E-02
RMM:   3    -0.426948361075E+02   -0.58255E-03   -0.15425E-03  1715   0.106E-01
    447 T=   939. E= -.42585979E+02 F= -.42694836E+02 E0= -.42644468E+02  EK= 0.42490E+01 SP= -.42E+01 SK= 0.19E-01 mag=     -0.165
       N       E                     dE             d eps       ncg     rms          rms(c)
DAV:   1    -0.426812280936E+02    0.13025E-01   -0.37521E-02  3472   0.115E+00    0.898E-02
RMM:   2    -0.426827035692E+02   -0.14755E-02   -0.57134E-03  2021   0.276E-01
    448 T=   951. E= -.42579297E+02 F= -.42682704E+02 E0= -.42631714E+02  EK= 0.43026E+01 SP= -.42E+01 SK= 0.97E-02 mag=     -0.003
       N       E                     dE             d eps       ncg     rms          rms(c)
DAV:   1    -0.426674932441E+02    0.13735E-01   -0.36501E-02  3640   0.126E+00    0.789E-02
RMM:   2    -0.426690543227E+02   -0.15611E-02   -0.67741E-03  2061   0.303E-01
    449 T=   958. E= -.42574729E+02 F= -.42669054E+02 E0= -.42618004E+02  EK= 0.43332E+01 SP= -.42E+01 SK= 0.34E-02 mag=      0.259
       N       E                     dE             d eps       ncg     rms          rms(c)
DAV:   1    -0.426504972313E+02    0.16996E-01   -0.31300E-02  3560   0.120E+00    0.781E-02
RMM:   2    -0.426522729950E+02   -0.17758E-02   -0.80444E-03  2071   0.358E-01
    450 T=   960. E= -.42568485E+02 F= -.42652273E+02 E0= -.42601707E+02  EK= 0.43414E+01 SP= -.43E+01 SK= 0.25E-03 mag=      0.490
       N       E                     dE             d eps       ncg     rms          rms(c)
DAV:   1    -0.426290129946E+02    0.21484E-01   -0.32774E-02  3224   0.128E+00    0.101E-01
RMM:   2    -0.426311978835E+02   -0.21849E-02   -0.81238E-03  2094   0.332E-01    0.851E-02
RMM:   3    -0.426322737301E+02   -0.10758E-02   -0.23098E-03  1964   0.128E-01
    451 T=   956. E= -.42561856E+02 F= -.42632274E+02 E0= -.42581383E+02  EK= 0.43255E+01 SP= -.43E+01 SK= 0.66E-03 mag=      0.228
       N       E                     dE             d eps       ncg     rms          rms(c)
DAV:   1    -0.426080249670E+02    0.23173E-01   -0.42750E-02  3280   0.119E+00    0.102E-01
RMM:   2    -0.426101006379E+02   -0.20757E-02   -0.76424E-03  2038   0.354E-01    0.714E-02
RMM:   3    -0.426104594854E+02   -0.35885E-03   -0.13807E-03  1647   0.111E-01
    452 T=   947. E= -.42556703E+02 F= -.42610459E+02 E0= -.42558763E+02  EK= 0.42855E+01 SP= -.42E+01 SK= 0.43E-02 mag=     -0.305
       N       E                     dE             d eps       ncg     rms          rms(c)
DAV:   1    -0.425768475762E+02    0.33253E-01   -0.64278E-02  3672   0.122E+00    0.151E-01
RMM:   2    -0.425796055442E+02   -0.27580E-02   -0.77902E-03  2032   0.297E-01    0.117E-01
RMM:   3    -0.425813616852E+02   -0.17561E-02   -0.25151E-03  1940   0.118E-01
    453 T=   934. E= -.42547605E+02 F= -.42581362E+02 E0= -.42531370E+02  EK= 0.42233E+01 SP= -.42E+01 SK= 0.11E-01 mag=     -0.478
       N       E                     dE             d eps       ncg     rms          rms(c)
DAV:   1    -0.425526948801E+02    0.26911E-01   -0.31436E-02  3504   0.133E+00    0.948E-02
RMM:   2    -0.425540333662E+02   -0.13385E-02   -0.73537E-03  2060   0.341E-01
    454 T=   915. E= -.42543441E+02 F= -.42554033E+02 E0= -.42501670E+02  EK= 0.41414E+01 SP= -.41E+01 SK= 0.18E-01 mag=     -0.231
       N       E                     dE             d eps       ncg     rms          rms(c)
DAV:   1    -0.425185800136E+02    0.34115E-01   -0.57403E-02  3808   0.121E+00    0.656E-02
RMM:   2    -0.425200367116E+02   -0.14567E-02   -0.77900E-03  2036   0.308E-01
    455 T=   893. E= -.42537598E+02 F= -.42520037E+02 E0= -.42467807E+02  EK= 0.40412E+01 SP= -.41E+01 SK= 0.27E-01 mag=      0.339
       N       E                     dE             d eps       ncg     rms          rms(c)
DAV:   1    -0.424748887044E+02    0.43691E-01   -0.24040E-02  3320   0.116E+00    0.153E-01
RMM:   2    -0.424781954516E+02   -0.33067E-02   -0.80818E-03  2032   0.313E-01    0.127E-01
RMM:   3    -0.424811425401E+02   -0.29471E-02   -0.44504E-03  1862   0.145E-01    0.884E-02
RMM:   4    -0.424832489252E+02   -0.21064E-02   -0.32212E-03  1868   0.106E-01    0.528E-02
RMM:   5    -0.424841475141E+02   -0.89859E-03   -0.19297E-03  1862   0.756E-02
    456 T=   867. E= -.42536924E+02 F= -.42484148E+02 E0= -.42431642E+02  EK= 0.39244E+01 SP= -.40E+01 SK= 0.34E-01 mag=      0.069
       N       E                     dE             d eps       ncg     rms          rms(c)
DAV:   1    -0.424373907814E+02    0.45858E-01   -0.37816E-02  3576   0.117E+00    0.143E-01
RMM:   2    -0.424403841248E+02   -0.29933E-02   -0.71759E-03  1972   0.306E-01    0.114E-01
RMM:   3    -0.424424276271E+02   -0.20435E-02   -0.30015E-03  1829   0.113E-01    0.792E-02
RMM:   4    -0.424440068934E+02   -0.15793E-02   -0.21632E-03  1848   0.901E-02
    457 T=   840. E= -.42532126E+02 F= -.42444007E+02 E0= -.42392110E+02  EK= 0.38019E+01 SP= -.39E+01 SK= 0.39E-01 mag=     -0.254
       N       E                     dE             d eps       ncg     rms          rms(c)
DAV:   1    -0.423989061685E+02    0.43521E-01   -0.42256E-02  3584   0.112E+00    0.981E-02
RMM:   2    -0.424008077736E+02   -0.19016E-02   -0.69260E-03  2007   0.280E-01    0.742E-02
RMM:   3    -0.424019268751E+02   -0.11191E-02   -0.28643E-03  1858   0.125E-01
    458 T=   812. E= -.42527132E+02 F= -.42401927E+02 E0= -.42350257E+02  EK= 0.36758E+01 SP= -.38E+01 SK= 0.42E-01 mag=     -0.335
       N       E                     dE             d eps       ncg     rms          rms(c)
DAV:   1    -0.423583476591E+02    0.42460E-01   -0.25933E-02  3448   0.106E+00    0.767E-02
RMM:   2    -0.423595205817E+02   -0.11729E-02   -0.52677E-03  1947   0.278E-01
    459 T=   785. E= -.42522580E+02 F= -.42359521E+02 E0= -.42307331E+02  EK= 0.35505E+01 SP= -.38E+01 SK= 0.42E-01 mag=     -0.123
       N       E                     dE             d eps       ncg     rms          rms(c)
DAV:   1    -0.423145450047E+02    0.43803E-01   -0.34113E-02  3816   0.114E+00    0.618E-02
RMM:   2    -0.423156272399E+02   -0.10822E-02   -0.56692E-03  2029   0.261E-01
    460 T=   758. E= -.42516978E+02 F= -.42315627E+02 E0= -.42264126E+02  EK= 0.34294E+01 SP= -.37E+01 SK= 0.39E-01 mag=      0.305
       N       E                     dE             d eps       ncg     rms          rms(c)
DAV:   1    -0.422675164777E+02    0.47029E-01   -0.16254E-02  3024   0.102E+00    0.117E-01
RMM:   2    -0.422696926776E+02   -0.21762E-02   -0.62495E-03  2052   0.284E-01    0.986E-02
RMM:   3    -0.422710103298E+02   -0.13177E-02   -0.21744E-03  1905   0.112E-01
    461 T=   733. E= -.42511155E+02 F= -.42271010E+02 E0= -.42221009E+02  EK= 0.33149E+01 SP= -.36E+01 SK= 0.34E-01 mag=      0.337
       N       E                     dE             d eps       ncg     rms          rms(c)
DAV:   1    -0.422310559521E+02    0.38637E-01   -0.36049E-02  3464   0.104E+00    0.678E-02
RMM:   2    -0.422320767573E+02   -0.10208E-02   -0.55701E-03  1955   0.273E-01
    462 T=   710. E= -.42506609E+02 F= -.42232077E+02 E0= -.42180938E+02  EK= 0.32139E+01 SP= -.35E+01 SK= 0.26E-01 mag=     -0.023
       N       E                     dE             d eps       ncg     rms          rms(c)
DAV:   1    -0.421890023681E+02    0.42054E-01   -0.45273E-02  3688   0.108E+00    0.956E-02
RMM:   2    -0.421907032001E+02   -0.17008E-02   -0.61363E-03  2018   0.260E-01
    463 T=   691. E= -.42499255E+02 F= -.42190703E+02 E0= -.42141360E+02  EK= 0.31241E+01 SP= -.35E+01 SK= 0.19E-01 mag=     -0.528
       N       E                     dE             d eps       ncg     rms          rms(c)
DAV:   1    -0.421489075018E+02    0.40095E-01   -0.18212E-02  3304   0.960E-01    0.156E-01
RMM:   2    -0.421515961872E+02   -0.26887E-02   -0.55683E-03  2020   0.277E-01    0.127E-01
RMM:   3    -0.421545033774E+02   -0.29072E-02   -0.33909E-03  1825   0.133E-01    0.884E-02
RMM:   4    -0.421567621211E+02   -0.22587E-02   -0.38346E-03  1902   0.116E-01    0.415E-02
RMM:   5    -0.421572309267E+02   -0.46881E-03   -0.10947E-03  1729   0.667E-02
    464 T=   673. E= -.42500508E+02 F= -.42157231E+02 E0= -.42107020E+02  EK= 0.30454E+01 SP= -.34E+01 SK= 0.11E-01 mag=     -0.033
       N       E                     dE             d eps       ncg     rms          rms(c)
DAV:   1    -0.421117069584E+02    0.45055E-01   -0.28111E-02  3488   0.103E+00    0.201E-01
RMM:   2    -0.421158550407E+02   -0.41481E-02   -0.67742E-03  1934   0.242E-01    0.164E-01
RMM:   3    -0.421204751382E+02   -0.46201E-02   -0.46530E-03  1824   0.113E-01    0.116E-01
RMM:   4    -0.421237100631E+02   -0.32349E-02   -0.39717E-03  1887   0.103E-01    0.646E-02
RMM:   5    -0.421248963789E+02   -0.11863E-02   -0.23732E-03  1893   0.779E-02
    465 T=   659. E= -.42498790E+02 F= -.42124896E+02 E0= -.42075211E+02  EK= 0.29836E+01 SP= -.34E+01 SK= 0.49E-02 mag=      0.050
       N       E                     dE             d eps       ncg     rms          rms(c)
DAV:   1    -0.420959003333E+02    0.27810E-01   -0.15844E-02  3328   0.950E-01    0.651E-02
RMM:   2    -0.420968306913E+02   -0.93036E-03   -0.42214E-03  1952   0.246E-01
    466 T=   650. E= -.42494571E+02 F= -.42096831E+02 E0= -.42047611E+02  EK= 0.29420E+01 SP= -.33E+01 SK= 0.98E-03 mag=     -0.194
       N       E                     dE             d eps       ncg     rms          rms(c)
DAV:   1    -0.420702593752E+02    0.25641E-01   -0.21134E-02  3744   0.992E-01    0.107E-01
RMM:   2    -0.420720749611E+02   -0.18156E-02   -0.55452E-03  1989   0.250E-01    0.898E-02
RMM:   3    -0.420732431716E+02   -0.11682E-02   -0.16353E-03  1924   0.103E-01
    467 T=   645. E= -.42490590E+02 F= -.42073243E+02 E0= -.42025083E+02  EK= 0.29184E+01 SP= -.33E+01 SK= 0.79E-04 mag=     -0.135
       N       E                     dE             d eps       ncg     rms          rms(c)
DAV:   1    -0.420548561913E+02    0.17219E-01   -0.33570E-02  3256   0.103E+00    0.110E-01
RMM:   2    -0.420569215743E+02   -0.20654E-02   -0.57601E-03  1963   0.261E-01    0.751E-02
RMM:   3    -0.420575709889E+02   -0.64941E-03   -0.16263E-03  1821   0.984E-02
    468 T=   644. E= -.42489844E+02 F= -.42057571E+02 E0= -.42009193E+02  EK= 0.29135E+01 SP= -.33E+01 SK= 0.25E-02 mag=      0.077
       N       E                     dE             d eps       ncg     rms          rms(c)
DAV:   1    -0.420454371619E+02    0.11484E-01   -0.56470E-02  3288   0.996E-01    0.921E-02
RMM:   2    -0.420467305989E+02   -0.12934E-02   -0.58365E-03  2000   0.268E-01
    469 T=   648. E= -.42484755E+02 F= -.42046731E+02 E0= -.41999254E+02  EK= 0.29319E+01 SP= -.34E+01 SK= 0.82E-02 mag=      0.346
       N       E                     dE             d eps       ncg     rms          rms(c)
DAV:   1    -0.420397582348E+02    0.56789E-02   -0.39545E-02  3448   0.101E+00    0.105E-01
RMM:   2    -0.420416548785E+02   -0.18966E-02   -0.58161E-03  2001   0.264E-01    0.848E-02
RMM:   3    -0.420430266174E+02   -0.13717E-02   -0.26113E-03  1882   0.119E-01
    470 T=   656. E= -.42482031E+02 F= -.42043027E+02 E0= -.41996055E+02  EK= 0.29691E+01 SP= -.34E+01 SK= 0.17E-01 mag=      0.235
       N       E                     dE             d eps       ncg     rms          rms(c)
DAV:   1    -0.420442579754E+02   -0.26031E-02   -0.26337E-02  3160   0.985E-01    0.118E-01
RMM:   2    -0.420458851939E+02   -0.16272E-02   -0.55354E-03  1858   0.257E-01
    471 T=   669. E= -.42478961E+02 F= -.42045885E+02 E0= -.41998973E+02  EK= 0.30272E+01 SP= -.35E+01 SK= 0.28E-01 mag=     -0.197
       N       E                     dE             d eps       ncg     rms          rms(c)
DAV:   1    -0.420473418911E+02   -0.30839E-02   -0.52951E-02  3672   0.109E+00    0.159E-01
RMM:   2    -0.420508122520E+02   -0.34704E-02   -0.73111E-03  2021   0.263E-01    0.133E-01
RMM:   3    -0.420527520474E+02   -0.19398E-02   -0.25038E-03  1896   0.108E-01    0.109E-01
RMM:   4    -0.420563878482E+02   -0.36358E-02   -0.66938E-03  2020   0.111E-01    0.443E-02
RMM:   5    -0.420567897370E+02   -0.40189E-03   -0.85174E-04  1671   0.701E-02
    472 T=   686. E= -.42477113E+02 F= -.42056790E+02 E0= -.42010015E+02  EK= 0.31056E+01 SP= -.36E+01 SK= 0.39E-01 mag=     -0.060
       N       E                     dE             d eps       ncg     rms          rms(c)
DAV:   1    -0.420635838894E+02   -0.71960E-02   -0.30263E-02  3208   0.976E-01    0.173E-01
RMM:   2    -0.420671781770E+02   -0.35943E-02   -0.95047E-03  1921   0.266E-01    0.136E-01
RMM:   3    -0.420690262604E+02   -0.18481E-02   -0.30308E-03  1851   0.106E-01    0.108E-01
RMM:   4    -0.420722114612E+02   -0.31852E-02   -0.69552E-03  2042   0.106E-01    0.512E-02
RMM:   5    -0.420725189967E+02   -0.30754E-03   -0.49823E-04  1618   0.577E-02
    473 T=   707. E= -.42476644E+02 F= -.42072519E+02 E0= -.42026087E+02  EK= 0.32004E+01 SP= -.37E+01 SK= 0.51E-01 mag=      0.110
       N       E                     dE             d eps       ncg     rms          rms(c)
DAV:   1    -0.420930413631E+02   -0.20830E-01   -0.19241E-02  3640   0.102E+00    0.890E-02
RMM:   2    -0.420941096914E+02   -0.10683E-02   -0.45617E-03  2006   0.259E-01
    474 T=   733. E= -.42474083E+02 F= -.42094110E+02 E0= -.42047946E+02  EK= 0.33151E+01 SP= -.38E+01 SK= 0.61E-01 mag=      0.207
       N       E                     dE             d eps       ncg     rms          rms(c)
DAV:   1    -0.421203588762E+02   -0.27318E-01   -0.19697E-02  3816   0.107E+00    0.872E-02
RMM:   2    -0.421219767106E+02   -0.16178E-02   -0.63124E-03  2039   0.264E-01
    475 T=   762. E= -.42472597E+02 F= -.42121977E+02 E0= -.42076010E+02  EK= 0.34454E+01 SP= -.39E+01 SK= 0.68E-01 mag=      0.161
       N       E                     dE             d eps       ncg     rms          rms(c)
DAV:   1    -0.421546278622E+02   -0.34269E-01   -0.16220E-02  3432   0.104E+00    0.733E-02
RMM:   2    -0.421559806700E+02   -0.13528E-02   -0.57375E-03  2038   0.289E-01
    476 T=   794. E= -.42470888E+02 F= -.42155981E+02 E0= -.42110136E+02  EK= 0.35902E+01 SP= -.40E+01 SK= 0.71E-01 mag=     -0.021
       N       E                     dE             d eps       ncg     rms          rms(c)
DAV:   1    -0.421938405873E+02   -0.39213E-01   -0.27248E-02  3624   0.117E+00    0.842E-02
RMM:   2    -0.421953015095E+02   -0.14609E-02   -0.66917E-03  2064   0.303E-01
    477 T=   828. E= -.42467604E+02 F= -.42195302E+02 E0= -.42149638E+02  EK= 0.37473E+01 SP= -.41E+01 SK= 0.70E-01 mag=     -0.234
       N       E                     dE             d eps       ncg     rms          rms(c)
DAV:   1    -0.422366676367E+02   -0.42827E-01   -0.19502E-02  3400   0.108E+00    0.785E-02
RMM:   2    -0.422384007880E+02   -0.17332E-02   -0.69571E-03  2059   0.296E-01
    478 T=   864. E= -.42464789E+02 F= -.42238401E+02 E0= -.42192993E+02  EK= 0.39094E+01 SP= -.42E+01 SK= 0.63E-01 mag=     -0.285
       N       E                     dE             d eps       ncg     rms          rms(c)
DAV:   1    -0.422837410821E+02   -0.47073E-01   -0.28529E-02  3792   0.119E+00    0.898E-02
RMM:   2    -0.422854600955E+02   -0.17190E-02   -0.68521E-03  2067   0.305E-01
    479 T=   900. E= -.42461600E+02 F= -.42285460E+02 E0= -.42239899E+02  EK= 0.40727E+01 SP= -.43E+01 SK= 0.53E-01 mag=     -0.144
       N       E                     dE             d eps       ncg     rms          rms(c)
DAV:   1    -0.423330706819E+02   -0.49330E-01   -0.31877E-02  3592   0.117E+00    0.107E-01
RMM:   2    -0.423354549531E+02   -0.23843E-02   -0.78923E-03  2075   0.317E-01    0.833E-02
RMM:   3    -0.423367067316E+02   -0.12518E-02   -0.25621E-03  1963   0.121E-01
    480 T=   935. E= -.42459676E+02 F= -.42336707E+02 E0= -.42290907E+02  EK= 0.42307E+01 SP= -.44E+01 SK= 0.40E-01 mag=      0.028
       N       E                     dE             d eps       ncg     rms          rms(c)
DAV:   1    -0.423863021679E+02   -0.50847E-01   -0.35578E-02  3448   0.123E+00    0.104E-01
RMM:   2    -0.423886395640E+02   -0.23374E-02   -0.60383E-03  1989   0.292E-01    0.763E-02
RMM:   3    -0.423893396023E+02   -0.70004E-03   -0.16004E-03  1660   0.109E-01
    481 T=   968. E= -.42455715E+02 F= -.42389340E+02 E0= -.42343608E+02  EK= 0.43781E+01 SP= -.45E+01 SK= 0.25E-01 mag=      0.151
       N       E                     dE             d eps       ncg     rms          rms(c)
DAV:   1    -0.424399874026E+02   -0.51348E-01   -0.52751E-02  3720   0.123E+00    0.111E-01
RMM:   2    -0.424422265297E+02   -0.22391E-02   -0.67739E-03  2074   0.293E-01    0.857E-02
RMM:   3    -0.424432853097E+02   -0.10588E-02   -0.19117E-03  1916   0.111E-01
    482 T=   996. E= -.42451561E+02 F= -.42443285E+02 E0= -.42397214E+02  EK= 0.45069E+01 SP= -.45E+01 SK= 0.12E-01 mag=      0.090
       N       E                     dE             d eps       ncg     rms          rms(c)
DAV:   1    -0.424976117690E+02   -0.55385E-01   -0.44777E-02  3696   0.124E+00    0.648E-02
RMM:   2    -0.424991634253E+02   -0.15517E-02   -0.64254E-03  2085   0.294E-01
    483 T=  1019. E= -.42449078E+02 F= -.42499163E+02 E0= -.42452746E+02  EK= 0.46102E+01 SP= -.46E+01 SK= 0.31E-02 mag=     -0.105
       N       E                     dE             d eps       ncg     rms          rms(c)
DAV:   1    -0.425503247637E+02   -0.52713E-01   -0.52647E-02  4040   0.129E+00    0.922E-02
RMM:   2    -0.425524434182E+02   -0.21187E-02   -0.80442E-03  2103   0.289E-01    0.742E-02
RMM:   3    -0.425534875815E+02   -0.10442E-02   -0.24029E-03  1950   0.115E-01
    484 T=  1035. E= -.42446630E+02 F= -.42553488E+02 E0= -.42507069E+02  EK= 0.46815E+01 SP= -.46E+01 SK= 0.16E-04 mag=     -0.119
       N       E                     dE             d eps       ncg     rms          rms(c)
DAV:   1    -0.426069866410E+02   -0.54543E-01   -0.45183E-02  3456   0.129E+00    0.830E-02
RMM:   2    -0.426088764830E+02   -0.18898E-02   -0.65826E-03  2050   0.309E-01    0.486E-02
RMM:   3    -0.426091252974E+02   -0.24881E-03   -0.14146E-03  1671   0.108E-01
    485 T=  1043. E= -.42444374E+02 F= -.42609125E+02 E0= -.42562016E+02  EK= 0.47202E+01 SP= -.46E+01 SK= 0.45E-02 mag=      0.010
       N       E                     dE             d eps       ncg     rms          rms(c)
DAV:   1    -0.426593252061E+02   -0.50449E-01   -0.61659E-02  3928   0.132E+00    0.736E-02
RMM:   2    -0.426609661035E+02   -0.16409E-02   -0.65157E-03  2072   0.292E-01
    486 T=  1044. E= -.42437396E+02 F= -.42660966E+02 E0= -.42613667E+02  EK= 0.47242E+01 SP= -.45E+01 SK= 0.17E-01 mag=      0.221
       N       E                     dE             d eps       ncg     rms          rms(c)
DAV:   1    -0.427086636177E+02   -0.49338E-01   -0.40792E-02  4064   0.127E+00    0.917E-02
RMM:   2    -0.427107864170E+02   -0.21228E-02   -0.73411E-03  2091   0.286E-01    0.749E-02
RMM:   3    -0.427117874656E+02   -0.10010E-02   -0.22778E-03  1937   0.120E-01
    487 T=  1036. E= -.42436229E+02 F= -.42711787E+02 E0= -.42664358E+02  EK= 0.46864E+01 SP= -.44E+01 SK= 0.38E-01 mag=      0.206
       N       E                     dE             d eps       ncg     rms          rms(c)
DAV:   1    -0.427597377274E+02   -0.48951E-01   -0.42380E-02  3456   0.127E+00    0.950E-02
RMM:   2    -0.427613168728E+02   -0.15791E-02   -0.62216E-03  1983   0.305E-01
    488 T=  1021. E= -.42430680E+02 F= -.42761317E+02 E0= -.42712961E+02  EK= 0.46188E+01 SP= -.44E+01 SK= 0.65E-01 mag=     -0.030
       N       E                     dE             d eps       ncg     rms          rms(c)
DAV:   1    -0.428029262519E+02   -0.43189E-01   -0.63811E-02  4152   0.141E+00    0.104E-01
RMM:   2    -0.428052133258E+02   -0.22871E-02   -0.75260E-03  2068   0.281E-01    0.841E-02
RMM:   3    -0.428060782300E+02   -0.86490E-03   -0.20898E-03  1920   0.108E-01
    489 T=   999. E= -.42421472E+02 F= -.42806078E+02 E0= -.42757825E+02  EK= 0.45212E+01 SP= -.42E+01 SK= 0.97E-01 mag=     -0.229
       N       E                     dE             d eps       ncg     rms          rms(c)
DAV:   1    -0.428487000362E+02   -0.43487E-01   -0.32168E-02  3552   0.119E+00    0.103E-01
RMM:   2    -0.428503519155E+02   -0.16519E-02   -0.62949E-03  2072   0.310E-01
    490 T=   971. E= -.42416798E+02 F= -.42850352E+02 E0= -.42801493E+02  EK= 0.43950E+01 SP= -.41E+01 SK= 0.13E+00 mag=     -0.303
       N       E                     dE             d eps       ncg     rms          rms(c)
DAV:   1    -0.428882310805E+02   -0.39531E-01   -0.58326E-02  4032   0.133E+00    0.841E-02
RMM:   2    -0.428900086010E+02   -0.17775E-02   -0.74598E-03  2074   0.292E-01
    491 T=   939. E= -.42411606E+02 F= -.42890009E+02 E0= -.42840445E+02  EK= 0.42472E+01 SP= -.39E+01 SK= 0.16E+00 mag=     -0.176
       N       E                     dE             d eps       ncg     rms          rms(c)
DAV:   1    -0.429250002620E+02   -0.36769E-01   -0.24249E-02  3224   0.117E+00    0.954E-02
RMM:   2    -0.429268300974E+02   -0.18298E-02   -0.76382E-03  2100   0.339E-01    0.691E-02
RMM:   3    -0.429275339498E+02   -0.70385E-03   -0.20779E-03  1973   0.128E-01
    492 T=   903. E= -.42409645E+02 F= -.42927534E+02 E0= -.42877445E+02  EK= 0.40832E+01 SP= -.38E+01 SK= 0.19E+00 mag=      0.078
       N       E                     dE             d eps       ncg     rms          rms(c)
DAV:   1    -0.429604167921E+02   -0.33587E-01   -0.37806E-02  3784   0.127E+00    0.694E-02
RMM:   2    -0.429618745671E+02   -0.14578E-02   -0.55882E-03  1942   0.280E-01
    493 T=   866. E= -.42402143E+02 F= -.42961875E+02 E0= -.42911929E+02  EK= 0.39170E+01 SP= -.36E+01 SK= 0.21E+00 mag=      0.357
       N       E                     dE             d eps       ncg     rms          rms(c)
DAV:   1    -0.429888434036E+02   -0.28427E-01   -0.30463E-02  3840   0.122E+00    0.114E-01
RMM:   2    -0.429910360054E+02   -0.21926E-02   -0.71957E-03  2033   0.256E-01    0.937E-02
RMM:   3    -0.429930205896E+02   -0.19846E-02   -0.32865E-03  1821   0.112E-01    0.715E-02
RMM:   4    -0.429944066936E+02   -0.13861E-02   -0.32315E-03  1843   0.863E-02
    494 T=   828. E= -.42397554E+02 F= -.42994407E+02 E0= -.42943551E+02  EK= 0.37471E+01 SP= -.34E+01 SK= 0.22E+00 mag=      0.114
       N       E                     dE             d eps       ncg     rms          rms(c)
DAV:   1    -0.430186654097E+02   -0.25645E-01   -0.20956E-02  2840   0.109E+00    0.120E-01
RMM:   2    -0.430209655086E+02   -0.23001E-02   -0.68015E-03  1957   0.287E-01    0.924E-02
RMM:   3    -0.430225950439E+02   -0.16295E-02   -0.35398E-03  1824   0.115E-01
    495 T=   791. E= -.42392139E+02 F= -.43022595E+02 E0= -.42972022E+02  EK= 0.35795E+01 SP= -.32E+01 SK= 0.22E+00 mag=     -0.305
       N       E                     dE             d eps       ncg     rms          rms(c)
DAV:   1    -0.430460290696E+02   -0.25064E-01   -0.39138E-02  3784   0.115E+00    0.142E-01
RMM:   2    -0.430480890046E+02   -0.20599E-02   -0.58201E-03  1914   0.276E-01    0.108E-01
RMM:   3    -0.430496803652E+02   -0.15914E-02   -0.18878E-03  1840   0.117E-01
    496 T=   756. E= -.42386042E+02 F= -.43049680E+02 E0= -.42999102E+02  EK= 0.34213E+01 SP= -.30E+01 SK= 0.21E+00 mag=     -0.386
       N       E                     dE             d eps       ncg     rms          rms(c)
DAV:   1    -0.430760614546E+02   -0.27972E-01   -0.22194E-02  3528   0.106E+00    0.983E-02
RMM:   2    -0.430771554473E+02   -0.10940E-02   -0.51188E-03  1901   0.248E-01
    497 T=   724. E= -.42382443E+02 F= -.43077155E+02 E0= -.43025256E+02  EK= 0.32739E+01 SP= -.28E+01 SK= 0.20E+00 mag=     -0.106
       N       E                     dE             d eps       ncg     rms          rms(c)
DAV:   1    -0.430987567463E+02   -0.22695E-01   -0.27706E-02  3728   0.108E+00    0.864E-02
RMM:   2    -0.431001934652E+02   -0.14367E-02   -0.53799E-03  2023   0.243E-01
    498 T=   694. E= -.42376823E+02 F= -.43100193E+02 E0= -.43048709E+02  EK= 0.31391E+01 SP= -.26E+01 SK= 0.18E+00 mag=      0.410
       N       E                     dE             d eps       ncg     rms          rms(c)
DAV:   1    -0.431158290611E+02   -0.17072E-01   -0.18107E-02  3464   0.102E+00    0.163E-01
RMM:   2    -0.431190192204E+02   -0.31902E-02   -0.64844E-03  2029   0.277E-01    0.133E-01
RMM:   3    -0.431219011462E+02   -0.28819E-02   -0.36509E-03  1827   0.122E-01    0.989E-02
RMM:   4    -0.431246596588E+02   -0.27585E-02   -0.45810E-03  1908   0.109E-01    0.493E-02
RMM:   5    -0.431252509335E+02   -0.59127E-03   -0.11828E-03  1781   0.648E-02
    499 T=   667. E= -.42376415E+02 F= -.43125251E+02 E0= -.43072969E+02  EK= 0.30176E+01 SP= -.24E+01 SK= 0.15E+00 mag=      0.057
       N       E                     dE             d eps       ncg     rms          rms(c)
DAV:   1    -0.431360630757E+02   -0.11403E-01   -0.26708E-02  3408   0.998E-01    0.180E-01
RMM:   2    -0.431401126431E+02   -0.40496E-02   -0.64365E-03  1888   0.241E-01    0.151E-01
RMM:   3    -0.431450772786E+02   -0.49646E-02   -0.62740E-03  1824   0.121E-01    0.835E-02
RMM:   4    -0.431471576836E+02   -0.20804E-02   -0.29488E-03  1824   0.102E-01    0.503E-02
RMM:   5    -0.431477535387E+02   -0.59586E-03   -0.11344E-03  1777   0.637E-02
    500 T=   644. E= -.42374102E+02 F= -.43147754E+02 E0= -.43095259E+02  EK= 0.29131E+01 SP= -.23E+01 SK= 0.12E+00 mag=     -0.087
       N       E                     dE             d eps       ncg     rms          rms(c)
DAV:   1    -0.431677693096E+02   -0.20612E-01   -0.20220E-02  3440   0.961E-01    0.740E-02
RMM:   2    -0.431687950714E+02   -0.10258E-02   -0.41444E-03  1949   0.229E-01
    501 T=   625. E= -.42369161E+02 F= -.43168795E+02 E0= -.43116053E+02  EK= 0.28276E+01 SP= -.21E+01 SK= 0.95E-01 mag=     -0.020
       N       E                     dE             d eps       ncg     rms          rms(c)
DAV:   1    -0.431874443684E+02   -0.19675E-01   -0.20777E-02  3736   0.977E-01    0.968E-02
RMM:   2    -0.431890206040E+02   -0.15762E-02   -0.46960E-03  2005   0.230E-01
    502 T=   610. E= -.42365054E+02 F= -.43189021E+02 E0= -.43136307E+02  EK= 0.27586E+01 SP= -.20E+01 SK= 0.68E-01 mag=      0.189
       N       E                     dE             d eps       ncg     rms          rms(c)
DAV:   1    -0.432087982252E+02   -0.21354E-01   -0.11133E-02  3016   0.934E-01    0.106E-01
RMM:   2    -0.432102706295E+02   -0.14724E-02   -0.46995E-03  2009   0.251E-01
    503 T=   599. E= -.42361729E+02 F= -.43210271E+02 E0= -.43157963E+02  EK= 0.27079E+01 SP= -.19E+01 SK= 0.44E-01 mag=      0.362
       N       E                     dE             d eps       ncg     rms          rms(c)
DAV:   1    -0.432323186810E+02   -0.23520E-01   -0.19911E-02  3568   0.103E+00    0.687E-02
RMM:   2    -0.432333769914E+02   -0.10583E-02   -0.55169E-03  1961   0.252E-01
    504 T=   592. E= -.42357873E+02 F= -.43233377E+02 E0= -.43180891E+02  EK= 0.26774E+01 SP= -.18E+01 SK= 0.24E-01 mag=      0.395
       N       E                     dE             d eps       ncg     rms          rms(c)
DAV:   1    -0.432521992093E+02   -0.19881E-01   -0.15136E-02  3184   0.895E-01    0.980E-02
RMM:   2    -0.432538495533E+02   -0.16503E-02   -0.62638E-03  1992   0.271E-01
    505 T=   589. E= -.42351168E+02 F= -.43253850E+02 E0= -.43200880E+02  EK= 0.26648E+01 SP= -.18E+01 SK= 0.98E-02 mag=      0.213
       N       E                     dE             d eps       ncg     rms          rms(c)
DAV:   1    -0.432725814499E+02   -0.20382E-01   -0.16816E-02  3424   0.976E-01    0.126E-01
RMM:   2    -0.432746049609E+02   -0.20235E-02   -0.53868E-03  1994   0.255E-01    0.102E-01
RMM:   3    -0.432757660687E+02   -0.11611E-02   -0.16474E-03  1900   0.104E-01
    506 T=   590. E= -.42346605E+02 F= -.43275766E+02 E0= -.43222660E+02  EK= 0.26690E+01 SP= -.17E+01 SK= 0.19E-02 mag=     -0.056
       N       E                     dE             d eps       ncg     rms          rms(c)
DAV:   1    -0.432924636516E+02   -0.17859E-01   -0.45510E-02  3296   0.931E-01    0.148E-01
RMM:   2    -0.432961420927E+02   -0.36784E-02   -0.76840E-03  1882   0.261E-01    0.124E-01
RMM:   3    -0.432972049243E+02   -0.10628E-02   -0.17119E-03  1794   0.899E-02
    507 T=   595. E= -.42342357E+02 F= -.43297205E+02 E0= -.43244300E+02  EK= 0.26898E+01 SP= -.17E+01 SK= 0.12E-03 mag=     -0.154
       N       E                     dE             d eps       ncg     rms          rms(c)
DAV:   1    -0.433202383062E+02   -0.24096E-01   -0.97980E-02  3088   0.105E+00    0.127E-01
RMM:   2    -0.433220523080E+02   -0.18140E-02   -0.10103E-02  2046   0.336E-01    0.768E-02
RMM:   3    -0.433225019298E+02   -0.44962E-03   -0.14887E-03  1945   0.114E-01
    508 T=   603. E= -.42341457E+02 F= -.43322502E+02 E0= -.43269229E+02  EK= 0.27282E+01 SP= -.18E+01 SK= 0.41E-02 mag=     -0.041
       N       E                     dE             d eps       ncg     rms          rms(c)
DAV:   1    -0.433443239728E+02   -0.22272E-01   -0.69795E-02  3160   0.103E+00    0.982E-02
RMM:   2    -0.433456329157E+02   -0.13089E-02   -0.74393E-03  2014   0.291E-01
    509 T=   616. E= -.42337128E+02 F= -.43345633E+02 E0= -.43292540E+02  EK= 0.27848E+01 SP= -.18E+01 SK= 0.13E-01 mag=      0.217
       N       E                     dE             d eps       ncg     rms          rms(c)
DAV:   1    -0.433645054115E+02   -0.20181E-01   -0.38917E-02  3536   0.996E-01    0.116E-01
RMM:   2    -0.433662114341E+02   -0.17060E-02   -0.61628E-03  2036   0.256E-01
    510 T=   632. E= -.42331013E+02 F= -.43366211E+02 E0= -.43313754E+02  EK= 0.28575E+01 SP= -.18E+01 SK= 0.26E-01 mag=      0.374
       N       E                     dE             d eps       ncg     rms          rms(c)
DAV:   1    -0.433881148064E+02   -0.23609E-01   -0.21629E-02  3232   0.989E-01    0.118E-01
RMM:   2    -0.433900384899E+02   -0.19237E-02   -0.74849E-03  2014   0.309E-01    0.880E-02
RMM:   3    -0.433909645069E+02   -0.92602E-03   -0.19392E-03  1982   0.113E-01
    511 T=   651. E= -.42330652E+02 F= -.43390965E+02 E0= -.43337958E+02  EK= 0.29449E+01 SP= -.19E+01 SK= 0.41E-01 mag=      0.223
       N       E                     dE             d eps       ncg     rms          rms(c)
DAV:   1    -0.434137288860E+02   -0.23690E-01   -0.22685E-02  3424   0.103E+00    0.817E-02
RMM:   2    -0.434148179924E+02   -0.10891E-02   -0.57541E-03  1930   0.254E-01
    512 T=   674. E= -.42327153E+02 F= -.43414818E+02 E0= -.43361644E+02  EK= 0.30505E+01 SP= -.20E+01 SK= 0.57E-01 mag=     -0.191
       N       E                     dE             d eps       ncg     rms          rms(c)
DAV:   1    -0.434299412269E+02   -0.16212E-01   -0.30927E-02  3648   0.107E+00    0.154E-01
RMM:   2    -0.434326926213E+02   -0.27514E-02   -0.69514E-03  1965   0.242E-01    0.126E-01
RMM:   3    -0.434363250933E+02   -0.36325E-02   -0.43924E-03  1824   0.123E-01    0.818E-02
RMM:   4    -0.434378497644E+02   -0.15247E-02   -0.22164E-03  1824   0.894E-02
    513 T=   701. E= -.42324196E+02 F= -.43437850E+02 E0= -.43384738E+02  EK= 0.31697E+01 SP= -.21E+01 SK= 0.72E-01 mag=     -0.150
       N       E                     dE             d eps       ncg     rms          rms(c)
DAV:   1    -0.434570726970E+02   -0.20748E-01   -0.16774E-02  3032   0.970E-01    0.144E-01
RMM:   2    -0.434587411262E+02   -0.16684E-02   -0.73550E-03  1964   0.255E-01
    514 T=   730. E= -.42318913E+02 F= -.43458741E+02 E0= -.43405721E+02  EK= 0.33027E+01 SP= -.22E+01 SK= 0.85E-01 mag=      0.237
       N       E                     dE             d eps       ncg     rms          rms(c)
DAV:   1    -0.434718676870E+02   -0.14795E-01   -0.52822E-02  3768   0.120E+00    0.186E-01
RMM:   2    -0.434758536653E+02   -0.39860E-02   -0.72005E-03  2011   0.291E-01    0.152E-01
RMM:   3    -0.434781573723E+02   -0.23037E-02   -0.22055E-03  1898   0.113E-01    0.125E-01
RMM:   4    -0.434830424962E+02   -0.48851E-02   -0.76848E-03  2069   0.127E-01    0.408E-02
RMM:   5    -0.434833172696E+02   -0.27477E-03   -0.58754E-04  1653   0.636E-02
    515 T=   762. E= -.42317997E+02 F= -.43483317E+02 E0= -.43430006E+02  EK= 0.34468E+01 SP= -.24E+01 SK= 0.94E-01 mag=      0.106
       N       E                     dE             d eps       ncg     rms          rms(c)
DAV:   1    -0.434934977483E+02   -0.10455E-01   -0.53303E-02  3224   0.101E+00    0.188E-01
RMM:   2    -0.434978719551E+02   -0.43742E-02   -0.11080E-02  1995   0.292E-01    0.147E-01
RMM:   3    -0.435004817815E+02   -0.26098E-02   -0.38735E-03  1841   0.121E-01    0.120E-01
RMM:   4    -0.435047843041E+02   -0.43025E-02   -0.82476E-03  2032   0.110E-01    0.516E-02
RMM:   5    -0.435052028398E+02   -0.41854E-03   -0.77149E-04  1676   0.620E-02
    516 T=   795. E= -.42317754E+02 F= -.43505203E+02 E0= -.43451837E+02  EK= 0.35969E+01 SP= -.25E+01 SK= 0.97E-01 mag=     -0.078
       N       E                     dE             d eps       ncg     rms          rms(c)
DAV:   1    -0.435235020066E+02   -0.18718E-01   -0.24928E-02  3584   0.109E+00    0.873E-02
RMM:   2    -0.435249938203E+02   -0.14918E-02   -0.54421E-03  1994   0.261E-01
    517 T=   830. E= -.42313125E+02 F= -.43524994E+02 E0= -.43471986E+02  EK= 0.37553E+01 SP= -.26E+01 SK= 0.95E-01 mag=     -0.248
       N       E                     dE             d eps       ncg     rms          rms(c)
DAV:   1    -0.435404480940E+02   -0.16946E-01   -0.28255E-02  3944   0.111E+00    0.119E-01
RMM:   2    -0.435429709470E+02   -0.25229E-02   -0.69723E-03  2010   0.263E-01    0.960E-02
RMM:   3    -0.435444258979E+02   -0.14550E-02   -0.25188E-03  1846   0.106E-01
    518 T=   865. E= -.42310736E+02 F= -.43544426E+02 E0= -.43491332E+02  EK= 0.39134E+01 SP= -.28E+01 SK= 0.88E-01 mag=     -0.150
       N       E                     dE             d eps       ncg     rms          rms(c)
DAV:   1    -0.435590529855E+02   -0.16082E-01   -0.65858E-02  3392   0.114E+00    0.128E-01
RMM:   2    -0.435627479446E+02   -0.36950E-02   -0.74677E-03  1942   0.278E-01    0.868E-02
RMM:   3    -0.435639228023E+02   -0.11749E-02   -0.27696E-03  1824   0.105E-01
    519 T=   899. E= -.42309959E+02 F= -.43563923E+02 E0= -.43510634E+02  EK= 0.40674E+01 SP= -.29E+01 SK= 0.75E-01 mag=      0.148
       N       E                     dE             d eps       ncg     rms          rms(c)
DAV:   1    -0.435772302592E+02   -0.14482E-01   -0.12143E-01  3704   0.118E+00    0.122E-01
RMM:   2    -0.435794611993E+02   -0.22309E-02   -0.80313E-03  2036   0.313E-01    0.960E-02
RMM:   3    -0.435805232750E+02   -0.10621E-02   -0.20532E-03  1985   0.110E-01
    520 T=   932. E= -.42305447E+02 F= -.43580523E+02 E0= -.43527558E+02  EK= 0.42147E+01 SP= -.30E+01 SK= 0.60E-01 mag=      0.275
       N       E                     dE             d eps       ncg     rms          rms(c)
DAV:   1    -0.435960001076E+02   -0.16539E-01   -0.73693E-02  3544   0.118E+00    0.677E-02
RMM:   2    -0.435972603387E+02   -0.12602E-02   -0.68112E-03  2036   0.300E-01
    521 T=   961. E= -.42302815E+02 F= -.43597260E+02 E0= -.43543650E+02  EK= 0.43471E+01 SP= -.31E+01 SK= 0.42E-01 mag=      0.174
       N       E                     dE             d eps       ncg     rms          rms(c)
DAV:   1    -0.436079794228E+02   -0.11979E-01   -0.49404E-02  3984   0.122E+00    0.675E-02
RMM:   2    -0.436094986421E+02   -0.15192E-02   -0.74759E-03  2041   0.284E-01
    522 T=   985. E= -.42299647E+02 F= -.43609499E+02 E0= -.43555819E+02  EK= 0.44569E+01 SP= -.32E+01 SK= 0.26E-01 mag=     -0.121
       N       E                     dE             d eps       ncg     rms          rms(c)
DAV:   1    -0.436152911145E+02   -0.73117E-02   -0.23133E-02  3576   0.115E+00    0.118E-01
RMM:   2    -0.436176138739E+02   -0.23228E-02   -0.80087E-03  2063   0.329E-01    0.968E-02
RMM:   3    -0.436195570423E+02   -0.19432E-02   -0.32230E-03  1920   0.138E-01    0.617E-02
RMM:   4    -0.436207495595E+02   -0.11925E-02   -0.21363E-03  1834   0.963E-02
    523 T=  1003. E= -.42299085E+02 F= -.43620750E+02 E0= -.43566975E+02  EK= 0.45396E+01 SP= -.32E+01 SK= 0.12E-01 mag=     -0.122
       N       E                     dE             d eps       ncg     rms          rms(c)
DAV:   1    -0.436237011790E+02   -0.41441E-02   -0.40221E-02  3808   0.127E+00    0.123E-01
RMM:   2    -0.436260467424E+02   -0.23456E-02   -0.71591E-03  1922   0.289E-01    0.952E-02
RMM:   3    -0.436274310143E+02   -0.13843E-02   -0.24039E-03  1824   0.109E-01
    524 T=  1016. E= -.42292229E+02 F= -.43627431E+02 E0= -.43573602E+02  EK= 0.45965E+01 SP= -.33E+01 SK= 0.28E-02 mag=      0.075
       N       E                     dE             d eps       ncg     rms          rms(c)
DAV:   1    -0.436303676462E+02   -0.43209E-02   -0.45743E-02  3728   0.120E+00    0.109E-01
RMM:   2    -0.436321203954E+02   -0.17527E-02   -0.66879E-03  2025   0.295E-01
    525 T=  1021. E= -.42285731E+02 F= -.43632120E+02 E0= -.43578644E+02  EK= 0.46208E+01 SP= -.33E+01 SK= 0.23E-04 mag=      0.353
       N       E                     dE             d eps       ncg     rms          rms(c)
DAV:   1    -0.436318517239E+02   -0.14841E-02   -0.45860E-02  3968   0.128E+00    0.103E-01
RMM:   2    -0.436337386945E+02   -0.18870E-02   -0.64381E-03  2039   0.274E-01    0.825E-02
RMM:   3    -0.436343956556E+02   -0.65696E-03   -0.16795E-03  1940   0.109E-01
    526 T=  1018. E= -.42284044E+02 F= -.43634396E+02 E0= -.43581226E+02  EK= 0.46064E+01 SP= -.33E+01 SK= 0.40E-02 mag=      0.251
       N       E                     dE             d eps       ncg     rms          rms(c)
DAV:   1    -0.436316468183E+02    0.20919E-02   -0.36951E-02  3464   0.125E+00    0.128E-01
RMM:   2    -0.436336339063E+02   -0.19871E-02   -0.72379E-03  1976   0.330E-01    0.897E-02
RMM:   3    -0.436342579627E+02   -0.62406E-03   -0.18730E-03  1824   0.118E-01
    527 T=  1008. E= -.42279613E+02 F= -.43634258E+02 E0= -.43580296E+02  EK= 0.45617E+01 SP= -.32E+01 SK= 0.14E-01 mag=     -0.117
       N       E                     dE             d eps       ncg     rms          rms(c)
DAV:   1    -0.436261379939E+02    0.74959E-02   -0.50753E-02  4000   0.128E+00    0.130E-01
RMM:   2    -0.436284879965E+02   -0.23500E-02   -0.68030E-03  2032   0.295E-01    0.104E-01
RMM:   3    -0.436296543058E+02   -0.11663E-02   -0.16734E-03  1949   0.108E-01
    528 T=   992. E= -.42271621E+02 F= -.43629654E+02 E0= -.43576491E+02  EK= 0.44878E+01 SP= -.32E+01 SK= 0.30E-01 mag=     -0.325
       N       E                     dE             d eps       ncg     rms          rms(c)
DAV:   1    -0.436233342931E+02    0.51537E-02   -0.31170E-02  3744   0.126E+00    0.951E-02
RMM:   2    -0.436246309829E+02   -0.12967E-02   -0.68290E-03  2000   0.291E-01
    529 T=   969. E= -.42268505E+02 F= -.43624631E+02 E0= -.43570993E+02  EK= 0.43838E+01 SP= -.31E+01 SK= 0.48E-01 mag=     -0.284
       N       E                     dE             d eps       ncg     rms          rms(c)
DAV:   1    -0.436111964001E+02    0.12138E-01   -0.46336E-02  4024   0.128E+00    0.112E-01
RMM:   2    -0.436133231730E+02   -0.21268E-02   -0.77809E-03  2028   0.289E-01    0.884E-02
RMM:   3    -0.436143611166E+02   -0.10379E-02   -0.23313E-03  1986   0.114E-01
    530 T=   941. E= -.42264172E+02 F= -.43614361E+02 E0= -.43560424E+02  EK= 0.42560E+01 SP= -.30E+01 SK= 0.68E-01 mag=     -0.012
       N       E                     dE             d eps       ncg     rms          rms(c)
DAV:   1    -0.436020811268E+02    0.11242E-01   -0.26309E-02  3544   0.117E+00    0.101E-01
RMM:   2    -0.436033408833E+02   -0.12598E-02   -0.45584E-03  2005   0.281E-01
    531 T=   910. E= -.42257730E+02 F= -.43603341E+02 E0= -.43549983E+02  EK= 0.41152E+01 SP= -.29E+01 SK= 0.86E-01 mag=      0.383
       N       E                     dE             d eps       ncg     rms          rms(c)
DAV:   1    -0.435840445651E+02    0.18037E-01   -0.43814E-02  4096   0.125E+00    0.134E-01
RMM:   2    -0.435864894488E+02   -0.24449E-02   -0.69342E-03  2014   0.268E-01    0.106E-01
RMM:   3    -0.435882967037E+02   -0.18073E-02   -0.25464E-03  1903   0.119E-01    0.836E-02
RMM:   4    -0.435902786924E+02   -0.19820E-02   -0.32470E-03  1899   0.885E-02    0.469E-02
RMM:   5    -0.435906779109E+02   -0.39922E-03   -0.65660E-04  1627   0.539E-02
    532 T=   876. E= -.42251691E+02 F= -.43590678E+02 E0= -.43536972E+02  EK= 0.39634E+01 SP= -.27E+01 SK= 0.10E+00 mag=      0.075
       N       E                     dE             d eps       ncg     rms          rms(c)
DAV:   1    -0.435685570435E+02    0.21722E-01   -0.18929E-02  3408   0.109E+00    0.147E-01
RMM:   2    -0.435711085290E+02   -0.25515E-02   -0.68680E-03  1878   0.271E-01    0.113E-01
RMM:   3    -0.435726991573E+02   -0.15906E-02   -0.26413E-03  1824   0.112E-01
    533 T=   841. E= -.42245280E+02 F= -.43572699E+02 E0= -.43520366E+02  EK= 0.38032E+01 SP= -.26E+01 SK= 0.11E+00 mag=     -0.458
       N       E                     dE             d eps       ncg     rms          rms(c)
DAV:   1    -0.435502142973E+02    0.20894E-01   -0.43780E-02  3688   0.111E+00    0.170E-01
RMM:   2    -0.435529332058E+02   -0.27189E-02   -0.59314E-03  2021   0.282E-01    0.134E-01
RMM:   3    -0.435552101296E+02   -0.22769E-02   -0.22826E-03  1862   0.120E-01    0.106E-01
RMM:   4    -0.435576137680E+02   -0.24036E-02   -0.25916E-03  1863   0.984E-02    0.580E-02
RMM:   5    -0.435583265575E+02   -0.71279E-03   -0.87557E-04  1652   0.645E-02
    534 T=   805. E= -.42243511E+02 F= -.43558327E+02 E0= -.43504979E+02  EK= 0.36434E+01 SP= -.24E+01 SK= 0.12E+00 mag=     -0.091
       N       E                     dE             d eps       ncg     rms          rms(c)
DAV:   1    -0.435329325870E+02    0.24681E-01   -0.19188E-02  3504   0.108E+00    0.157E-01
RMM:   2    -0.435355502605E+02   -0.26177E-02   -0.56622E-03  1913   0.232E-01    0.127E-01
RMM:   3    -0.435382448371E+02   -0.26946E-02   -0.29242E-03  1824   0.115E-01    0.891E-02
RMM:   4    -0.435399266574E+02   -0.16818E-02   -0.16799E-03  1824   0.839E-02
    535 T=   771. E= -.42239834E+02 F= -.43539927E+02 E0= -.43487108E+02  EK= 0.34871E+01 SP= -.23E+01 SK= 0.11E+00 mag=      0.237
       N       E                     dE             d eps       ncg     rms          rms(c)
DAV:   1    -0.435206935616E+02    0.17551E-01   -0.25860E-02  3744   0.105E+00    0.970E-02
RMM:   2    -0.435215842607E+02   -0.89070E-03   -0.44286E-03  1993   0.238E-01
    536 T=   739. E= -.42234369E+02 F= -.43521584E+02 E0= -.43469078E+02  EK= 0.33417E+01 SP= -.22E+01 SK= 0.11E+00 mag=      0.378
       N       E                     dE             d eps       ncg     rms          rms(c)
DAV:   1    -0.435035108487E+02    0.17183E-01   -0.13901E-02  3320   0.102E+00    0.620E-02
RMM:   2    -0.435044949088E+02   -0.98406E-03   -0.59802E-03  2005   0.272E-01
    537 T=   709. E= -.42231130E+02 F= -.43504495E+02 E0= -.43451583E+02  EK= 0.32069E+01 SP= -.20E+01 SK= 0.92E-01 mag=      0.258
       N       E                     dE             d eps       ncg     rms          rms(c)
DAV:   1    -0.434868717545E+02    0.16639E-01   -0.14340E-02  3368   0.104E+00    0.639E-02
RMM:   2    -0.434876644421E+02   -0.79269E-03   -0.51266E-03  2011   0.257E-01
    538 T=   682. E= -.42227485E+02 F= -.43487664E+02 E0= -.43434713E+02  EK= 0.30862E+01 SP= -.19E+01 SK= 0.76E-01 mag=     -0.095
       N       E                     dE             d eps       ncg     rms          rms(c)
DAV:   1    -0.434683736849E+02    0.18498E-01   -0.18856E-02  3648   0.997E-01    0.862E-02
RMM:   2    -0.434697619129E+02   -0.13882E-02   -0.60836E-03  2030   0.269E-01
    539 T=   659. E= -.42220660E+02 F= -.43469762E+02 E0= -.43418048E+02  EK= 0.29826E+01 SP= -.18E+01 SK= 0.59E-01 mag=     -0.526
       N       E                     dE             d eps       ncg     rms          rms(c)
DAV:   1    -0.434506625890E+02    0.17711E-01   -0.10970E-02  3192   0.949E-01    0.129E-01
RMM:   2    -0.434527183672E+02   -0.20558E-02   -0.56567E-03  2003   0.281E-01    0.107E-01
RMM:   3    -0.434551008513E+02   -0.23825E-02   -0.34231E-03  1854   0.124E-01    0.680E-02
RMM:   4    -0.434564669399E+02   -0.13661E-02   -0.23231E-03  1836   0.995E-02
    540 T=   640. E= -.42219064E+02 F= -.43456467E+02 E0= -.43404050E+02  EK= 0.28940E+01 SP= -.17E+01 SK= 0.41E-01 mag=     -0.117
       N       E                     dE             d eps       ncg     rms          rms(c)
DAV:   1    -0.434361185881E+02    0.18982E-01   -0.15372E-02  3080   0.954E-01    0.157E-01
RMM:   2    -0.434386270064E+02   -0.25084E-02   -0.44901E-03  1853   0.219E-01    0.128E-01
RMM:   3    -0.434406009898E+02   -0.19740E-02   -0.19614E-03  1823   0.921E-02    0.939E-02
RMM:   4    -0.434425538556E+02   -0.19529E-02   -0.19930E-03  1840   0.801E-02    0.566E-02
RMM:   5    -0.434433346226E+02   -0.78077E-03   -0.11411E-03  1739   0.596E-02
    541 T=   624. E= -.42216872E+02 F= -.43443335E+02 E0= -.43390977E+02  EK= 0.28223E+01 SP= -.16E+01 SK= 0.25E-01 mag=      0.051
       N       E                     dE             d eps       ncg     rms          rms(c)
DAV:   1    -0.434317139837E+02    0.10840E-01   -0.30247E-02  3400   0.922E-01    0.669E-02
RMM:   2    -0.434323130677E+02   -0.59908E-03   -0.38857E-03  1985   0.237E-01
    542 T=   612. E= -.42213231E+02 F= -.43432313E+02 E0= -.43379854E+02  EK= 0.27708E+01 SP= -.16E+01 SK= 0.12E-01 mag=     -0.013
       N       E                     dE             d eps       ncg     rms          rms(c)
DAV:   1    -0.434221121829E+02    0.96018E-02   -0.24749E-02  3864   0.960E-01    0.613E-02
RMM:   2    -0.434229234130E+02   -0.81123E-03   -0.45182E-03  2003   0.229E-01
    543 T=   605. E= -.42210103E+02 F= -.43422923E+02 E0= -.43370765E+02  EK= 0.27371E+01 SP= -.15E+01 SK= 0.35E-02 mag=     -0.244
       N       E                     dE             d eps       ncg     rms          rms(c)
DAV:   1    -0.434143791136E+02    0.77331E-02   -0.84252E-03  2728   0.892E-01    0.925E-02
RMM:   2    -0.434154585940E+02   -0.10795E-02   -0.39854E-03  2007   0.250E-01
    544 T=   602. E= -.42206261E+02 F= -.43415459E+02 E0= -.43364033E+02  EK= 0.27226E+01 SP= -.15E+01 SK= 0.57E-04 mag=     -0.467
       N       E                     dE             d eps       ncg     rms          rms(c)
DAV:   1    -0.434108826751E+02    0.34964E-02   -0.15261E-02  3664   0.983E-01    0.894E-02
RMM:   2    -0.434120728111E+02   -0.11901E-02   -0.43238E-03  1951   0.232E-01
    545 T=   603. E= -.42201950E+02 F= -.43412073E+02 E0= -.43360900E+02  EK= 0.27295E+01 SP= -.15E+01 SK= 0.20E-02 mag=     -0.540
       N       E                     dE             d eps       ncg     rms          rms(c)
DAV:   1    -0.434116404857E+02   -0.75781E-03   -0.85388E-03  2792   0.887E-01    0.647E-02
RMM:   2    -0.434125057645E+02   -0.86528E-03   -0.43449E-03  1977   0.250E-01
    546 T=   609. E= -.42198171E+02 F= -.43412506E+02 E0= -.43360799E+02  EK= 0.27564E+01 SP= -.16E+01 SK= 0.92E-02 mag=     -0.361
       N       E                     dE             d eps       ncg     rms          rms(c)
DAV:   1    -0.434146680720E+02   -0.30276E-02   -0.11794E-02  3168   0.958E-01    0.538E-02
RMM:   2    -0.434153643971E+02   -0.69633E-03   -0.41830E-03  1979   0.235E-01
    547 T=   620. E= -.42193551E+02 F= -.43415364E+02 E0= -.43363091E+02  EK= 0.28032E+01 SP= -.16E+01 SK= 0.21E-01 mag=      0.052
       N       E                     dE             d eps       ncg     rms          rms(c)
DAV:   1    -0.434174763394E+02   -0.28083E-02   -0.10873E-02  3136   0.905E-01    0.950E-02
RMM:   2    -0.434188792582E+02   -0.14029E-02   -0.54123E-03  2020   0.262E-01
    548 T=   634. E= -.42186632E+02 F= -.43418879E+02 E0= -.43367822E+02  EK= 0.28696E+01 SP= -.17E+01 SK= 0.36E-01 mag=      0.501
       N       E                     dE             d eps       ncg     rms          rms(c)
DAV:   1    -0.434246068316E+02   -0.71305E-02   -0.19273E-02  3528   0.979E-01    0.128E-01
RMM:   2    -0.434264905334E+02   -0.18837E-02   -0.56486E-03  1987   0.267E-01    0.103E-01
RMM:   3    -0.434274514473E+02   -0.96091E-03   -0.17005E-03  1911   0.101E-01
    549 T=   653. E= -.42182291E+02 F= -.43427451E+02 E0= -.43377060E+02  EK= 0.29549E+01 SP= -.18E+01 SK= 0.54E-01 mag=      0.262
       N       E                     dE             d eps       ncg     rms          rms(c)
DAV:   1    -0.434372939287E+02   -0.10803E-01   -0.54071E-02  3232   0.101E+00    0.120E-01
RMM:   2    -0.434398401991E+02   -0.25463E-02   -0.80972E-03  1940   0.284E-01    0.964E-02
RMM:   3    -0.434405850872E+02   -0.74489E-03   -0.20009E-03  1824   0.959E-02
    550 T=   676. E= -.42180306E+02 F= -.43440585E+02 E0= -.43389178E+02  EK= 0.30584E+01 SP= -.19E+01 SK= 0.72E-01 mag=     -0.370
       N       E                     dE             d eps       ncg     rms          rms(c)
DAV:   1    -0.434464646145E+02   -0.66244E-02   -0.13532E-01  3200   0.119E+00    0.197E-01
RMM:   2    -0.434501232667E+02   -0.36587E-02   -0.87562E-03  2035   0.347E-01    0.153E-01
RMM:   3    -0.434527937413E+02   -0.26705E-02   -0.24013E-03  1998   0.133E-01    0.126E-01
RMM:   4    -0.434567857014E+02   -0.39920E-02   -0.45980E-03  1961   0.128E-01    0.563E-02
RMM:   5    -0.434574981733E+02   -0.71247E-03   -0.12064E-03  1743   0.810E-02
    551 T=   703. E= -.42179850E+02 F= -.43457498E+02 E0= -.43405160E+02  EK= 0.31793E+01 SP= -.20E+01 SK= 0.88E-01 mag=     -0.119
       N       E                     dE             d eps       ncg     rms          rms(c)
DAV:   1    -0.434684313556E+02   -0.11646E-01   -0.33090E-02  3352   0.105E+00    0.160E-01
RMM:   2    -0.434710720554E+02   -0.26407E-02   -0.64751E-03  1958   0.242E-01    0.127E-01
RMM:   3    -0.434728969683E+02   -0.18249E-02   -0.20241E-03  1853   0.103E-01    0.101E-01
RMM:   4    -0.434751883129E+02   -0.22913E-02   -0.22385E-03  1849   0.809E-02    0.546E-02
RMM:   5    -0.434759368790E+02   -0.74857E-03   -0.95644E-04  1671   0.611E-02
    552 T=   733. E= -.42179103E+02 F= -.43475937E+02 E0= -.43423447E+02  EK= 0.33160E+01 SP= -.21E+01 SK= 0.10E+00 mag=      0.106
       N       E                     dE             d eps       ncg     rms          rms(c)
DAV:   1    -0.434957174665E+02   -0.20529E-01   -0.22504E-02  3456   0.104E+00    0.730E-02
RMM:   2    -0.434966533737E+02   -0.93591E-03   -0.49545E-03  1968   0.260E-01
    553 T=   767. E= -.42174882E+02 F= -.43496653E+02 E0= -.43444238E+02  EK= 0.34707E+01 SP= -.23E+01 SK= 0.11E+00 mag=      0.253
       N       E                     dE             d eps       ncg     rms          rms(c)
DAV:   1    -0.435190146720E+02   -0.23297E-01   -0.19379E-02  3936   0.106E+00    0.757E-02
RMM:   2    -0.435202046656E+02   -0.11900E-02   -0.51963E-03  2014   0.251E-01
    554 T=   804. E= -.42172370E+02 F= -.43520205E+02 E0= -.43467534E+02  EK= 0.36362E+01 SP= -.24E+01 SK= 0.11E+00 mag=      0.263
       N       E                     dE             d eps       ncg     rms          rms(c)
DAV:   1    -0.435457813076E+02   -0.26767E-01   -0.10542E-02  2784   0.104E+00    0.713E-02
RMM:   2    -0.435470059440E+02   -0.12246E-02   -0.56922E-03  2022   0.280E-01
    555 T=   842. E= -.42169988E+02 F= -.43547006E+02 E0= -.43493758E+02  EK= 0.38111E+01 SP= -.25E+01 SK= 0.11E+00 mag=      0.090
       N       E                     dE             d eps       ncg     rms          rms(c)
DAV:   1    -0.435749896005E+02   -0.29208E-01   -0.28493E-02  3752   0.118E+00    0.547E-02
RMM:   2    -0.435761225113E+02   -0.11329E-02   -0.64419E-03  2008   0.274E-01
    556 T=   882. E= -.42165459E+02 F= -.43576123E+02 E0= -.43522943E+02  EK= 0.39922E+01 SP= -.27E+01 SK= 0.98E-01 mag=     -0.236
       N       E                     dE             d eps       ncg     rms          rms(c)
DAV:   1    -0.436021446253E+02   -0.27155E-01   -0.18145E-02  3224   0.109E+00    0.889E-02
RMM:   2    -0.436040106386E+02   -0.18660E-02   -0.74412E-03  2074   0.309E-01    0.756E-02
RMM:   3    -0.436048319910E+02   -0.82135E-03   -0.23873E-03  1901   0.120E-01
    557 T=   921. E= -.42161214E+02 F= -.43604832E+02 E0= -.43552281E+02  EK= 0.41690E+01 SP= -.28E+01 SK= 0.82E-01 mag=     -0.348
       N       E                     dE             d eps       ncg     rms          rms(c)
DAV:   1    -0.436344079338E+02   -0.30397E-01   -0.33709E-02  3424   0.118E+00    0.796E-02
RMM:   2    -0.436360111926E+02   -0.16033E-02   -0.58207E-03  1983   0.296E-01
    558 T=   960. E= -.42154289E+02 F= -.43636011E+02 E0= -.43582134E+02  EK= 0.43411E+01 SP= -.29E+01 SK= 0.62E-01 mag=     -0.150
       N       E                     dE             d eps       ncg     rms          rms(c)
DAV:   1    -0.436646659718E+02   -0.30258E-01   -0.52691E-02  3976   0.127E+00    0.573E-02
RMM:   2    -0.436661238736E+02   -0.14579E-02   -0.66335E-03  2034   0.278E-01
    559 T=   993. E= -.42148626E+02 F= -.43666124E+02 E0= -.43612374E+02  EK= 0.44943E+01 SP= -.30E+01 SK= 0.41E-01 mag=      0.299
       N       E                     dE             d eps       ncg     rms          rms(c)
DAV:   1    -0.436909475222E+02   -0.26282E-01   -0.21796E-02  3360   0.114E+00    0.120E-01
RMM:   2    -0.436932387785E+02   -0.22913E-02   -0.69748E-03  2061   0.314E-01    0.987E-02
RMM:   3    -0.436949433145E+02   -0.17045E-02   -0.26978E-03  1918   0.137E-01
    560 T=  1021. E= -.42145405E+02 F= -.43694943E+02 E0= -.43641906E+02  EK= 0.46203E+01 SP= -.31E+01 SK= 0.22E-01 mag=      0.370
       N       E                     dE             d eps       ncg     rms          rms(c)
DAV:   1    -0.437236301856E+02   -0.30391E-01   -0.41920E-02  3648   0.133E+00    0.759E-02
RMM:   2    -0.437251065868E+02   -0.14764E-02   -0.67215E-03  1998   0.325E-01
    561 T=  1044. E= -.42138585E+02 F= -.43725107E+02 E0= -.43670553E+02  EK= 0.47219E+01 SP= -.31E+01 SK= 0.75E-02 mag=      0.049
       N       E                     dE             d eps       ncg     rms          rms(c)
DAV:   1    -0.437477158799E+02   -0.24086E-01   -0.40267E-02  4160   0.131E+00    0.901E-02
RMM:   2    -0.437498782629E+02   -0.21624E-02   -0.73372E-03  2043   0.275E-01    0.775E-02
RMM:   3    -0.437507232959E+02   -0.84503E-03   -0.19119E-03  1895   0.109E-01
    562 T=  1057. E= -.42132545E+02 F= -.43750723E+02 E0= -.43696672E+02  EK= 0.47835E+01 SP= -.32E+01 SK= 0.41E-03 mag=     -0.353
       N       E                     dE             d eps       ncg     rms          rms(c)
DAV:   1    -0.437708186800E+02   -0.20940E-01   -0.32158E-02  3432   0.121E+00    0.111E-01
RMM:   2    -0.437728322672E+02   -0.20136E-02   -0.64614E-03  1978   0.291E-01    0.820E-02
RMM:   3    -0.437738849349E+02   -0.10527E-02   -0.19915E-03  1830   0.120E-01
    563 T=  1062. E= -.42129137E+02 F= -.43773885E+02 E0= -.43720139E+02  EK= 0.48024E+01 SP= -.32E+01 SK= 0.23E-02 mag=     -0.383
       N       E                     dE             d eps       ncg     rms          rms(c)
DAV:   1    -0.437937396221E+02   -0.20907E-01   -0.43523E-02  4032   0.132E+00    0.755E-02
RMM:   2    -0.437951938064E+02   -0.14542E-02   -0.58246E-03  2069   0.295E-01
    564 T=  1057. E= -.42123925E+02 F= -.43795194E+02 E0= -.43740034E+02  EK= 0.47827E+01 SP= -.31E+01 SK= 0.14E-01 mag=     -0.031
       N       E                     dE             d eps       ncg     rms          rms(c)
DAV:   1    -0.438077625356E+02   -0.14023E-01   -0.43212E-02  4080   0.128E+00    0.108E-01
RMM:   2    -0.438099408026E+02   -0.21783E-02   -0.74612E-03  2080   0.284E-01    0.853E-02
RMM:   3    -0.438111376581E+02   -0.11969E-02   -0.21819E-03  1918   0.116E-01
    565 T=  1043. E= -.42120500E+02 F= -.43811138E+02 E0= -.43756706E+02  EK= 0.47186E+01 SP= -.31E+01 SK= 0.33E-01 mag=      0.269
       N       E                     dE             d eps       ncg     rms          rms(c)
DAV:   1    -0.438222280267E+02   -0.12287E-01   -0.37624E-02  3512   0.121E+00    0.105E-01
RMM:   2    -0.438241083044E+02   -0.18803E-02   -0.57141E-03  2029   0.291E-01    0.752E-02
RMM:   3    -0.438246824156E+02   -0.57411E-03   -0.16103E-03  1720   0.109E-01
    566 T=  1021. E= -.42117323E+02 F= -.43824682E+02 E0= -.43770108E+02  EK= 0.46185E+01 SP= -.30E+01 SK= 0.60E-01 mag=      0.287
       N       E                     dE             d eps       ncg     rms          rms(c)
DAV:   1    -0.438316210722E+02   -0.75128E-02   -0.40950E-02  4048   0.125E+00    0.883E-02
RMM:   2    -0.438331951654E+02   -0.15741E-02   -0.55019E-03  2048   0.270E-01
    567 T=   992. E= -.42110756E+02 F= -.43833195E+02 E0= -.43778055E+02  EK= 0.44886E+01 SP= -.29E+01 SK= 0.89E-01 mag=      0.018
       N       E                     dE             d eps       ncg     rms          rms(c)
DAV:   1    -0.438343947158E+02   -0.27736E-02   -0.28147E-02  3712   0.124E+00    0.105E-01
RMM:   2    -0.438364408012E+02   -0.20461E-02   -0.72240E-03  2064   0.285E-01    0.811E-02
RMM:   3    -0.438372422013E+02   -0.80140E-03   -0.20541E-03  1869   0.113E-01
    568 T=   957. E= -.42107708E+02 F= -.43837242E+02 E0= -.43782701E+02  EK= 0.43293E+01 SP= -.27E+01 SK= 0.12E+00 mag=     -0.253
       N       E                     dE             d eps       ncg     rms          rms(c)
DAV:   1    -0.438357549017E+02    0.68590E-03   -0.34686E-02  3544   0.117E+00    0.112E-01
RMM:   2    -0.438375258858E+02   -0.17710E-02   -0.56868E-03  1989   0.281E-01
    569 T=   919. E= -.42100418E+02 F= -.43837526E+02 E0= -.43783328E+02  EK= 0.41562E+01 SP= -.26E+01 SK= 0.15E+00 mag=     -0.405
       N       E                     dE             d eps       ncg     rms          rms(c)
DAV:   1    -0.438278568844E+02    0.78980E-02   -0.46186E-02  4176   0.127E+00    0.150E-01
RMM:   2    -0.438311867720E+02   -0.33299E-02   -0.81672E-03  2045   0.269E-01    0.124E-01
RMM:   3    -0.438340003019E+02   -0.28135E-02   -0.34508E-03  1825   0.122E-01    0.926E-02
RMM:   4    -0.438365142532E+02   -0.25140E-02   -0.43159E-03  1897   0.100E-01    0.361E-02
RMM:   5    -0.438366778281E+02   -0.16357E-03   -0.51453E-04  1606   0.533E-02
    570 T=   878. E= -.42095074E+02 F= -.43836678E+02 E0= -.43781936E+02  EK= 0.39727E+01 SP= -.24E+01 SK= 0.17E+00 mag=     -0.057
       N       E                     dE             d eps       ncg     rms          rms(c)
DAV:   1    -0.438200920845E+02    0.16422E-01   -0.37829E-02  3240   0.109E+00    0.177E-01
RMM:   2    -0.438238736787E+02   -0.37816E-02   -0.94525E-03  1942   0.278E-01    0.143E-01
RMM:   3    -0.438270496095E+02   -0.31759E-02   -0.36284E-03  1826   0.117E-01    0.112E-01
RMM:   4    -0.438300573860E+02   -0.30078E-02   -0.40145E-03  1860   0.980E-02    0.557E-02
RMM:   5    -0.438307017242E+02   -0.64434E-03   -0.90059E-04  1669   0.637E-02
    571 T=   836. E= -.42092747E+02 F= -.43830702E+02 E0= -.43776270E+02  EK= 0.37805E+01 SP= -.22E+01 SK= 0.18E+00 mag=      0.099
       N       E                     dE             d eps       ncg     rms          rms(c)
DAV:   1    -0.438209674655E+02    0.90899E-02   -0.21575E-02  3528   0.108E+00    0.636E-02
RMM:   2    -0.438219416068E+02   -0.97414E-03   -0.41838E-03  2053   0.239E-01
    572 T=   794. E= -.42088049E+02 F= -.43821942E+02 E0= -.43767653E+02  EK= 0.35930E+01 SP= -.20E+01 SK= 0.18E+00 mag=      0.054
       N       E                     dE             d eps       ncg     rms          rms(c)
DAV:   1    -0.438087385608E+02    0.12229E-01   -0.21603E-02  3904   0.109E+00    0.759E-02
RMM:   2    -0.438101735102E+02   -0.14349E-02   -0.50511E-03  2023   0.241E-01
    573 T=   754. E= -.42084052E+02 F= -.43810174E+02 E0= -.43756158E+02  EK= 0.34115E+01 SP= -.19E+01 SK= 0.18E+00 mag=     -0.133
       N       E                     dE             d eps       ncg     rms          rms(c)
DAV:   1    -0.437955028293E+02    0.13236E-01   -0.17403E-02  3096   0.102E+00    0.949E-02
RMM:   2    -0.437971809949E+02   -0.16782E-02   -0.52436E-03  2027   0.271E-01
    574 T=   717. E= -.42079238E+02 F= -.43797181E+02 E0= -.43743731E+02  EK= 0.32429E+01 SP= -.17E+01 SK= 0.16E+00 mag=     -0.302
       N       E                     dE             d eps       ncg     rms          rms(c)
DAV:   1    -0.437843111378E+02    0.11192E-01   -0.23799E-02  3760   0.111E+00    0.648E-02
RMM:   2    -0.437854643599E+02   -0.11532E-02   -0.56270E-03  2019   0.272E-01
    575 T=   683. E= -.42074317E+02 F= -.43785464E+02 E0= -.43732264E+02  EK= 0.30916E+01 SP= -.15E+01 SK= 0.14E+00 mag=     -0.345
       N       E                     dE             d eps       ncg     rms          rms(c)
DAV:   1    -0.437706057763E+02    0.13705E-01   -0.16302E-02  3408   0.952E-01    0.633E-02
RMM:   2    -0.437719318276E+02   -0.13261E-02   -0.61078E-03  2014   0.271E-01
    576 T=   653. E= -.42069096E+02 F= -.43771932E+02 E0= -.43718638E+02  EK= 0.29560E+01 SP= -.14E+01 SK= 0.12E+00 mag=     -0.203
       N       E                     dE             d eps       ncg     rms          rms(c)
DAV:   1    -0.437559916493E+02    0.14614E-01   -0.18751E-02  3424   0.100E+00    0.101E-01
RMM:   2    -0.437575893511E+02   -0.15977E-02   -0.52790E-03  2016   0.254E-01
    577 T=   628. E= -.42062887E+02 F= -.43757589E+02 E0= -.43704289E+02  EK= 0.28391E+01 SP= -.12E+01 SK= 0.89E-01 mag=      0.076
       N       E                     dE             d eps       ncg     rms          rms(c)
DAV:   1    -0.437435982457E+02    0.12393E-01   -0.14691E-02  3352   0.923E-01    0.919E-02
RMM:   2    -0.437450387474E+02   -0.14405E-02   -0.53524E-03  2010   0.275E-01
    578 T=   606. E= -.42057945E+02 F= -.43745039E+02 E0= -.43692375E+02  EK= 0.27415E+01 SP= -.11E+01 SK= 0.62E-01 mag=      0.374
       N       E                     dE             d eps       ncg     rms          rms(c)
DAV:   1    -0.437313361158E+02    0.12262E-01   -0.15523E-02  3464   0.941E-01    0.797E-02
RMM:   2    -0.437327415432E+02   -0.14054E-02   -0.59960E-03  2015   0.263E-01
    579 T=   589. E= -.42052834E+02 F= -.43732742E+02 E0= -.43680865E+02  EK= 0.26634E+01 SP= -.10E+01 SK= 0.38E-01 mag=      0.520
       N       E                     dE             d eps       ncg     rms          rms(c)
DAV:   1    -0.437179116112E+02    0.13425E-01   -0.16054E-02  3144   0.914E-01    0.119E-01
RMM:   2    -0.437199012139E+02   -0.19896E-02   -0.64587E-03  2000   0.268E-01    0.989E-02
RMM:   3    -0.437210549058E+02   -0.11537E-02   -0.22756E-03  1906   0.109E-01
    580 T=   576. E= -.42048437E+02 F= -.43721055E+02 E0= -.43668690E+02  EK= 0.26041E+01 SP= -.95E+00 SK= 0.19E-01 mag=      0.201
       N       E                     dE             d eps       ncg     rms          rms(c)
DAV:   1    -0.437094338097E+02    0.10467E-01   -0.32734E-02  3192   0.900E-01    0.988E-02
RMM:   2    -0.437115942316E+02   -0.21604E-02   -0.60664E-03  1939   0.256E-01    0.796E-02
RMM:   3    -0.437120132759E+02   -0.41904E-03   -0.12623E-03  1735   0.866E-02
    581 T=   567. E= -.42045385E+02 F= -.43712013E+02 E0= -.43659749E+02  EK= 0.25651E+01 SP= -.90E+00 SK= 0.61E-02 mag=     -0.344
       N       E                     dE             d eps       ncg     rms          rms(c)
DAV:   1    -0.436962466850E+02    0.15348E-01   -0.69153E-02  3056   0.952E-01    0.169E-01
RMM:   2    -0.436990240552E+02   -0.27774E-02   -0.73700E-03  2016   0.282E-01    0.129E-01
RMM:   3    -0.437008921360E+02   -0.18681E-02   -0.20233E-03  1977   0.114E-01    0.109E-01
RMM:   4    -0.437042832838E+02   -0.33911E-02   -0.51611E-03  2025   0.117E-01    0.441E-02
RMM:   5    -0.437048009282E+02   -0.51764E-03   -0.99085E-04  1682   0.688E-02
    582 T=   563. E= -.42043923E+02 F= -.43704801E+02 E0= -.43651918E+02  EK= 0.25451E+01 SP= -.88E+00 SK= 0.26E-03 mag=     -0.117
       N       E                     dE             d eps       ncg     rms          rms(c)
DAV:   1    -0.436917416726E+02    0.12542E-01   -0.19761E-02  3032   0.898E-01    0.142E-01
RMM:   2    -0.436937317469E+02   -0.19901E-02   -0.47087E-03  1955   0.208E-01    0.111E-01
RMM:   3    -0.436951818174E+02   -0.14501E-02   -0.16509E-03  1836   0.911E-02
    583 T=   563. E= -.42038868E+02 F= -.43695182E+02 E0= -.43643618E+02  EK= 0.25451E+01 SP= -.89E+00 SK= 0.22E-02 mag=      0.423
       N       E                     dE             d eps       ncg     rms          rms(c)
DAV:   1    -0.436829540629E+02    0.10778E-01   -0.28890E-02  3392   0.946E-01    0.164E-01
RMM:   2    -0.436857689892E+02   -0.28149E-02   -0.59485E-03  1969   0.262E-01    0.133E-01
RMM:   3    -0.436884495849E+02   -0.26806E-02   -0.33727E-03  1826   0.125E-01    0.109E-01
RMM:   4    -0.436917986213E+02   -0.33490E-02   -0.72992E-03  2017   0.127E-01    0.546E-02
RMM:   5    -0.436923541728E+02   -0.55555E-03   -0.90693E-04  1676   0.716E-02
    584 T=   567. E= -.42039332E+02 F= -.43692354E+02 E0= -.43639485E+02  EK= 0.25651E+01 SP= -.92E+00 SK= 0.12E-01 mag=      0.097
       N       E                     dE             d eps       ncg     rms          rms(c)
DAV:   1    -0.436802219190E+02    0.11577E-01   -0.19542E-02  3064   0.911E-01    0.160E-01
RMM:   2    -0.436825455157E+02   -0.23236E-02   -0.57992E-03  1877   0.195E-01    0.128E-01
RMM:   3    -0.436854596879E+02   -0.29142E-02   -0.38711E-03  1824   0.101E-01    0.988E-02
RMM:   4    -0.436871847625E+02   -0.17251E-02   -0.15769E-03  1816   0.699E-02
    585 T=   576. E= -.42036752E+02 F= -.43687185E+02 E0= -.43635378E+02  EK= 0.26048E+01 SP= -.98E+00 SK= 0.29E-01 mag=     -0.321
       N       E                     dE             d eps       ncg     rms          rms(c)
DAV:   1    -0.436829738901E+02    0.24858E-02   -0.29096E-02  3120   0.951E-01    0.107E-01
RMM:   2    -0.436841921584E+02   -0.12183E-02   -0.48831E-03  1988   0.261E-01
    586 T=   590. E= -.42032641E+02 F= -.43684192E+02 E0= -.43633086E+02  EK= 0.26672E+01 SP= -.11E+01 SK= 0.51E-01 mag=     -0.624
       N       E                     dE             d eps       ncg     rms          rms(c)
DAV:   1    -0.436816107888E+02    0.13631E-02   -0.19722E-02  3488   0.992E-01    0.103E-01
RMM:   2    -0.436831381834E+02   -0.15274E-02   -0.52280E-03  1999   0.263E-01
    587 T=   608. E= -.42029284E+02 F= -.43683138E+02 E0= -.43631865E+02  EK= 0.27502E+01 SP= -.12E+01 SK= 0.78E-01 mag=     -0.623
       N       E                     dE             d eps       ncg     rms          rms(c)
DAV:   1    -0.436838642883E+02   -0.22535E-02   -0.12692E-02  3232   0.956E-01    0.738E-02
RMM:   2    -0.436849682409E+02   -0.11040E-02   -0.49231E-03  1966   0.255E-01
    588 T=   631. E= -.42028386E+02 F= -.43684968E+02 E0= -.43631964E+02  EK= 0.28530E+01 SP= -.13E+01 SK= 0.11E+00 mag=     -0.242
       N       E                     dE             d eps       ncg     rms          rms(c)
DAV:   1    -0.436845861235E+02   -0.72184E-03   -0.16948E-02  3096   0.103E+00    0.751E-02
RMM:   2    -0.436856506271E+02   -0.10645E-02   -0.53936E-03  1990   0.271E-01
    589 T=   658. E= -.42024582E+02 F= -.43685651E+02 E0= -.43633027E+02  EK= 0.29768E+01 SP= -.15E+01 SK= 0.14E+00 mag=      0.426
       N       E                     dE             d eps       ncg     rms          rms(c)
DAV:   1    -0.436777097981E+02    0.68763E-02   -0.20018E-02  3112   0.951E-01    0.161E-01
RMM:   2    -0.436807902178E+02   -0.30804E-02   -0.66328E-03  1957   0.271E-01    0.133E-01
RMM:   3    -0.436840255476E+02   -0.32353E-02   -0.47573E-03  1824   0.125E-01    0.969E-02
RMM:   4    -0.436867037551E+02   -0.26782E-02   -0.45306E-03  1895   0.110E-01    0.556E-02
RMM:   5    -0.436877120828E+02   -0.10083E-02   -0.23231E-03  1893   0.773E-02
    590 T=   689. E= -.42023645E+02 F= -.43687712E+02 E0= -.43634465E+02  EK= 0.31178E+01 SP= -.16E+01 SK= 0.16E+00 mag=      0.058
       N       E                     dE             d eps       ncg     rms          rms(c)
DAV:   1    -0.436791166812E+02    0.75871E-02   -0.31394E-02  3440   0.998E-01    0.161E-01
RMM:   2    -0.436822811080E+02   -0.31644E-02   -0.54941E-03  1943   0.232E-01    0.136E-01
RMM:   3    -0.436852359897E+02   -0.29549E-02   -0.32020E-03  1825   0.102E-01    0.901E-02
RMM:   4    -0.436875492670E+02   -0.23133E-02   -0.30964E-03  1889   0.886E-02    0.508E-02
RMM:   5    -0.436883304160E+02   -0.78115E-03   -0.15615E-03  1848   0.627E-02
    591 T=   724. E= -.42023248E+02 F= -.43688330E+02 E0= -.43635131E+02  EK= 0.32744E+01 SP= -.18E+01 SK= 0.18E+00 mag=     -0.109
       N       E                     dE             d eps       ncg     rms          rms(c)
DAV:   1    -0.436868656269E+02    0.68364E-03   -0.40021E-02  3392   0.105E+00    0.692E-02
RMM:   2    -0.436879331006E+02   -0.10675E-02   -0.55942E-03  1992   0.270E-01
    592 T=   762. E= -.42020679E+02 F= -.43687933E+02 E0= -.43634383E+02  EK= 0.34481E+01 SP= -.20E+01 SK= 0.20E+00 mag=     -0.090
       N       E                     dE             d eps       ncg     rms          rms(c)
DAV:   1    -0.436851887821E+02    0.16768E-02   -0.27531E-02  3560   0.109E+00    0.537E-02
RMM:   2    -0.436862994609E+02   -0.11107E-02   -0.63325E-03  2025   0.288E-01
    593 T=   803. E= -.42018686E+02 F= -.43686299E+02 E0= -.43632504E+02  EK= 0.36332E+01 SP= -.22E+01 SK= 0.20E+00 mag=      0.089
       N       E                     dE             d eps       ncg     rms          rms(c)
DAV:   1    -0.436809057642E+02    0.42830E-02   -0.18120E-02  3304   0.109E+00    0.687E-02
RMM:   2    -0.436820045525E+02   -0.10988E-02   -0.56345E-03  2010   0.291E-01
    594 T=   846. E= -.42015523E+02 F= -.43682005E+02 E0= -.43628753E+02  EK= 0.38262E+01 SP= -.24E+01 SK= 0.19E+00 mag=      0.338
       N       E                     dE             d eps       ncg     rms          rms(c)
DAV:   1    -0.436729913388E+02    0.79144E-02   -0.23682E-02  3456   0.120E+00    0.701E-02
RMM:   2    -0.436744155995E+02   -0.14243E-02   -0.62154E-03  1977   0.279E-01
    595 T=   889. E= -.42009368E+02 F= -.43674416E+02 E0= -.43622410E+02  EK= 0.40236E+01 SP= -.25E+01 SK= 0.18E+00 mag=      0.557
       N       E                     dE             d eps       ncg     rms          rms(c)
DAV:   1    -0.436616206945E+02    0.11371E-01   -0.15394E-02  3200   0.114E+00    0.810E-02
RMM:   2    -0.436633693489E+02   -0.17487E-02   -0.74090E-03  2043   0.312E-01
    596 T=   932. E= -.42002829E+02 F= -.43663369E+02 E0= -.43611910E+02  EK= 0.42164E+01 SP= -.27E+01 SK= 0.15E+00 mag=      0.580
       N       E                     dE             d eps       ncg     rms          rms(c)
DAV:   1    -0.436484722404E+02    0.13148E-01   -0.25219E-02  3664   0.123E+00    0.752E-02
RMM:   2    -0.436498990176E+02   -0.14268E-02   -0.67531E-03  1995   0.314E-01
    597 T=   972. E= -.41998488E+02 F= -.43649899E+02 E0= -.43596583E+02  EK= 0.43959E+01 SP= -.29E+01 SK= 0.12E+00 mag=      0.340
       N       E                     dE             d eps       ncg     rms          rms(c)
DAV:   1    -0.436289248154E+02    0.19547E-01   -0.24710E-02  3712   0.118E+00    0.633E-02
RMM:   2    -0.436304559101E+02   -0.15311E-02   -0.76958E-03  2062   0.319E-01
    598 T=  1006. E= -.41993901E+02 F= -.43630456E+02 E0= -.43576621E+02  EK= 0.45535E+01 SP= -.30E+01 SK= 0.92E-01 mag=     -0.146
       N       E                     dE             d eps       ncg     rms          rms(c)
DAV:   1    -0.436010553774E+02    0.27869E-01   -0.30967E-02  3488   0.125E+00    0.954E-02
RMM:   2    -0.436031204512E+02   -0.20651E-02   -0.80304E-03  2057   0.317E-01    0.778E-02
RMM:   3    -0.436039369766E+02   -0.81653E-03   -0.26633E-03  1894   0.123E-01
    599 T=  1035. E= -.41988423E+02 F= -.43603937E+02 E0= -.43552595E+02  EK= 0.46811E+01 SP= -.31E+01 SK= 0.60E-01 mag=     -0.517
       N       E                     dE             d eps       ncg     rms          rms(c)
DAV:   1    -0.435712778827E+02    0.31843E-01   -0.31626E-02  3440   0.126E+00    0.113E-01
RMM:   2    -0.435731563867E+02   -0.18785E-02   -0.63915E-03  2002   0.323E-01    0.851E-02
RMM:   3    -0.435740443172E+02   -0.88793E-03   -0.17320E-03  1817   0.119E-01
    600 T=  1055. E= -.41983423E+02 F= -.43574044E+02 E0= -.43521787E+02  EK= 0.47742E+01 SP= -.32E+01 SK= 0.33E-01 mag=     -0.414
       N       E                     dE             d eps       ncg     rms          rms(c)
DAV:   1    -0.435380115588E+02    0.35145E-01   -0.35241E-02  3984   0.129E+00    0.594E-02
RMM:   2    -0.435393091292E+02   -0.12976E-02   -0.58886E-03  2029   0.287E-01
    601 T=  1067. E= -.41977686E+02 F= -.43539309E+02 E0= -.43485421E+02  EK= 0.48273E+01 SP= -.33E+01 SK= 0.12E-01 mag=      0.124
       N       E                     dE             d eps       ncg     rms          rms(c)
DAV:   1    -0.434909086508E+02    0.47103E-01   -0.38958E-02  3992   0.127E+00    0.121E-01
RMM:   2    -0.434932533274E+02   -0.23447E-02   -0.84996E-03  2045   0.301E-01    0.969E-02
RMM:   3    -0.434947614254E+02   -0.15081E-02   -0.30096E-03  1906   0.128E-01
    602 T=  1068. E= -.41972430E+02 F= -.43494761E+02 E0= -.43444136E+02  EK= 0.48309E+01 SP= -.33E+01 SK= 0.17E-02 mag=      0.580
       N       E                     dE             d eps       ncg     rms          rms(c)
DAV:   1    -0.434453316833E+02    0.47922E-01   -0.29096E-02  3432   0.128E+00    0.126E-01
RMM:   2    -0.434473323989E+02   -0.20007E-02   -0.71059E-03  2029   0.343E-01    0.960E-02
RMM:   3    -0.434485894856E+02   -0.12571E-02   -0.25001E-03  1828   0.136E-01
    603 T=  1059. E= -.41967243E+02 F= -.43448589E+02 E0= -.43397747E+02  EK= 0.47931E+01 SP= -.33E+01 SK= 0.83E-03 mag=      0.571
       N       E                     dE             d eps       ncg     rms          rms(c)
DAV:   1    -0.433994837345E+02    0.47849E-01   -0.31478E-02  3424   0.129E+00    0.652E-02
RMM:   2    -0.434006118830E+02   -0.11281E-02   -0.60056E-03  2048   0.296E-01
    604 T=  1043. E= -.41960468E+02 F= -.43400612E+02 E0= -.43346942E+02  EK= 0.47170E+01 SP= -.33E+01 SK= 0.91E-02 mag=      0.070
       N       E                     dE             d eps       ncg     rms          rms(c)
DAV:   1    -0.433419441794E+02    0.57540E-01   -0.36426E-02  4040   0.129E+00    0.103E-01
RMM:   2    -0.433437699996E+02   -0.18258E-02   -0.81378E-03  2047   0.301E-01    0.799E-02
RMM:   3    -0.433448984695E+02   -0.11285E-02   -0.30633E-03  1869   0.131E-01
    605 T=  1016. E= -.41955394E+02 F= -.43344898E+02 E0= -.43293929E+02  EK= 0.45975E+01 SP= -.32E+01 SK= 0.24E-01 mag=     -0.580
       N       E                     dE             d eps       ncg     rms          rms(c)
DAV:   1    -0.432809307209E+02    0.62839E-01   -0.23907E-02  3232   0.125E+00    0.169E-01
RMM:   2    -0.432842576380E+02   -0.33269E-02   -0.89090E-03  2061   0.348E-01    0.136E-01
RMM:   3    -0.432866482450E+02   -0.23906E-02   -0.37982E-03  1834   0.146E-01    0.110E-01
RMM:   4    -0.432897223896E+02   -0.30741E-02   -0.56921E-03  1968   0.123E-01    0.632E-02
RMM:   5    -0.432906200334E+02   -0.89764E-03   -0.12387E-03  1763   0.722E-02
    606 T=   983. E= -.41954970E+02 F= -.43290620E+02 E0= -.43238263E+02  EK= 0.44466E+01 SP= -.32E+01 SK= 0.43E-01 mag=     -0.184
       N       E                     dE             d eps       ncg     rms          rms(c)
DAV:   1    -0.432273258083E+02    0.62397E-01   -0.44589E-02  3624   0.122E+00    0.150E-01
RMM:   2    -0.432300059303E+02   -0.26801E-02   -0.48090E-03  2016   0.250E-01    0.125E-01
RMM:   3    -0.432317125849E+02   -0.17067E-02   -0.18860E-03  1809   0.107E-01
    607 T=   945. E= -.41947060E+02 F= -.43231713E+02 E0= -.43182320E+02  EK= 0.42775E+01 SP= -.31E+01 SK= 0.63E-01 mag=      0.710
       N       E                     dE             d eps       ncg     rms          rms(c)
DAV:   1    -0.431543101304E+02    0.75696E-01   -0.64069E-02  3832   0.134E+00    0.284E-01
RMM:   2    -0.431637656202E+02   -0.94555E-02   -0.15813E-02  2060   0.371E-01    0.221E-01
RMM:   3    -0.431722355014E+02   -0.84699E-02   -0.11837E-02  1833   0.196E-01    0.161E-01
RMM:   4    -0.431789800235E+02   -0.67445E-02   -0.14952E-02  1971   0.183E-01    0.667E-02
RMM:   5    -0.431803281184E+02   -0.13481E-02   -0.30023E-03  1886   0.114E-01
    608 T=   905. E= -.41946629E+02 F= -.43180328E+02 E0= -.43127587E+02  EK= 0.40944E+01 SP= -.29E+01 SK= 0.81E-01 mag=      0.170
       N       E                     dE             d eps       ncg     rms          rms(c)
DAV:   1    -0.431097395105E+02    0.69241E-01   -0.63177E-02  3504   0.120E+00    0.238E-01
RMM:   2    -0.431150893662E+02   -0.53499E-02   -0.12160E-02  1875   0.288E-01    0.186E-01
RMM:   3    -0.431206674377E+02   -0.55781E-02   -0.75747E-03  1825   0.152E-01    0.140E-01
RMM:   4    -0.431233607514E+02   -0.26933E-02   -0.24131E-03  1826   0.932E-02    0.104E-01
RMM:   5    -0.431261433129E+02   -0.27826E-02   -0.33026E-03  1941   0.889E-02    0.624E-02
RMM:   6    -0.431276048757E+02   -0.14616E-02   -0.36116E-03  1938   0.919E-02
    609 T=   863. E= -.41944442E+02 F= -.43127605E+02 E0= -.43074988E+02  EK= 0.39046E+01 SP= -.28E+01 SK= 0.94E-01 mag=     -0.101
       N       E                     dE             d eps       ncg     rms          rms(c)
DAV:   1    -0.430766916408E+02    0.49452E-01   -0.32108E-02  3752   0.119E+00    0.767E-02
RMM:   2    -0.430776677659E+02   -0.97613E-03   -0.55914E-03  2006   0.280E-01
    610 T=   822. E= -.41939207E+02 F= -.43077668E+02 E0= -.43024954E+02  EK= 0.37197E+01 SP= -.27E+01 SK= 0.10E+00 mag=     -0.093
       N       E                     dE             d eps       ncg     rms          rms(c)
DAV:   1    -0.430313489183E+02    0.45343E-01   -0.33228E-02  4016   0.112E+00    0.764E-02
RMM:   2    -0.430326651377E+02   -0.13162E-02   -0.63021E-03  2027   0.293E-01
    611 T=   783. E= -.41935610E+02 F= -.43032665E+02 E0= -.42980002E+02  EK= 0.35423E+01 SP= -.25E+01 SK= 0.10E+00 mag=      0.159
       N       E                     dE             d eps       ncg     rms          rms(c)
DAV:   1    -0.429918041113E+02    0.39545E-01   -0.17624E-02  3376   0.105E+00    0.913E-02
RMM:   2    -0.429932179004E+02   -0.14138E-02   -0.55887E-03  2001   0.276E-01
    612 T=   747. E= -.41931743E+02 F= -.42993218E+02 E0= -.42942106E+02  EK= 0.33788E+01 SP= -.24E+01 SK= 0.96E-01 mag=      0.534
       N       E                     dE             d eps       ncg     rms          rms(c)
DAV:   1    -0.429578388169E+02    0.33965E-01   -0.21262E-02  3536   0.108E+00    0.106E-01
RMM:   2    -0.429596936561E+02   -0.18548E-02   -0.58991E-03  1978   0.269E-01    0.913E-02
RMM:   3    -0.429607486633E+02   -0.10550E-02   -0.20497E-03  1901   0.107E-01
    613 T=   715. E= -.41925982E+02 F= -.42960749E+02 E0= -.42911356E+02  EK= 0.32352E+01 SP= -.23E+01 SK= 0.85E-01 mag=      0.509
       N       E                     dE             d eps       ncg     rms          rms(c)
DAV:   1    -0.429375325913E+02    0.22161E-01   -0.34683E-02  3328   0.104E+00    0.896E-02
RMM:   2    -0.429386837228E+02   -0.11511E-02   -0.55819E-03  1951   0.288E-01
    614 T=   688. E= -.41921060E+02 F= -.42938684E+02 E0= -.42886160E+02  EK= 0.31142E+01 SP= -.22E+01 SK= 0.70E-01 mag=      0.063
       N       E                     dE             d eps       ncg     rms          rms(c)
DAV:   1    -0.429165097815E+02    0.21023E-01   -0.52643E-02  3824   0.106E+00    0.127E-01
RMM:   2    -0.429187538869E+02   -0.22441E-02   -0.68509E-03  1993   0.258E-01    0.104E-01
RMM:   3    -0.429202268469E+02   -0.14730E-02   -0.22497E-03  1917   0.103E-01
    615 T=   666. E= -.41912990E+02 F= -.42920227E+02 E0= -.42869460E+02  EK= 0.30141E+01 SP= -.21E+01 SK= 0.54E-01 mag=     -0.406
       N       E                     dE             d eps       ncg     rms          rms(c)
DAV:   1    -0.429092953725E+02    0.94585E-02   -0.23514E-02  3288   0.951E-01    0.131E-01
RMM:   2    -0.429111672357E+02   -0.18719E-02   -0.59851E-03  1897   0.269E-01    0.101E-01
RMM:   3    -0.429121583680E+02   -0.99113E-03   -0.17428E-03  1827   0.105E-01
    616 T=   648. E= -.41911032E+02 F= -.42912158E+02 E0= -.42862088E+02  EK= 0.29331E+01 SP= -.20E+01 SK= 0.38E-01 mag=     -0.501
       N       E                     dE             d eps       ncg     rms          rms(c)
DAV:   1    -0.429122722974E+02   -0.11051E-02   -0.36152E-02  3328   0.986E-01    0.114E-01
RMM:   2    -0.429136956733E+02   -0.14234E-02   -0.57379E-03  2005   0.269E-01
    617 T=   636. E= -.41907705E+02 F= -.42913696E+02 E0= -.42861438E+02  EK= 0.28785E+01 SP= -.19E+01 SK= 0.23E-01 mag=     -0.183
       N       E                     dE             d eps       ncg     rms          rms(c)
DAV:   1    -0.429200386010E+02   -0.77663E-02   -0.40538E-02  3488   0.997E-01    0.119E-01
RMM:   2    -0.429216772154E+02   -0.16386E-02   -0.59283E-03  2019   0.265E-01
    618 T=   629. E= -.41902470E+02 F= -.42921677E+02 E0= -.42870387E+02  EK= 0.28476E+01 SP= -.18E+01 SK= 0.12E-01 mag=      0.440
       N       E                     dE             d eps       ncg     rms          rms(c)
DAV:   1    -0.429301829320E+02   -0.10144E-01   -0.21330E-02  3296   0.936E-01    0.162E-01
RMM:   2    -0.429337971524E+02   -0.36142E-02   -0.85349E-03  1973   0.281E-01    0.136E-01
RMM:   3    -0.429367000629E+02   -0.29029E-02   -0.44173E-03  1835   0.127E-01    0.105E-01
RMM:   4    -0.429400177294E+02   -0.33177E-02   -0.62037E-03  2019   0.115E-01    0.579E-02
RMM:   5    -0.429410353844E+02   -0.10177E-02   -0.22357E-03  1879   0.765E-02
    619 T=   627. E= -.41903220E+02 F= -.42941035E+02 E0= -.42889089E+02  EK= 0.28374E+01 SP= -.18E+01 SK= 0.41E-02 mag=      0.109
       N       E                     dE             d eps       ncg     rms          rms(c)
DAV:   1    -0.429500812568E+02   -0.10064E-01   -0.59949E-02  3376   0.982E-01    0.206E-01
RMM:   2    -0.429554098480E+02   -0.53286E-02   -0.91624E-03  1904   0.247E-01    0.172E-01
RMM:   3    -0.429604830787E+02   -0.50732E-02   -0.55901E-03  1824   0.112E-01    0.121E-01
RMM:   4    -0.429645216811E+02   -0.40386E-02   -0.50688E-03  1881   0.104E-01    0.692E-02
RMM:   5    -0.429657114678E+02   -0.11898E-02   -0.20843E-03  1867   0.722E-02
    620 T=   630. E= -.41902002E+02 F= -.42965711E+02 E0= -.42913898E+02  EK= 0.28497E+01 SP= -.18E+01 SK= 0.34E-03 mag=     -0.205
       N       E                     dE             d eps       ncg     rms          rms(c)
DAV:   1    -0.429919359156E+02   -0.27414E-01   -0.33322E-02  3232   0.959E-01    0.131E-01
RMM:   2    -0.429941005162E+02   -0.21646E-02   -0.67342E-03  1970   0.264E-01    0.106E-01
RMM:   3    -0.429960075198E+02   -0.19070E-02   -0.25669E-03  1842   0.116E-01    0.805E-02
RMM:   4    -0.429975199513E+02   -0.15124E-02   -0.19708E-03  1825   0.843E-02
    621 T=   638. E= -.41900645E+02 F= -.42997520E+02 E0= -.42945578E+02  EK= 0.28842E+01 SP= -.18E+01 SK= 0.64E-03 mag=     -0.205
       N       E                     dE             d eps       ncg     rms          rms(c)
DAV:   1    -0.430348962065E+02   -0.38889E-01   -0.18633E-02  3200   0.947E-01    0.720E-02
RMM:   2    -0.430356418189E+02   -0.74561E-03   -0.40825E-03  1978   0.232E-01
    622 T=   650. E= -.41897552E+02 F= -.43035642E+02 E0= -.42983507E+02  EK= 0.29414E+01 SP= -.18E+01 SK= 0.44E-02 mag=      0.081
       N       E                     dE             d eps       ncg     rms          rms(c)
DAV:   1    -0.430758753674E+02   -0.40979E-01   -0.20403E-02  3344   0.982E-01    0.788E-02
RMM:   2    -0.430770216559E+02   -0.11463E-02   -0.53799E-03  2027   0.263E-01
    623 T=   667. E= -.41892216E+02 F= -.43077022E+02 E0= -.43026450E+02  EK= 0.30183E+01 SP= -.18E+01 SK= 0.11E-01 mag=      0.529
       N       E                     dE             d eps       ncg     rms          rms(c)
DAV:   1    -0.431176542689E+02   -0.41779E-01   -0.15212E-02  3152   0.101E+00    0.134E-01
RMM:   2    -0.431201999340E+02   -0.25457E-02   -0.60818E-03  2026   0.269E-01    0.117E-01
RMM:   3    -0.431228259839E+02   -0.26260E-02   -0.38088E-03  1827   0.130E-01    0.827E-02
RMM:   4    -0.431248429907E+02   -0.20170E-02   -0.33298E-03  1863   0.108E-01    0.485E-02
RMM:   5    -0.431255414928E+02   -0.69850E-03   -0.14393E-03  1813   0.702E-02
    624 T=   687. E= -.41892679E+02 F= -.43125541E+02 E0= -.43073720E+02  EK= 0.31099E+01 SP= -.19E+01 SK= 0.19E-01 mag=      0.079
       N       E                     dE             d eps       ncg     rms          rms(c)
DAV:   1    -0.431648195624E+02   -0.39977E-01   -0.29402E-02  3232   0.104E+00    0.166E-01
RMM:   2    -0.431680579677E+02   -0.32384E-02   -0.56383E-03  1911   0.241E-01    0.141E-01
RMM:   3    -0.431708751394E+02   -0.28172E-02   -0.27168E-03  1828   0.103E-01    0.105E-01
RMM:   4    -0.431733284966E+02   -0.24534E-02   -0.22988E-03  1857   0.853E-02    0.722E-02
RMM:   5    -0.431748473440E+02   -0.15188E-02   -0.25565E-03  1873   0.765E-02
    625 T=   711. E= -.41891877E+02 F= -.43174847E+02 E0= -.43123384E+02  EK= 0.32160E+01 SP= -.20E+01 SK= 0.27E-01 mag=     -0.114
       N       E                     dE             d eps       ncg     rms          rms(c)
DAV:   1    -0.432245788707E+02   -0.51250E-01   -0.30609E-02  3352   0.106E+00    0.619E-02
RMM:   2    -0.432255734866E+02   -0.99462E-03   -0.57438E-03  2032   0.285E-01
    626 T=   737. E= -.41889488E+02 F= -.43225573E+02 E0= -.43173695E+02  EK= 0.33361E+01 SP= -.20E+01 SK= 0.34E-01 mag=     -0.042
       N       E                     dE             d eps       ncg     rms          rms(c)
DAV:   1    -0.432736579440E+02   -0.49079E-01   -0.31540E-02  3648   0.112E+00    0.703E-02
RMM:   2    -0.432751011568E+02   -0.14432E-02   -0.69498E-03  2050   0.304E-01
    627 T=   766. E= -.41887761E+02 F= -.43275101E+02 E0= -.43223601E+02  EK= 0.34634E+01 SP= -.21E+01 SK= 0.38E-01 mag=      0.238
       N       E                     dE             d eps       ncg     rms          rms(c)
DAV:   1    -0.433200629319E+02   -0.46405E-01   -0.17443E-02  2960   0.109E+00    0.102E-01
RMM:   2    -0.433217265804E+02   -0.16636E-02   -0.63321E-03  2055   0.298E-01
    628 T=   795. E= -.41884617E+02 F= -.43321727E+02 E0= -.43271700E+02  EK= 0.35958E+01 SP= -.22E+01 SK= 0.40E-01 mag=      0.500
       N       E                     dE             d eps       ncg     rms          rms(c)
DAV:   1    -0.433646575073E+02   -0.44595E-01   -0.30897E-02  3696   0.125E+00    0.880E-02
RMM:   2    -0.433663640888E+02   -0.17066E-02   -0.72409E-03  2011   0.308E-01
    629 T=   825. E= -.41880427E+02 F= -.43366364E+02 E0= -.43316448E+02  EK= 0.37309E+01 SP= -.23E+01 SK= 0.39E-01 mag=      0.599
       N       E                     dE             d eps       ncg     rms          rms(c)
DAV:   1    -0.434039644595E+02   -0.39307E-01   -0.19775E-02  3400   0.113E+00    0.856E-02
RMM:   2    -0.434057406035E+02   -0.17761E-02   -0.72443E-03  2050   0.304E-01
    630 T=   853. E= -.41876884E+02 F= -.43405741E+02 E0= -.43354893E+02  EK= 0.38604E+01 SP= -.24E+01 SK= 0.36E-01 mag=      0.376
       N       E                     dE             d eps       ncg     rms          rms(c)
DAV:   1    -0.434377534158E+02   -0.33789E-01   -0.26482E-02  3472   0.124E+00    0.849E-02
RMM:   2    -0.434392251518E+02   -0.14717E-02   -0.71760E-03  2095   0.308E-01
    631 T=   880. E= -.41873600E+02 F= -.43439225E+02 E0= -.43387760E+02  EK= 0.39801E+01 SP= -.24E+01 SK= 0.29E-01 mag=     -0.145
       N       E                     dE             d eps       ncg     rms          rms(c)
DAV:   1    -0.434588620579E+02   -0.21109E-01   -0.30810E-02  3568   0.120E+00    0.119E-01
RMM:   2    -0.434614447321E+02   -0.25827E-02   -0.80924E-03  2094   0.322E-01    0.103E-01
RMM:   3    -0.434629864141E+02   -0.15417E-02   -0.29735E-03  1920   0.128E-01
    632 T=   903. E= -.41869259E+02 F= -.43462986E+02 E0= -.43413402E+02  EK= 0.40836E+01 SP= -.25E+01 SK= 0.22E-01 mag=     -0.444
       N       E                     dE             d eps       ncg     rms          rms(c)
DAV:   1    -0.434789664765E+02   -0.17522E-01   -0.37862E-02  3472   0.124E+00    0.107E-01
RMM:   2    -0.434806341812E+02   -0.16677E-02   -0.66190E-03  2006   0.298E-01
    633 T=   922. E= -.41864019E+02 F= -.43480634E+02 E0= -.43429855E+02  EK= 0.41705E+01 SP= -.26E+01 SK= 0.14E-01 mag=     -0.342
       N       E                     dE             d eps       ncg     rms          rms(c)
DAV:   1    -0.434845367514E+02   -0.55703E-02   -0.51506E-02  4016   0.134E+00    0.105E-01
RMM:   2    -0.434868146414E+02   -0.22779E-02   -0.81296E-03  2097   0.296E-01    0.853E-02
RMM:   3    -0.434878409183E+02   -0.10263E-02   -0.23365E-03  1934   0.115E-01
    634 T=   936. E= -.41858384E+02 F= -.43487841E+02 E0= -.43436492E+02  EK= 0.42329E+01 SP= -.26E+01 SK= 0.69E-02 mag=      0.118
       N       E                     dE             d eps       ncg     rms          rms(c)
DAV:   1    -0.434806609115E+02    0.61537E-02   -0.32192E-02  3416   0.121E+00    0.145E-01
RMM:   2    -0.434829078869E+02   -0.22470E-02   -0.60982E-03  2018   0.296E-01    0.103E-01
RMM:   3    -0.434840473097E+02   -0.11394E-02   -0.19521E-03  1848   0.121E-01
    635 T=   943. E= -.41854674E+02 F= -.43484047E+02 E0= -.43434142E+02  EK= 0.42651E+01 SP= -.26E+01 SK= 0.22E-02 mag=      0.433
       N       E                     dE             d eps       ncg     rms          rms(c)
DAV:   1    -0.434698804640E+02    0.13027E-01   -0.53055E-02  3752   0.131E+00    0.119E-01
RMM:   2    -0.434716896960E+02   -0.18092E-02   -0.68606E-03  2084   0.310E-01    0.850E-02
RMM:   3    -0.434726107074E+02   -0.92101E-03   -0.20896E-03  1973   0.115E-01
    636 T=   944. E= -.41851242E+02 F= -.43472611E+02 E0= -.43421580E+02  EK= 0.42708E+01 SP= -.26E+01 SK= 0.72E-04 mag=      0.251
       N       E                     dE             d eps       ncg     rms          rms(c)
DAV:   1    -0.434501298750E+02    0.21560E-01   -0.32948E-02  3800   0.125E+00    0.808E-02
RMM:   2    -0.434514108595E+02   -0.12810E-02   -0.54904E-03  2061   0.269E-01
    637 T=   939. E= -.41846671E+02 F= -.43451411E+02 E0= -.43400383E+02  EK= 0.42489E+01 SP= -.26E+01 SK= 0.84E-03 mag=     -0.313
       N       E                     dE             d eps       ncg     rms          rms(c)
DAV:   1    -0.434120204480E+02    0.38109E-01   -0.46777E-02  4080   0.129E+00    0.168E-01
RMM:   2    -0.434155354034E+02   -0.35150E-02   -0.83830E-03  2106   0.294E-01    0.134E-01
RMM:   3    -0.434188146597E+02   -0.32793E-02   -0.44817E-03  1858   0.136E-01    0.106E-01
RMM:   4    -0.434215280515E+02   -0.27134E-02   -0.44908E-03  1919   0.110E-01    0.487E-02
RMM:   5    -0.434222047908E+02   -0.67674E-03   -0.17326E-03  1876   0.776E-02
    638 T=   928. E= -.41844221E+02 F= -.43422205E+02 E0= -.43370678E+02  EK= 0.41989E+01 SP= -.26E+01 SK= 0.41E-02 mag=     -0.042
       N       E                     dE             d eps       ncg     rms          rms(c)
DAV:   1    -0.433767184076E+02    0.44810E-01   -0.38801E-02  3592   0.119E+00    0.152E-01
RMM:   2    -0.433796046514E+02   -0.28862E-02   -0.62802E-03  1970   0.263E-01    0.119E-01
RMM:   3    -0.433817598869E+02   -0.21552E-02   -0.30506E-03  1824   0.110E-01    0.986E-02
RMM:   4    -0.433839433069E+02   -0.21834E-02   -0.33070E-03  1901   0.889E-02    0.536E-02
RMM:   5    -0.433847009669E+02   -0.75766E-03   -0.15630E-03  1844   0.687E-02
    639 T=   911. E= -.41842616E+02 F= -.43384701E+02 E0= -.43333093E+02  EK= 0.41237E+01 SP= -.26E+01 SK= 0.92E-02 mag=      0.074
       N       E                     dE             d eps       ncg     rms          rms(c)
DAV:   1    -0.433386204561E+02    0.45323E-01   -0.30435E-02  3624   0.116E+00    0.616E-02
RMM:   2    -0.433400017082E+02   -0.13813E-02   -0.56709E-03  2051   0.261E-01
    640 T=   891. E= -.41838380E+02 F= -.43340002E+02 E0= -.43288265E+02  EK= 0.40307E+01 SP= -.25E+01 SK= 0.15E-01 mag=      0.030
       N       E                     dE             d eps       ncg     rms          rms(c)
DAV:   1    -0.432896375662E+02    0.48983E-01   -0.33622E-02  4096   0.121E+00    0.569E-02
RMM:   2    -0.432909982594E+02   -0.13607E-02   -0.56694E-03  2054   0.254E-01
    641 T=   867. E= -.41836991E+02 F= -.43290998E+02 E0= -.43239182E+02  EK= 0.39207E+01 SP= -.25E+01 SK= 0.21E-01 mag=     -0.126
       N       E                     dE             d eps       ncg     rms          rms(c)
DAV:   1    -0.432370080314E+02    0.52630E-01   -0.24332E-02  2952   0.110E+00    0.605E-02
RMM:   2    -0.432384610469E+02   -0.14530E-02   -0.65892E-03  2082   0.294E-01
    642 T=   841. E= -.41833341E+02 F= -.43238461E+02 E0= -.43186731E+02  EK= 0.38032E+01 SP= -.24E+01 SK= 0.25E-01 mag=     -0.277
       N       E                     dE             d eps       ncg     rms          rms(c)
DAV:   1    -0.431822341350E+02    0.54774E-01   -0.38914E-02  3776   0.119E+00    0.693E-02
RMM:   2    -0.431837738578E+02   -0.15397E-02   -0.69428E-03  2077   0.290E-01
    643 T=   814. E= -.41826236E+02 F= -.43183774E+02 E0= -.43132035E+02  EK= 0.36845E+01 SP= -.24E+01 SK= 0.27E-01 mag=     -0.324
       N       E                     dE             d eps       ncg     rms          rms(c)
DAV:   1    -0.431269753633E+02    0.55259E-01   -0.23734E-02  3520   0.106E+00    0.708E-02
RMM:   2    -0.431286775142E+02   -0.17022E-02   -0.66934E-03  2063   0.289E-01
    644 T=   788. E= -.41820639E+02 F= -.43128678E+02 E0= -.43076600E+02  EK= 0.35645E+01 SP= -.23E+01 SK= 0.27E-01 mag=     -0.193
       N       E                     dE             d eps       ncg     rms          rms(c)
DAV:   1    -0.430744591491E+02    0.52516E-01   -0.27701E-02  3456   0.112E+00    0.602E-02
RMM:   2    -0.430757388572E+02   -0.12797E-02   -0.62156E-03  2078   0.291E-01
    645 T=   763. E= -.41815564E+02 F= -.43075739E+02 E0= -.43023223E+02  EK= 0.34496E+01 SP= -.22E+01 SK= 0.25E-01 mag=      0.082
       N       E                     dE             d eps       ncg     rms          rms(c)
DAV:   1    -0.430222406813E+02    0.52218E-01   -0.28571E-02  3416   0.102E+00    0.704E-02
RMM:   2    -0.430238495098E+02   -0.16088E-02   -0.68462E-03  2061   0.289E-01
    646 T=   739. E= -.41809320E+02 F= -.43023850E+02 E0= -.42971644E+02  EK= 0.33431E+01 SP= -.21E+01 SK= 0.21E-01 mag=      0.350
       N       E                     dE             d eps       ncg     rms          rms(c)
DAV:   1    -0.429727894575E+02    0.49451E-01   -0.24530E-02  3424   0.106E+00    0.993E-02
RMM:   2    -0.429747509521E+02   -0.19615E-02   -0.71686E-03  2073   0.281E-01    0.841E-02
RMM:   3    -0.429755322144E+02   -0.78126E-03   -0.19724E-03  1918   0.109E-01
    647 T=   718. E= -.41804597E+02 F= -.42975532E+02 E0= -.42923322E+02  EK= 0.32466E+01 SP= -.21E+01 SK= 0.16E-01 mag=      0.146
       N       E                     dE             d eps       ncg     rms          rms(c)
DAV:   1    -0.429296234328E+02    0.45128E-01   -0.42430E-02  3280   0.103E+00    0.963E-02
RMM:   2    -0.429321256355E+02   -0.25022E-02   -0.68706E-03  1987   0.281E-01    0.782E-02
RMM:   3    -0.429326452527E+02   -0.51962E-03   -0.16021E-03  1787   0.953E-02
    648 T=   699. E= -.41800616E+02 F= -.42932645E+02 E0= -.42879989E+02  EK= 0.31643E+01 SP= -.20E+01 SK= 0.10E-01 mag=     -0.277
       N       E                     dE             d eps       ncg     rms          rms(c)
DAV:   1    -0.428889662197E+02    0.43159E-01   -0.86019E-02  3544   0.106E+00    0.149E-01
RMM:   2    -0.428913838623E+02   -0.24176E-02   -0.75369E-03  2060   0.293E-01    0.111E-01
RMM:   3    -0.428927664275E+02   -0.13826E-02   -0.18303E-03  1982   0.109E-01
    649 T=   685. E= -.41794810E+02 F= -.42892766E+02 E0= -.42840569E+02  EK= 0.30976E+01 SP= -.20E+01 SK= 0.54E-02 mag=     -0.302
       N       E                     dE             d eps       ncg     rms          rms(c)
DAV:   1    -0.428607771375E+02    0.30607E-01   -0.46489E-02  3304   0.102E+00    0.868E-02
RMM:   2    -0.428622625166E+02   -0.14854E-02   -0.63200E-03  2020   0.257E-01
    650 T=   674. E= -.41792811E+02 F= -.42862263E+02 E0= -.42808693E+02  EK= 0.30480E+01 SP= -.20E+01 SK= 0.18E-02 mag=      0.042
       N       E                     dE             d eps       ncg     rms          rms(c)
DAV:   1    -0.428317808461E+02    0.28996E-01   -0.49169E-02  3696   0.102E+00    0.114E-01
RMM:   2    -0.428335857803E+02   -0.18049E-02   -0.70269E-03  2044   0.270E-01    0.893E-02
RMM:   3    -0.428350686110E+02   -0.14828E-02   -0.21959E-03  1983   0.110E-01
    651 T=   667. E= -.41788789E+02 F= -.42835069E+02 E0= -.42781901E+02  EK= 0.30159E+01 SP= -.20E+01 SK= 0.58E-04 mag=      0.201
       N       E                     dE             d eps       ncg     rms          rms(c)
DAV:   1    -0.428147464284E+02    0.18839E-01   -0.25372E-02  3248   0.960E-01    0.102E-01
RMM:   2    -0.428159187615E+02   -0.11723E-02   -0.51509E-03  1922   0.245E-01
    652 T=   664. E= -.41785192E+02 F= -.42815919E+02 E0= -.42762234E+02  EK= 0.30038E+01 SP= -.20E+01 SK= 0.78E-03 mag=      0.152
       N       E                     dE             d eps       ncg     rms          rms(c)
DAV:   1    -0.428002527395E+02    0.14494E-01   -0.32328E-02  3728   0.102E+00    0.968E-02
RMM:   2    -0.428018440026E+02   -0.15913E-02   -0.52541E-03  2036   0.231E-01
    653 T=   666. E= -.41779869E+02 F= -.42801844E+02 E0= -.42747808E+02  EK= 0.30112E+01 SP= -.20E+01 SK= 0.41E-02 mag=     -0.043
       N       E                     dE             d eps       ncg     rms          rms(c)
DAV:   1    -0.427939300074E+02    0.63227E-02   -0.13033E-02  2888   0.942E-01    0.992E-02
RMM:   2    -0.427952999424E+02   -0.13699E-02   -0.53796E-03  2036   0.271E-01
    654 T=   671. E= -.41777384E+02 F= -.42795300E+02 E0= -.42741364E+02  EK= 0.30360E+01 SP= -.20E+01 SK= 0.97E-02 mag=     -0.242
       N       E                     dE             d eps       ncg     rms          rms(c)
DAV:   1    -0.427932523170E+02    0.67769E-03   -0.29806E-02  3816   0.109E+00    0.778E-02
RMM:   2    -0.427947250878E+02   -0.14728E-02   -0.72611E-03  2021   0.284E-01
    655 T=   681. E= -.41774764E+02 F= -.42794725E+02 E0= -.42740992E+02  EK= 0.30793E+01 SP= -.21E+01 SK= 0.17E-01 mag=     -0.367
       N       E                     dE             d eps       ncg     rms          rms(c)
DAV:   1    -0.427946435282E+02   -0.13912E-02   -0.23642E-02  3384   0.968E-01    0.123E-01
RMM:   2    -0.427971336261E+02   -0.24901E-02   -0.82706E-03  2019   0.306E-01    0.102E-01
RMM:   3    -0.427989059754E+02   -0.17723E-02   -0.32563E-03  1921   0.121E-01
    656 T=   694. E= -.41771896E+02 F= -.42798906E+02 E0= -.42744936E+02  EK= 0.31398E+01 SP= -.21E+01 SK= 0.26E-01 mag=     -0.191
       N       E                     dE             d eps       ncg     rms          rms(c)
DAV:   1    -0.428089805397E+02   -0.11847E-01   -0.30863E-02  3368   0.105E+00    0.994E-02
RMM:   2    -0.428107389323E+02   -0.17584E-02   -0.55371E-03  1929   0.272E-01
    657 T=   712. E= -.41768101E+02 F= -.42810739E+02 E0= -.42756547E+02  EK= 0.32206E+01 SP= -.22E+01 SK= 0.35E-01 mag=      0.234
       N       E                     dE             d eps       ncg     rms          rms(c)
DAV:   1    -0.428174167065E+02   -0.84362E-02   -0.55045E-02  3680   0.112E+00    0.158E-01
RMM:   2    -0.428208694204E+02   -0.34527E-02   -0.86664E-03  2082   0.288E-01    0.134E-01
RMM:   3    -0.428238243497E+02   -0.29549E-02   -0.33433E-03  1896   0.122E-01    0.105E-01
RMM:   4    -0.428270995227E+02   -0.32752E-02   -0.52316E-03  1972   0.111E-01    0.427E-02
RMM:   5    -0.428274826725E+02   -0.38315E-03   -0.87313E-04  1659   0.660E-02
    658 T=   733. E= -.41765721E+02 F= -.42827483E+02 E0= -.42772997E+02  EK= 0.33154E+01 SP= -.23E+01 SK= 0.43E-01 mag=      0.084
       N       E                     dE             d eps       ncg     rms          rms(c)
DAV:   1    -0.428382006906E+02   -0.11101E-01   -0.28130E-02  3368   0.105E+00    0.152E-01
RMM:   2    -0.428415502712E+02   -0.33496E-02   -0.99488E-03  1958   0.263E-01    0.125E-01
RMM:   3    -0.428438914475E+02   -0.23412E-02   -0.35300E-03  1824   0.109E-01    0.980E-02
RMM:   4    -0.428462759928E+02   -0.23845E-02   -0.37526E-03  1855   0.899E-02    0.559E-02
RMM:   5    -0.428467821707E+02   -0.50618E-03   -0.60076E-04  1596   0.546E-02
    659 T=   756. E= -.41765416E+02 F= -.42846782E+02 E0= -.42792435E+02  EK= 0.34201E+01 SP= -.24E+01 SK= 0.49E-01 mag=     -0.128
       N       E                     dE             d eps       ncg     rms          rms(c)
DAV:   1    -0.428679274763E+02   -0.21651E-01   -0.20184E-02  3480   0.106E+00    0.824E-02
RMM:   2    -0.428690687161E+02   -0.11412E-02   -0.48820E-03  2043   0.259E-01
    660 T=   782. E= -.41761975E+02 F= -.42869069E+02 E0= -.42814868E+02  EK= 0.35383E+01 SP= -.25E+01 SK= 0.53E-01 mag=     -0.266
       N       E                     dE             d eps       ncg     rms          rms(c)
DAV:   1    -0.428925737172E+02   -0.24646E-01   -0.19896E-02  3576   0.113E+00    0.844E-02
RMM:   2    -0.428942122079E+02   -0.16385E-02   -0.71179E-03  2046   0.282E-01
    661 T=   810. E= -.41759639E+02 F= -.42894212E+02 E0= -.42840100E+02  EK= 0.36636E+01 SP= -.26E+01 SK= 0.53E-01 mag=     -0.235
       N       E                     dE             d eps       ncg     rms          rms(c)
DAV:   1    -0.429204671702E+02   -0.27893E-01   -0.15060E-02  3368   0.109E+00    0.710E-02
RMM:   2    -0.429218152019E+02   -0.13480E-02   -0.60556E-03  2032   0.286E-01
    662 T=   838. E= -.41757620E+02 F= -.42921815E+02 E0= -.42867798E+02  EK= 0.37932E+01 SP= -.27E+01 SK= 0.51E-01 mag=     -0.012
       N       E                     dE             d eps       ncg     rms          rms(c)
DAV:   1    -0.429487640046E+02   -0.28297E-01   -0.26174E-02  3584   0.119E+00    0.794E-02
RMM:   2    -0.429501883193E+02   -0.14243E-02   -0.67497E-03  2039   0.294E-01
    663 T=   868. E= -.41753254E+02 F= -.42950188E+02 E0= -.42896701E+02  EK= 0.39249E+01 SP= -.28E+01 SK= 0.45E-01 mag=      0.306
       N       E                     dE             d eps       ncg     rms          rms(c)
DAV:   1    -0.429756085846E+02   -0.26845E-01   -0.16400E-02  3112   0.111E+00    0.968E-02
RMM:   2    -0.429776030563E+02   -0.19945E-02   -0.74016E-03  2053   0.314E-01    0.797E-02
RMM:   3    -0.429788133751E+02   -0.12103E-02   -0.27150E-03  1907   0.126E-01
    664 T=   895. E= -.41750243E+02 F= -.42978813E+02 E0= -.42925906E+02  EK= 0.40505E+01 SP= -.29E+01 SK= 0.36E-01 mag=      0.195
       N       E                     dE             d eps       ncg     rms          rms(c)
DAV:   1    -0.430048068372E+02   -0.27204E-01   -0.27149E-02  3440   0.122E+00    0.106E-01
RMM:   2    -0.430069808759E+02   -0.21740E-02   -0.57272E-03  1980   0.310E-01    0.720E-02
RMM:   3    -0.430077629741E+02   -0.78210E-03   -0.17748E-03  1813   0.110E-01
    665 T=   921. E= -.41745962E+02 F= -.43007763E+02 E0= -.42954830E+02  EK= 0.41685E+01 SP= -.29E+01 SK= 0.26E-01 mag=     -0.115
       N       E                     dE             d eps       ncg     rms          rms(c)
DAV:   1    -0.430311194611E+02   -0.24139E-01   -0.39456E-02  3696   0.117E+00    0.907E-02
RMM:   2    -0.430329814673E+02   -0.18620E-02   -0.64512E-03  2002   0.267E-01    0.703E-02
RMM:   3    -0.430338934598E+02   -0.91199E-03   -0.19651E-03  1858   0.110E-01
    666 T=   944. E= -.41740503E+02 F= -.43033893E+02 E0= -.42982007E+02  EK= 0.42713E+01 SP= -.30E+01 SK= 0.16E-01 mag=     -0.330
       N       E                     dE             d eps       ncg     rms          rms(c)
DAV:   1    -0.430574413216E+02   -0.24460E-01   -0.31361E-02  3432   0.123E+00    0.758E-02
RMM:   2    -0.430588418004E+02   -0.14005E-02   -0.59342E-03  2028   0.289E-01
    667 T=   962. E= -.41736137E+02 F= -.43058842E+02 E0= -.43007275E+02  EK= 0.43542E+01 SP= -.30E+01 SK= 0.73E-02 mag=     -0.324
       N       E                     dE             d eps       ncg     rms          rms(c)
DAV:   1    -0.430802027714E+02   -0.22761E-01   -0.29987E-02  3896   0.121E+00    0.499E-02
RMM:   2    -0.430815777175E+02   -0.13749E-02   -0.63091E-03  2030   0.269E-01
    668 T=   975. E= -.41733485E+02 F= -.43081578E+02 E0= -.43030210E+02  EK= 0.44122E+01 SP= -.31E+01 SK= 0.17E-02 mag=     -0.072
       N       E                     dE             d eps       ncg     rms          rms(c)
DAV:   1    -0.430986780931E+02   -0.18475E-01   -0.15951E-02  3096   0.119E+00    0.762E-02
RMM:   2    -0.431004016707E+02   -0.17236E-02   -0.67503E-03  2047   0.305E-01
    669 T=   983. E= -.41728154E+02 F= -.43100402E+02 E0= -.43050027E+02  EK= 0.44453E+01 SP= -.31E+01 SK= 0.43E-04 mag=      0.314
       N       E                     dE             d eps       ncg     rms          rms(c)
DAV:   1    -0.431133893623E+02   -0.14711E-01   -0.30974E-02  3872   0.125E+00    0.111E-01
RMM:   2    -0.431156834630E+02   -0.22941E-02   -0.72495E-03  2052   0.311E-01    0.924E-02
RMM:   3    -0.431166700698E+02   -0.98661E-03   -0.20920E-03  1916   0.117E-01
    670 T=   984. E= -.41721442E+02 F= -.43116670E+02 E0= -.43067614E+02  EK= 0.44524E+01 SP= -.31E+01 SK= 0.30E-02 mag=      0.208
       N       E                     dE             d eps       ncg     rms          rms(c)
DAV:   1    -0.431295452893E+02   -0.13862E-01   -0.37904E-02  3336   0.116E+00    0.960E-02
RMM:   2    -0.431318720547E+02   -0.23268E-02   -0.72853E-03  2001   0.299E-01    0.756E-02
RMM:   3    -0.431322767661E+02   -0.40471E-03   -0.14768E-03  1733   0.104E-01
    671 T=   979. E= -.41717767E+02 F= -.43132277E+02 E0= -.43083124E+02  EK= 0.44306E+01 SP= -.30E+01 SK= 0.11E-01 mag=     -0.188
       N       E                     dE             d eps       ncg     rms          rms(c)
DAV:   1    -0.431374926246E+02   -0.56206E-02   -0.63922E-02  3640   0.122E+00    0.141E-01
RMM:   2    -0.431402294626E+02   -0.27368E-02   -0.88562E-03  2077   0.306E-01    0.107E-01
RMM:   3    -0.431419286290E+02   -0.16992E-02   -0.25458E-03  1943   0.125E-01
    672 T=   969. E= -.41710538E+02 F= -.43141929E+02 E0= -.43094245E+02  EK= 0.43823E+01 SP= -.30E+01 SK= 0.22E-01 mag=     -0.324
       N       E                     dE             d eps       ncg     rms          rms(c)
DAV:   1    -0.431502538857E+02   -0.10024E-01   -0.33772E-02  3528   0.119E+00    0.823E-02
RMM:   2    -0.431518758111E+02   -0.16219E-02   -0.71319E-03  2022   0.294E-01
    673 T=   953. E= -.41706694E+02 F= -.43151876E+02 E0= -.43104074E+02  EK= 0.43094E+01 SP= -.29E+01 SK= 0.37E-01 mag=     -0.145
       N       E                     dE             d eps       ncg     rms          rms(c)
DAV:   1    -0.431534918221E+02   -0.32379E-02   -0.48152E-02  3784   0.120E+00    0.927E-02
RMM:   2    -0.431552854027E+02   -0.17936E-02   -0.82650E-03  2038   0.304E-01
    674 T=   931. E= -.41700646E+02 F= -.43155285E+02 E0= -.43108237E+02  EK= 0.42137E+01 SP= -.28E+01 SK= 0.52E-01 mag=      0.243
       N       E                     dE             d eps       ncg     rms          rms(c)
DAV:   1    -0.431516803886E+02    0.18114E-02   -0.22588E-02  3592   0.114E+00    0.147E-01
RMM:   2    -0.431545100402E+02   -0.28297E-02   -0.81884E-03  2018   0.311E-01    0.120E-01
RMM:   3    -0.431575493572E+02   -0.30393E-02   -0.44095E-03  1892   0.144E-01    0.741E-02
RMM:   4    -0.431589747752E+02   -0.14254E-02   -0.23833E-03  1824   0.101E-01
    675 T=   906. E= -.41699580E+02 F= -.43158975E+02 E0= -.43112537E+02  EK= 0.40991E+01 SP= -.27E+01 SK= 0.68E-01 mag=      0.098
       N       E                     dE             d eps       ncg     rms          rms(c)
DAV:   1    -0.431524068640E+02    0.51425E-02   -0.31737E-02  3616   0.116E+00    0.155E-01
RMM:   2    -0.431551234393E+02   -0.27166E-02   -0.75920E-03  1900   0.271E-01    0.122E-01
RMM:   3    -0.431572497089E+02   -0.21263E-02   -0.29647E-03  1824   0.110E-01    0.903E-02
RMM:   4    -0.431591673319E+02   -0.19176E-02   -0.22996E-03  1825   0.846E-02    0.438E-02
RMM:   5    -0.431594807327E+02   -0.31340E-03   -0.44614E-04  1469   0.487E-02
    676 T=   878. E= -.41696430E+02 F= -.43159481E+02 E0= -.43113514E+02  EK= 0.39737E+01 SP= -.26E+01 SK= 0.81E-01 mag=     -0.053
       N       E                     dE             d eps       ncg     rms          rms(c)
DAV:   1    -0.431562753099E+02    0.28920E-02   -0.21823E-02  3488   0.106E+00    0.674E-02
RMM:   2    -0.431572363780E+02   -0.96107E-03   -0.50233E-03  1935   0.254E-01
    677 T=   849. E= -.41690566E+02 F= -.43157236E+02 E0= -.43111932E+02  EK= 0.38429E+01 SP= -.25E+01 SK= 0.91E-01 mag=     -0.156
       N       E                     dE             d eps       ncg     rms          rms(c)
DAV:   1    -0.431508620590E+02    0.54133E-02   -0.18559E-02  3792   0.113E+00    0.728E-02
RMM:   2    -0.431524791012E+02   -0.16170E-02   -0.81332E-03  2016   0.268E-01
    678 T=   819. E= -.41686559E+02 F= -.43152479E+02 E0= -.43107798E+02  EK= 0.37065E+01 SP= -.23E+01 SK= 0.96E-01 mag=     -0.160
       N       E                     dE             d eps       ncg     rms          rms(c)
DAV:   1    -0.431455517305E+02    0.53103E-02   -0.14937E-02  2960   0.106E+00    0.862E-02
RMM:   2    -0.431469327670E+02   -0.13810E-02   -0.55226E-03  2017   0.281E-01
    679 T=   790. E= -.41682821E+02 F= -.43146933E+02 E0= -.43102723E+02  EK= 0.35718E+01 SP= -.22E+01 SK= 0.97E-01 mag=     -0.034
       N       E                     dE             d eps       ncg     rms          rms(c)
DAV:   1    -0.431400389550E+02    0.55128E-02   -0.25160E-02  3960   0.112E+00    0.703E-02
RMM:   2    -0.431411567868E+02   -0.11178E-02   -0.66712E-03  1989   0.285E-01
    680 T=   761. E= -.41677230E+02 F= -.43141157E+02 E0= -.43097477E+02  EK= 0.34446E+01 SP= -.21E+01 SK= 0.93E-01 mag=      0.176
       N       E                     dE             d eps       ncg     rms          rms(c)
DAV:   1    -0.431312107251E+02    0.88282E-02   -0.13195E-02  2840   0.100E+00    0.831E-02
RMM:   2    -0.431326371158E+02   -0.14264E-02   -0.67590E-03  2003   0.300E-01
    681 T=   735. E= -.41670104E+02 F= -.43132637E+02 E0= -.43089699E+02  EK= 0.33246E+01 SP= -.19E+01 SK= 0.85E-01 mag=      0.349
       N       E                     dE             d eps       ncg     rms          rms(c)
DAV:   1    -0.431207537149E+02    0.10457E-01   -0.16681E-02  3456   0.107E+00    0.108E-01
RMM:   2    -0.431226808042E+02   -0.19271E-02   -0.65623E-03  1986   0.275E-01    0.887E-02
RMM:   3    -0.431239609668E+02   -0.12802E-02   -0.23116E-03  1896   0.113E-01
    682 T=   710. E= -.41663921E+02 F= -.43123961E+02 E0= -.43081222E+02  EK= 0.32142E+01 SP= -.18E+01 SK= 0.73E-01 mag=      0.072
       N       E                     dE             d eps       ncg     rms          rms(c)
DAV:   1    -0.431111368080E+02    0.11544E-01   -0.32276E-02  3304   0.999E-01    0.118E-01
RMM:   2    -0.431136208300E+02   -0.24840E-02   -0.56155E-03  1882   0.273E-01    0.972E-02
RMM:   3    -0.431143798872E+02   -0.75906E-03   -0.13094E-03  1714   0.913E-02
    683 T=   688. E= -.41658521E+02 F= -.43114380E+02 E0= -.43072242E+02  EK= 0.31142E+01 SP= -.17E+01 SK= 0.60E-01 mag=     -0.185
       N       E                     dE             d eps       ncg     rms          rms(c)
DAV:   1    -0.431039135850E+02    0.97072E-02   -0.78090E-02  3232   0.107E+00    0.109E-01
RMM:   2    -0.431055665293E+02   -0.16529E-02   -0.81257E-03  2010   0.310E-01
    684 T=   670. E= -.41652543E+02 F= -.43105567E+02 E0= -.43063516E+02  EK= 0.30289E+01 SP= -.16E+01 SK= 0.45E-01 mag=     -0.301
       N       E                     dE             d eps       ncg     rms          rms(c)
DAV:   1    -0.430957296272E+02    0.81840E-02   -0.50687E-02  3288   0.101E+00    0.741E-02
RMM:   2    -0.430968910660E+02   -0.11614E-02   -0.67701E-03  1995   0.288E-01
    685 T=   654. E= -.41647095E+02 F= -.43096891E+02 E0= -.43054905E+02  EK= 0.29574E+01 SP= -.15E+01 SK= 0.31E-01 mag=     -0.170
       N       E                     dE             d eps       ncg     rms          rms(c)
DAV:   1    -0.430876580246E+02    0.80716E-02   -0.19407E-02  3224   0.100E+00    0.616E-02
RMM:   2    -0.430886140436E+02   -0.95602E-03   -0.70896E-03  2009   0.305E-01
    686 T=   641. E= -.41641499E+02 F= -.43088614E+02 E0= -.43046785E+02  EK= 0.29012E+01 SP= -.15E+01 SK= 0.18E-01 mag=      0.143
       N       E                     dE             d eps       ncg     rms          rms(c)
DAV:   1    -0.430764802813E+02    0.11178E-01   -0.15995E-02  3424   0.100E+00    0.106E-01
RMM:   2    -0.430782355327E+02   -0.17553E-02   -0.63777E-03  2008   0.271E-01
    687 T=   632. E= -.41633451E+02 F= -.43078236E+02 E0= -.43037161E+02  EK= 0.28603E+01 SP= -.14E+01 SK= 0.85E-02 mag=      0.365
       N       E                     dE             d eps       ncg     rms          rms(c)
DAV:   1    -0.430693047074E+02    0.71756E-02   -0.15664E-02  3248   0.968E-01    0.108E-01
RMM:   2    -0.430706473903E+02   -0.13427E-02   -0.50834E-03  1990   0.265E-01
    688 T=   626. E= -.41628556E+02 F= -.43070647E+02 E0= -.43029588E+02  EK= 0.28342E+01 SP= -.14E+01 SK= 0.22E-02 mag=      0.361
       N       E                     dE             d eps       ncg     rms          rms(c)
DAV:   1    -0.430634356860E+02    0.58690E-02   -0.13963E-02  3272   0.981E-01    0.694E-02
RMM:   2    -0.430643146493E+02   -0.87896E-03   -0.54083E-03  2024   0.265E-01
    689 T=   624. E= -.41623868E+02 F= -.43064315E+02 E0= -.43022962E+02  EK= 0.28245E+01 SP= -.14E+01 SK= 0.11E-05 mag=      0.099
       N       E                     dE             d eps       ncg     rms          rms(c)
DAV:   1    -0.430558275289E+02    0.76082E-02   -0.10902E-02  2720   0.929E-01    0.756E-02
RMM:   2    -0.430569324798E+02   -0.11050E-02   -0.60077E-03  2023   0.283E-01
    690 T=   626. E= -.41617766E+02 F= -.43056932E+02 E0= -.43015863E+02  EK= 0.28306E+01 SP= -.14E+01 SK= 0.20E-02 mag=     -0.306
       N       E                     dE             d eps       ncg     rms          rms(c)
DAV:   1    -0.430454878443E+02    0.10340E-01   -0.15797E-02  3328   0.982E-01    0.142E-01
RMM:   2    -0.430480125098E+02   -0.25247E-02   -0.64307E-03  2001   0.272E-01    0.115E-01
RMM:   3    -0.430508290144E+02   -0.28165E-02   -0.48508E-03  1824   0.128E-01    0.712E-02
RMM:   4    -0.430520617154E+02   -0.12327E-02   -0.25050E-03  1824   0.949E-02
    691 T=   630. E= -.41614873E+02 F= -.43052062E+02 E0= -.43010903E+02  EK= 0.28513E+01 SP= -.14E+01 SK= 0.82E-02 mag=     -0.077
       N       E                     dE             d eps       ncg     rms          rms(c)
DAV:   1    -0.430424188785E+02    0.84101E-02   -0.16168E-02  3328   0.945E-01    0.144E-01
RMM:   2    -0.430446948784E+02   -0.22760E-02   -0.50399E-03  1879   0.216E-01    0.113E-01
RMM:   3    -0.430465795143E+02   -0.18846E-02   -0.28403E-03  1824   0.910E-02    0.716E-02
RMM:   4    -0.430476504817E+02   -0.10710E-02   -0.14507E-03  1809   0.712E-02
    692 T=   638. E= -.41612722E+02 F= -.43047650E+02 E0= -.43006559E+02  EK= 0.28870E+01 SP= -.15E+01 SK= 0.18E-01 mag=      0.142
       N       E                     dE             d eps       ncg     rms          rms(c)
DAV:   1    -0.430437046218E+02    0.28749E-02   -0.18445E-02  3280   0.945E-01    0.981E-02
RMM:   2    -0.430443994713E+02   -0.69485E-03   -0.41261E-03  1971   0.231E-01
    693 T=   650. E= -.41608782E+02 F= -.43044399E+02 E0= -.43003366E+02  EK= 0.29408E+01 SP= -.15E+01 SK= 0.31E-01 mag=      0.216
       N       E                     dE             d eps       ncg     rms          rms(c)
DAV:   1    -0.430420563825E+02    0.16482E-02   -0.15457E-02  3424   0.969E-01    0.380E-02
RMM:   2    -0.430427758300E+02   -0.71945E-03   -0.51349E-03  2010   0.259E-01
    694 T=   665. E= -.41606505E+02 F= -.43042776E+02 E0= -.43001565E+02  EK= 0.30095E+01 SP= -.16E+01 SK= 0.45E-01 mag=      0.107
       N       E                     dE             d eps       ncg     rms          rms(c)
DAV:   1    -0.430410133294E+02    0.10431E-02   -0.12764E-02  2944   0.976E-01    0.608E-02
RMM:   2    -0.430416694170E+02   -0.65609E-03   -0.45040E-03  2005   0.257E-01
    695 T=   684. E= -.41603965E+02 F= -.43041669E+02 E0= -.43000406E+02  EK= 0.30934E+01 SP= -.17E+01 SK= 0.61E-01 mag=     -0.129
       N       E                     dE             d eps       ncg     rms          rms(c)
DAV:   1    -0.430396533141E+02    0.13600E-02   -0.15469E-02  3200   0.103E+00    0.776E-02
RMM:   2    -0.430408099662E+02   -0.11567E-02   -0.56217E-03  2003   0.274E-01
    696 T=   706. E= -.41598213E+02 F= -.43040810E+02 E0= -.42999816E+02  EK= 0.31945E+01 SP= -.18E+01 SK= 0.75E-01 mag=     -0.336
       N       E                     dE             d eps       ncg     rms          rms(c)
DAV:   1    -0.430407888736E+02   -0.11356E-02   -0.11386E-02  3288   0.100E+00    0.853E-02
RMM:   2    -0.430420566577E+02   -0.12678E-02   -0.57846E-03  2044   0.291E-01
    697 T=   732. E= -.41593096E+02 F= -.43042057E+02 E0= -.43001013E+02  EK= 0.33098E+01 SP= -.19E+01 SK= 0.87E-01 mag=     -0.333
       N       E                     dE             d eps       ncg     rms          rms(c)
DAV:   1    -0.430442570068E+02   -0.34681E-02   -0.14978E-02  3336   0.107E+00    0.359E-02
RMM:   2    -0.430450331316E+02   -0.77612E-03   -0.52549E-03  2010   0.285E-01
    698 T=   759. E= -.41590193E+02 F= -.43045033E+02 E0= -.43003383E+02  EK= 0.34357E+01 SP= -.21E+01 SK= 0.96E-01 mag=     -0.087
       N       E                     dE             d eps       ncg     rms          rms(c)
DAV:   1    -0.430447842187E+02   -0.52721E-03   -0.13196E-02  3160   0.103E+00    0.734E-02
RMM:   2    -0.430459587814E+02   -0.11746E-02   -0.64855E-03  2039   0.292E-01
    699 T=   789. E= -.41585504E+02 F= -.43045959E+02 E0= -.43004338E+02  EK= 0.35704E+01 SP= -.22E+01 SK= 0.10E+00 mag=      0.275
       N       E                     dE             d eps       ncg     rms          rms(c)
DAV:   1    -0.430439731567E+02    0.81106E-03   -0.19444E-02  3616   0.112E+00    0.115E-01
RMM:   2    -0.430460534548E+02   -0.20803E-02   -0.68078E-03  2016   0.292E-01    0.943E-02
RMM:   3    -0.430473472200E+02   -0.12938E-02   -0.25275E-03  1892   0.118E-01
    700 T=   820. E= -.41581449E+02 F= -.43047347E+02 E0= -.43005777E+02  EK= 0.37111E+01 SP= -.23E+01 SK= 0.10E+00 mag=      0.112
       N       E                     dE             d eps       ncg     rms          rms(c)
DAV:   1    -0.430470232555E+02   -0.96980E-03   -0.34028E-02  3368   0.110E+00    0.111E-01
RMM:   2    -0.430494360779E+02   -0.24128E-02   -0.64437E-03  1916   0.299E-01    0.890E-02
RMM:   3    -0.430500318904E+02   -0.59581E-03   -0.14459E-03  1747   0.964E-02
    701 T=   852. E= -.41578458E+02 F= -.43050032E+02 E0= -.43008057E+02  EK= 0.38550E+01 SP= -.25E+01 SK= 0.94E-01 mag=     -0.206
       N       E                     dE             d eps       ncg     rms          rms(c)
DAV:   1    -0.430491338609E+02    0.30222E-03   -0.96899E-02  3512   0.117E+00    0.128E-01
RMM:   2    -0.430513847411E+02   -0.22509E-02   -0.85834E-03  2029   0.311E-01    0.924E-02
RMM:   3    -0.430523357350E+02   -0.95099E-03   -0.18572E-03  1989   0.115E-01
    702 T=   884. E= -.41575029E+02 F= -.43052336E+02 E0= -.43009920E+02  EK= 0.39978E+01 SP= -.26E+01 SK= 0.83E-01 mag=     -0.240
       N       E                     dE             d eps       ncg     rms          rms(c)
DAV:   1    -0.430541165495E+02   -0.27318E-02   -0.47487E-02  3384   0.120E+00    0.838E-02
RMM:   2    -0.430554133148E+02   -0.12968E-02   -0.68369E-03  2044   0.311E-01
    703 T=   914. E= -.41571675E+02 F= -.43055413E+02 E0= -.43012321E+02  EK= 0.41357E+01 SP= -.27E+01 SK= 0.69E-01 mag=      0.006
       N       E                     dE             d eps       ncg     rms          rms(c)
DAV:   1    -0.430539878955E+02    0.12865E-03   -0.38938E-02  3888   0.120E+00    0.942E-02
RMM:   2    -0.430555381887E+02   -0.15503E-02   -0.71997E-03  2055   0.287E-01
    704 T=   942. E= -.41567168E+02 F= -.43055538E+02 E0= -.43012231E+02  EK= 0.42613E+01 SP= -.28E+01 SK= 0.52E-01 mag=      0.327
       N       E                     dE             d eps       ncg     rms          rms(c)
DAV:   1    -0.430532930722E+02    0.69482E-03   -0.19179E-02  3448   0.118E+00    0.120E-01
RMM:   2    -0.430553728502E+02   -0.20798E-02   -0.77963E-03  2051   0.324E-01    0.924E-02
RMM:   3    -0.430567663669E+02   -0.13935E-02   -0.26366E-03  1955   0.132E-01
    705 T=   966. E= -.41565489E+02 F= -.43056766E+02 E0= -.43012993E+02  EK= 0.43697E+01 SP= -.29E+01 SK= 0.35E-01 mag=      0.218
       N       E                     dE             d eps       ncg     rms          rms(c)
DAV:   1    -0.430563969190E+02   -0.10241E-02   -0.30242E-02  3256   0.122E+00    0.946E-02
RMM:   2    -0.430576003983E+02   -0.12035E-02   -0.47077E-03  1965   0.293E-01
    706 T=   987. E= -.41558239E+02 F= -.43057600E+02 E0= -.43012983E+02  EK= 0.44632E+01 SP= -.30E+01 SK= 0.20E-01 mag=     -0.230
       N       E                     dE             d eps       ncg     rms          rms(c)
DAV:   1    -0.430492591997E+02    0.71377E-02   -0.34145E-02  4088   0.130E+00    0.162E-01
RMM:   2    -0.430524800175E+02   -0.32208E-02   -0.73594E-03  1995   0.272E-01    0.131E-01
RMM:   3    -0.430565492909E+02   -0.40693E-02   -0.49097E-03  1824   0.140E-01    0.739E-02
RMM:   4    -0.430576613166E+02   -0.11120E-02   -0.19003E-03  1823   0.943E-02
    707 T=  1001. E= -.41553405E+02 F= -.43057661E+02 E0= -.43012321E+02  EK= 0.45292E+01 SP= -.30E+01 SK= 0.81E-02 mag=     -0.053
       N       E                     dE             d eps       ncg     rms          rms(c)
DAV:   1    -0.430506812096E+02    0.58681E-02   -0.18529E-02  3024   0.115E+00    0.161E-01
RMM:   2    -0.430534082284E+02   -0.27270E-02   -0.73717E-03  1942   0.287E-01    0.120E-01
RMM:   3    -0.430556394304E+02   -0.22312E-02   -0.34132E-03  1824   0.120E-01    0.781E-02
RMM:   4    -0.430566809527E+02   -0.10415E-02   -0.11856E-03  1755   0.826E-02
    708 T=  1009. E= -.41551029E+02 F= -.43056681E+02 E0= -.43010697E+02  EK= 0.45642E+01 SP= -.31E+01 SK= 0.13E-02 mag=      0.156
       N       E                     dE             d eps       ncg     rms          rms(c)
DAV:   1    -0.430545932873E+02    0.10461E-02   -0.32082E-02  4016   0.127E+00    0.116E-01
RMM:   2    -0.430558790603E+02   -0.12858E-02   -0.54646E-03  2002   0.266E-01
    709 T=  1011. E= -.41545833E+02 F= -.43055879E+02 E0= -.43009333E+02  EK= 0.45730E+01 SP= -.31E+01 SK= 0.38E-03 mag=      0.262
       N       E                     dE             d eps       ncg     rms          rms(c)
DAV:   1    -0.430549671054E+02   -0.37382E-03   -0.24656E-02  3968   0.120E+00    0.547E-02
RMM:   2    -0.430562639020E+02   -0.12968E-02   -0.71721E-03  2028   0.296E-01
    710 T=  1006. E= -.41544872E+02 F= -.43056264E+02 E0= -.43008838E+02  EK= 0.45492E+01 SP= -.30E+01 SK= 0.56E-02 mag=      0.203
       N       E                     dE             d eps       ncg     rms          rms(c)
DAV:   1    -0.430558273601E+02   -0.86025E-03   -0.22096E-02  3592   0.122E+00    0.681E-02
RMM:   2    -0.430571112606E+02   -0.12839E-02   -0.67084E-03  2039   0.311E-01
    711 T=   994. E= -.41542559E+02 F= -.43057111E+02 E0= -.43008794E+02  EK= 0.44988E+01 SP= -.30E+01 SK= 0.16E-01 mag=     -0.011
       N       E                     dE             d eps       ncg     rms          rms(c)
DAV:   1    -0.430562188642E+02   -0.39150E-03   -0.30964E-02  3632   0.123E+00    0.737E-02
RMM:   2    -0.430578257171E+02   -0.16069E-02   -0.73301E-03  2036   0.307E-01
    712 T=   978. E= -.41536418E+02 F= -.43057826E+02 E0= -.43009105E+02  EK= 0.44260E+01 SP= -.29E+01 SK= 0.31E-01 mag=     -0.283
       N       E                     dE             d eps       ncg     rms          rms(c)
DAV:   1    -0.430580560551E+02   -0.18372E-02   -0.19267E-02  3560   0.117E+00    0.912E-02
RMM:   2    -0.430599019671E+02   -0.18459E-02   -0.71703E-03  2043   0.321E-01    0.736E-02
RMM:   3    -0.430608639285E+02   -0.96196E-03   -0.23133E-03  1930   0.124E-01
    713 T=   957. E= -.41533164E+02 F= -.43060864E+02 E0= -.43011699E+02  EK= 0.43302E+01 SP= -.29E+01 SK= 0.49E-01 mag=     -0.230
       N       E                     dE             d eps       ncg     rms          rms(c)
DAV:   1    -0.430647365378E+02   -0.48346E-02   -0.25994E-02  3264   0.116E+00    0.809E-02
RMM:   2    -0.430660555053E+02   -0.13190E-02   -0.48500E-03  1981   0.293E-01
    714 T=   934. E= -.41524653E+02 F= -.43066056E+02 E0= -.43015902E+02  EK= 0.42235E+01 SP= -.27E+01 SK= 0.67E-01 mag=      0.104
       N       E                     dE             d eps       ncg     rms          rms(c)
DAV:   1    -0.430677926543E+02   -0.30561E-02   -0.39511E-02  4152   0.125E+00    0.118E-01
RMM:   2    -0.430700842801E+02   -0.22916E-02   -0.66950E-03  2025   0.266E-01    0.991E-02
RMM:   3    -0.430714558420E+02   -0.13716E-02   -0.18826E-03  1904   0.105E-01
    715 T=   907. E= -.41515663E+02 F= -.43071456E+02 E0= -.43021401E+02  EK= 0.41034E+01 SP= -.26E+01 SK= 0.85E-01 mag=      0.199
       N       E                     dE             d eps       ncg     rms          rms(c)
DAV:   1    -0.430802983025E+02   -0.10214E-01   -0.26908E-02  3360   0.111E+00    0.857E-02
RMM:   2    -0.430819308965E+02   -0.16326E-02   -0.65316E-03  1976   0.277E-01
    716 T=   878. E= -.41511967E+02 F= -.43081931E+02 E0= -.43030882E+02  EK= 0.39739E+01 SP= -.25E+01 SK= 0.10E+00 mag=      0.041
       N       E                     dE             d eps       ncg     rms          rms(c)
DAV:   1    -0.430882485685E+02   -0.79503E-02   -0.51024E-02  3896   0.119E+00    0.130E-01
RMM:   2    -0.430906262031E+02   -0.23776E-02   -0.77519E-03  2009   0.280E-01    0.101E-01
RMM:   3    -0.430927943559E+02   -0.21682E-02   -0.29792E-03  1931   0.121E-01    0.718E-02
RMM:   4    -0.430940688585E+02   -0.12745E-02   -0.19646E-03  1828   0.848E-02
    717 T=   849. E= -.41507630E+02 F= -.43094069E+02 E0= -.43042643E+02  EK= 0.38419E+01 SP= -.24E+01 SK= 0.11E+00 mag=     -0.058
       N       E                     dE             d eps       ncg     rms          rms(c)
DAV:   1    -0.431031839987E+02   -0.10390E-01   -0.21255E-02  3304   0.108E+00    0.131E-01
RMM:   2    -0.431055991774E+02   -0.24152E-02   -0.84010E-03  1919   0.297E-01    0.946E-02
RMM:   3    -0.431072124481E+02   -0.16133E-02   -0.38306E-03  1824   0.121E-01
    718 T=   820. E= -.41502131E+02 F= -.43107212E+02 E0= -.43055522E+02  EK= 0.37113E+01 SP= -.22E+01 SK= 0.12E+00 mag=     -0.044
       N       E                     dE             d eps       ncg     rms          rms(c)
DAV:   1    -0.431214897853E+02   -0.15891E-01   -0.33969E-02  3648   0.109E+00    0.117E-01
RMM:   2    -0.431230987406E+02   -0.16090E-02   -0.54234E-03  1901   0.262E-01
    719 T=   793. E= -.41494191E+02 F= -.43123099E+02 E0= -.43071255E+02  EK= 0.35886E+01 SP= -.21E+01 SK= 0.12E+00 mag=      0.051
       N       E                     dE             d eps       ncg     rms          rms(c)
DAV:   1    -0.431412637963E+02   -0.19774E-01   -0.31701E-02  3752   0.112E+00    0.877E-02
RMM:   2    -0.431427355621E+02   -0.14718E-02   -0.56999E-03  2006   0.258E-01
    720 T=   767. E= -.41491418E+02 F= -.43142736E+02 E0= -.43090851E+02  EK= 0.34700E+01 SP= -.19E+01 SK= 0.11E+00 mag=      0.168
       N       E                     dE             d eps       ncg     rms          rms(c)
DAV:   1    -0.431641512145E+02   -0.22887E-01   -0.18056E-02  3352   0.994E-01    0.717E-02
RMM:   2    -0.431652353572E+02   -0.10841E-02   -0.57946E-03  2016   0.295E-01
    721 T=   743. E= -.41487745E+02 F= -.43165235E+02 E0= -.43113398E+02  EK= 0.33631E+01 SP= -.18E+01 SK= 0.11E+00 mag=      0.238
       N       E                     dE             d eps       ncg     rms          rms(c)
DAV:   1    -0.431873266348E+02   -0.23175E-01   -0.21837E-02  3064   0.109E+00    0.879E-02
RMM:   2    -0.431889451383E+02   -0.16185E-02   -0.68500E-03  2013   0.274E-01
    722 T=   723. E= -.41480210E+02 F= -.43188945E+02 E0= -.43137143E+02  EK= 0.32709E+01 SP= -.17E+01 SK= 0.95E-01 mag=      0.188
       N       E                     dE             d eps       ncg     rms          rms(c)
DAV:   1    -0.432141439338E+02   -0.26817E-01   -0.16655E-02  3264   0.976E-01    0.103E-01
RMM:   2    -0.432159663814E+02   -0.18224E-02   -0.66267E-03  2012   0.302E-01    0.824E-02
RMM:   3    -0.432170805817E+02   -0.11142E-02   -0.23071E-03  1929   0.119E-01
    723 T=   705. E= -.41475800E+02 F= -.43217081E+02 E0= -.43165179E+02  EK= 0.31910E+01 SP= -.15E+01 SK= 0.81E-01 mag=      0.023
       N       E                     dE             d eps       ncg     rms          rms(c)
DAV:   1    -0.432450155873E+02   -0.29049E-01   -0.25632E-02  3192   0.993E-01    0.951E-02
RMM:   2    -0.432467222633E+02   -0.17067E-02   -0.54820E-03  1895   0.259E-01
    724 T=   691. E= -.41468240E+02 F= -.43246722E+02 E0= -.43195106E+02  EK= 0.31273E+01 SP= -.14E+01 SK= 0.67E-01 mag=     -0.203
       N       E                     dE             d eps       ncg     rms          rms(c)
DAV:   1    -0.432694191584E+02   -0.24404E-01   -0.36110E-02  3688   0.104E+00    0.177E-01
RMM:   2    -0.432728067185E+02   -0.33876E-02   -0.74680E-03  1994   0.253E-01    0.143E-01
RMM:   3    -0.432783915720E+02   -0.55849E-02   -0.69113E-03  1824   0.139E-01    0.780E-02
RMM:   4    -0.432797016406E+02   -0.13101E-02   -0.24101E-03  1824   0.974E-02
    725 T=   680. E= -.41464199E+02 F= -.43279702E+02 E0= -.43228118E+02  EK= 0.30758E+01 SP= -.13E+01 SK= 0.52E-01 mag=     -0.102
       N       E                     dE             d eps       ncg     rms          rms(c)
DAV:   1    -0.433050238764E+02   -0.26632E-01   -0.25939E-02  3280   0.958E-01    0.179E-01
RMM:   2    -0.433085153436E+02   -0.34915E-02   -0.89143E-03  1888   0.252E-01    0.139E-01
RMM:   3    -0.433122368838E+02   -0.37215E-02   -0.57800E-03  1824   0.119E-01    0.890E-02
RMM:   4    -0.433136663303E+02   -0.14294E-02   -0.18455E-03  1823   0.804E-02
    726 T=   671. E= -.41461829E+02 F= -.43313666E+02 E0= -.43262295E+02  EK= 0.30362E+01 SP= -.12E+01 SK= 0.38E-01 mag=      0.112
       N       E                     dE             d eps       ncg     rms          rms(c)
DAV:   1    -0.433478123143E+02   -0.35575E-01   -0.18686E-02  3416   0.997E-01    0.129E-01
RMM:   2    -0.433492381726E+02   -0.14259E-02   -0.46248E-03  1998   0.243E-01
    727 T=   666. E= -.41456294E+02 F= -.43349238E+02 E0= -.43298409E+02  EK= 0.30142E+01 SP= -.11E+01 SK= 0.26E-01 mag=      0.290
       N       E                     dE             d eps       ncg     rms          rms(c)
DAV:   1    -0.433871027694E+02   -0.39290E-01   -0.19528E-02  3544   0.972E-01    0.740E-02
RMM:   2    -0.433882001830E+02   -0.10974E-02   -0.54046E-03  1998   0.266E-01
    728 T=   664. E= -.41453628E+02 F= -.43388200E+02 E0= -.43337652E+02  EK= 0.30054E+01 SP= -.11E+01 SK= 0.16E-01 mag=      0.324
       N       E                     dE             d eps       ncg     rms          rms(c)
DAV:   1    -0.434270515619E+02   -0.39949E-01   -0.17865E-02  3368   0.100E+00    0.744E-02
RMM:   2    -0.434281794384E+02   -0.11279E-02   -0.55161E-03  2005   0.265E-01
    729 T=   665. E= -.41450934E+02 F= -.43428179E+02 E0= -.43377617E+02  EK= 0.30104E+01 SP= -.10E+01 SK= 0.80E-02 mag=      0.160
       N       E                     dE             d eps       ncg     rms          rms(c)
DAV:   1    -0.434672279808E+02   -0.40176E-01   -0.17939E-02  3376   0.102E+00    0.997E-02
RMM:   2    -0.434687095541E+02   -0.14816E-02   -0.57736E-03  2008   0.281E-01
    730 T=   670. E= -.41444960E+02 F= -.43468710E+02 E0= -.43418436E+02  EK= 0.30315E+01 SP= -.10E+01 SK= 0.30E-02 mag=     -0.148
       N       E                     dE             d eps       ncg     rms          rms(c)
DAV:   1    -0.435090711822E+02   -0.41843E-01   -0.11672E-02  3136   0.976E-01    0.107E-01
RMM:   2    -0.435107668089E+02   -0.16956E-02   -0.60374E-03  2010   0.294E-01
    731 T=   678. E= -.41438692E+02 F= -.43510767E+02 E0= -.43461446E+02  EK= 0.30665E+01 SP= -.99E+00 SK= 0.46E-03 mag=     -0.397
       N       E                     dE             d eps       ncg     rms          rms(c)
DAV:   1    -0.435541510298E+02   -0.45080E-01   -0.16066E-02  3496   0.101E+00    0.908E-02
RMM:   2    -0.435555488565E+02   -0.13978E-02   -0.60730E-03  2003   0.286E-01
    732 T=   688. E= -.41434130E+02 F= -.43555549E+02 E0= -.43506580E+02  EK= 0.31140E+01 SP= -.99E+00 SK= 0.91E-04 mag=     -0.443
       N       E                     dE             d eps       ncg     rms          rms(c)
DAV:   1    -0.435976163651E+02   -0.43465E-01   -0.20256E-02  3408   0.980E-01    0.114E-01
RMM:   2    -0.435995384573E+02   -0.19221E-02   -0.68348E-03  1993   0.284E-01    0.902E-02
RMM:   3    -0.436010907903E+02   -0.15523E-02   -0.28603E-03  1881   0.115E-01
    733 T=   701. E= -.41430976E+02 F= -.43601091E+02 E0= -.43551768E+02  EK= 0.31717E+01 SP= -.10E+01 SK= 0.14E-02 mag=     -0.110
       N       E                     dE             d eps       ncg     rms          rms(c)
DAV:   1    -0.436437447733E+02   -0.44206E-01   -0.16086E-02  3448   0.104E+00    0.120E-01
RMM:   2    -0.436454410563E+02   -0.16963E-02   -0.48283E-03  1886   0.261E-01
    734 T=   716. E= -.41424812E+02 F= -.43645441E+02 E0= -.43597032E+02  EK= 0.32412E+01 SP= -.10E+01 SK= 0.38E-02 mag=      0.413
       N       E                     dE             d eps       ncg     rms          rms(c)
DAV:   1    -0.436822283092E+02   -0.38484E-01   -0.37538E-02  3632   0.109E+00    0.175E-01
RMM:   2    -0.436858348893E+02   -0.36066E-02   -0.69782E-03  1996   0.264E-01    0.146E-01
RMM:   3    -0.436881928408E+02   -0.23580E-02   -0.25327E-03  1862   0.108E-01    0.119E-01
RMM:   4    -0.436923562582E+02   -0.41634E-02   -0.79301E-03  2079   0.130E-01    0.353E-02
RMM:   5    -0.436925663384E+02   -0.21008E-03   -0.58410E-04  1656   0.677E-02
    735 T=   733. E= -.41422892E+02 F= -.43692566E+02 E0= -.43643770E+02  EK= 0.33180E+01 SP= -.11E+01 SK= 0.66E-02 mag=      0.055
       N       E                     dE             d eps       ncg     rms          rms(c)
DAV:   1    -0.437249669438E+02   -0.32611E-01   -0.22339E-02  3304   0.100E+00    0.196E-01
RMM:   2    -0.437294181784E+02   -0.44512E-02   -0.91364E-03  1878   0.270E-01    0.160E-01
RMM:   3    -0.437321554432E+02   -0.27373E-02   -0.31795E-03  1825   0.109E-01    0.128E-01
RMM:   4    -0.437361949931E+02   -0.40395E-02   -0.63410E-03  2014   0.114E-01    0.623E-02
RMM:   5    -0.437369669499E+02   -0.77196E-03   -0.97019E-04  1690   0.710E-02
    736 T=   751. E= -.41422272E+02 F= -.43736967E+02 E0= -.43688610E+02  EK= 0.33984E+01 SP= -.11E+01 SK= 0.93E-02 mag=     -0.109
       N       E                     dE             d eps       ncg     rms          rms(c)
DAV:   1    -0.437791857610E+02   -0.42991E-01   -0.16673E-02  3560   0.108E+00    0.795E-02
RMM:   2    -0.437803745242E+02   -0.11888E-02   -0.50582E-03  2005   0.261E-01
    737 T=   771. E= -.41418750E+02 F= -.43780375E+02 E0= -.43732227E+02  EK= 0.34868E+01 SP= -.11E+01 SK= 0.11E-01 mag=     -0.052
       N       E                     dE             d eps       ncg     rms          rms(c)
DAV:   1    -0.438216549367E+02   -0.42469E-01   -0.20923E-02  3816   0.107E+00    0.846E-02
RMM:   2    -0.438230261508E+02   -0.13712E-02   -0.56244E-03  2019   0.257E-01
    738 T=   791. E= -.41416676E+02 F= -.43823026E+02 E0= -.43775261E+02  EK= 0.35772E+01 SP= -.12E+01 SK= 0.13E-01 mag=      0.167
       N       E                     dE             d eps       ncg     rms          rms(c)
DAV:   1    -0.438613466527E+02   -0.39692E-01   -0.15570E-02  3400   0.102E+00    0.941E-02
RMM:   2    -0.438630053455E+02   -0.16587E-02   -0.60263E-03  2002   0.284E-01
    739 T=   811. E= -.41413841E+02 F= -.43863005E+02 E0= -.43815951E+02  EK= 0.36679E+01 SP= -.12E+01 SK= 0.13E-01 mag=      0.399
       N       E                     dE             d eps       ncg     rms          rms(c)
DAV:   1    -0.438992650009E+02   -0.37918E-01   -0.21692E-02  3448   0.112E+00    0.107E-01
RMM:   2    -0.439011250870E+02   -0.18601E-02   -0.66093E-03  2010   0.286E-01    0.838E-02
RMM:   3    -0.439019406578E+02   -0.81557E-03   -0.20173E-03  1908   0.111E-01
    740 T=   831. E= -.41410432E+02 F= -.43901941E+02 E0= -.43855222E+02  EK= 0.37581E+01 SP= -.13E+01 SK= 0.11E-01 mag=      0.199
       N       E                     dE             d eps       ncg     rms          rms(c)
DAV:   1    -0.439356545194E+02   -0.34529E-01   -0.28223E-02  3440   0.113E+00    0.104E-01
RMM:   2    -0.439376478821E+02   -0.19934E-02   -0.53181E-03  1913   0.279E-01    0.809E-02
RMM:   3    -0.439381460833E+02   -0.49820E-03   -0.11060E-03  1601   0.974E-02
    741 T=   850. E= -.41406623E+02 F= -.43938146E+02 E0= -.43891353E+02  EK= 0.38435E+01 SP= -.13E+01 SK= 0.92E-02 mag=     -0.170
       N       E                     dE             d eps       ncg     rms          rms(c)
DAV:   1    -0.439664915726E+02   -0.28844E-01   -0.53866E-02  3648   0.115E+00    0.118E-01
RMM:   2    -0.439686576738E+02   -0.21661E-02   -0.67146E-03  2035   0.290E-01    0.920E-02
RMM:   3    -0.439696958936E+02   -0.10382E-02   -0.17237E-03  1944   0.113E-01
    742 T=   867. E= -.41401202E+02 F= -.43969696E+02 E0= -.43923528E+02  EK= 0.39208E+01 SP= -.14E+01 SK= 0.65E-02 mag=     -0.218
       N       E                     dE             d eps       ncg     rms          rms(c)
DAV:   1    -0.439979820956E+02   -0.29324E-01   -0.30097E-02  3392   0.114E+00    0.783E-02
RMM:   2    -0.439995878129E+02   -0.16057E-02   -0.65476E-03  2052   0.292E-01
    743 T=   881. E= -.41397339E+02 F= -.43999588E+02 E0= -.43953101E+02  EK= 0.39876E+01 SP= -.14E+01 SK= 0.37E-02 mag=      0.038
       N       E                     dE             d eps       ncg     rms          rms(c)
DAV:   1    -0.440196549608E+02   -0.21673E-01   -0.44552E-02  3896   0.116E+00    0.117E-01
RMM:   2    -0.440218336209E+02   -0.21787E-02   -0.77166E-03  2027   0.284E-01    0.926E-02
RMM:   3    -0.440233373829E+02   -0.15038E-02   -0.24762E-03  1962   0.117E-01
    744 T=   893. E= -.41392829E+02 F= -.44023337E+02 E0= -.43977388E+02  EK= 0.40393E+01 SP= -.14E+01 SK= 0.14E-02 mag=      0.141
       N       E                     dE             d eps       ncg     rms          rms(c)
DAV:   1    -0.440429846327E+02   -0.21151E-01   -0.24548E-02  3392   0.112E+00    0.932E-02
RMM:   2    -0.440446366248E+02   -0.16520E-02   -0.53660E-03  1907   0.275E-01
    745 T=   901. E= -.41388239E+02 F= -.44044637E+02 E0= -.43998708E+02  EK= 0.40773E+01 SP= -.14E+01 SK= 0.15E-03 mag=      0.075
       N       E                     dE             d eps       ncg     rms          rms(c)
DAV:   1    -0.440575750708E+02   -0.14590E-01   -0.42746E-02  4064   0.123E+00    0.101E-01
RMM:   2    -0.440593105387E+02   -0.17355E-02   -0.60767E-03  2027   0.261E-01
    746 T=   906. E= -.41381034E+02 F= -.44059311E+02 E0= -.44013519E+02  EK= 0.40986E+01 SP= -.14E+01 SK= 0.23E-03 mag=     -0.101
       N       E                     dE             d eps       ncg     rms          rms(c)
DAV:   1    -0.440673200084E+02   -0.97449E-02   -0.14882E-02  2952   0.110E+00    0.110E-01
RMM:   2    -0.440694432887E+02   -0.21233E-02   -0.70970E-03  2034   0.314E-01    0.875E-02
RMM:   3    -0.440708033792E+02   -0.13601E-02   -0.26640E-03  1905   0.139E-01
    747 T=   906. E= -.41378908E+02 F= -.44070803E+02 E0= -.44025346E+02  EK= 0.40983E+01 SP= -.14E+01 SK= 0.19E-02 mag=     -0.129
       N       E                     dE             d eps       ncg     rms          rms(c)
DAV:   1    -0.440754016397E+02   -0.59584E-02   -0.31609E-02  3736   0.118E+00    0.105E-01
RMM:   2    -0.440770677871E+02   -0.16661E-02   -0.62569E-03  1972   0.296E-01
    748 T=   903. E= -.41372223E+02 F= -.44077068E+02 E0= -.44031701E+02  EK= 0.40840E+01 SP= -.14E+01 SK= 0.50E-02 mag=     -0.014
       N       E                     dE             d eps       ncg     rms          rms(c)
DAV:   1    -0.440697799331E+02    0.56217E-02   -0.36029E-02  4144   0.119E+00    0.168E-01
RMM:   2    -0.440735997259E+02   -0.38198E-02   -0.83078E-03  1982   0.260E-01    0.138E-01
RMM:   3    -0.440785882112E+02   -0.49885E-02   -0.64806E-03  1824   0.137E-01    0.783E-02
RMM:   4    -0.440798886247E+02   -0.13004E-02   -0.22849E-03  1824   0.967E-02
    749 T=   895. E= -.41368712E+02 F= -.44079889E+02 E0= -.44034638E+02  EK= 0.40503E+01 SP= -.13E+01 SK= 0.94E-02 mag=      0.029
       N       E                     dE             d eps       ncg     rms          rms(c)
DAV:   1    -0.440662228768E+02    0.12365E-01   -0.26900E-02  3376   0.109E+00    0.186E-01
RMM:   2    -0.440703452247E+02   -0.41223E-02   -0.96384E-03  1910   0.286E-01    0.146E-01
RMM:   3    -0.440744885201E+02   -0.41433E-02   -0.60045E-03  1824   0.130E-01    0.101E-01
RMM:   4    -0.440765499109E+02   -0.20614E-02   -0.29367E-03  1824   0.959E-02    0.499E-02
RMM:   5    -0.440768856658E+02   -0.33575E-03   -0.54455E-04  1587   0.538E-02
    750 T=   884. E= -.41367052E+02 F= -.44076886E+02 E0= -.44031768E+02  EK= 0.39977E+01 SP= -.13E+01 SK= 0.15E-01 mag=     -0.003
       N       E                     dE             d eps       ncg     rms          rms(c)
DAV:   1    -0.440683043218E+02    0.82456E-02   -0.20912E-02  3632   0.112E+00    0.688E-02
RMM:   2    -0.440695611545E+02   -0.12568E-02   -0.51373E-03  1947   0.252E-01
    751 T=   870. E= -.41361724E+02 F= -.44069561E+02 E0= -.44024654E+02  EK= 0.39348E+01 SP= -.12E+01 SK= 0.20E-01 mag=     -0.089
       N       E                     dE             d eps       ncg     rms          rms(c)
DAV:   1    -0.440565143874E+02    0.11790E-01   -0.23811E-02  4048   0.117E+00    0.704E-02
RMM:   2    -0.440582835944E+02   -0.17692E-02   -0.61430E-03  2028   0.255E-01
    752 T=   853. E= -.41358237E+02 F= -.44058284E+02 E0= -.44013525E+02  EK= 0.38589E+01 SP= -.12E+01 SK= 0.25E-01 mag=     -0.171
       N       E                     dE             d eps       ncg     rms          rms(c)
DAV:   1    -0.440420781906E+02    0.14436E-01   -0.17855E-02  3256   0.105E+00    0.926E-02
RMM:   2    -0.440438215782E+02   -0.17434E-02   -0.58497E-03  2021   0.291E-01
    753 T=   835. E= -.41353468E+02 F= -.44043822E+02 E0= -.43999071E+02  EK= 0.37762E+01 SP= -.11E+01 SK= 0.28E-01 mag=     -0.130
       N       E                     dE             d eps       ncg     rms          rms(c)
DAV:   1    -0.440269321565E+02    0.15146E-01   -0.26898E-02  3888   0.117E+00    0.490E-02
RMM:   2    -0.440282707753E+02   -0.13386E-02   -0.68496E-03  1994   0.285E-01
    754 T=   816. E= -.41347943E+02 F= -.44028271E+02 E0= -.43983482E+02  EK= 0.36908E+01 SP= -.10E+01 SK= 0.31E-01 mag=      0.034
       N       E                     dE             d eps       ncg     rms          rms(c)
DAV:   1    -0.440055157582E+02    0.21416E-01   -0.16529E-02  3240   0.102E+00    0.702E-02
RMM:   2    -0.440072742510E+02   -0.17585E-02   -0.75518E-03  2006   0.303E-01
    755 T=   796. E= -.41340908E+02 F= -.44007274E+02 E0= -.43962689E+02  EK= 0.36014E+01 SP= -.97E+00 SK= 0.31E-01 mag=      0.215
       N       E                     dE             d eps       ncg     rms          rms(c)
DAV:   1    -0.439822474873E+02    0.23268E-01   -0.21683E-02  3808   0.111E+00    0.110E-01
RMM:   2    -0.439841365642E+02   -0.18891E-02   -0.59397E-03  2021   0.267E-01    0.865E-02
RMM:   3    -0.439852539005E+02   -0.11173E-02   -0.17826E-03  1925   0.110E-01
    756 T=   776. E= -.41335450E+02 F= -.43985254E+02 E0= -.43940582E+02  EK= 0.35117E+01 SP= -.89E+00 SK= 0.30E-01 mag=      0.085
       N       E                     dE             d eps       ncg     rms          rms(c)
DAV:   1    -0.439596142574E+02    0.24522E-01   -0.22063E-02  3336   0.999E-01    0.936E-02
RMM:   2    -0.439613506965E+02   -0.17364E-02   -0.53512E-03  1865   0.264E-01
    757 T=   757. E= -.41328496E+02 F= -.43961351E+02 E0= -.43916626E+02  EK= 0.34259E+01 SP= -.82E+00 SK= 0.27E-01 mag=     -0.251
       N       E                     dE             d eps       ncg     rms          rms(c)
DAV:   1    -0.439267876357E+02    0.32827E-01   -0.39740E-02  3880   0.111E+00    0.178E-01
RMM:   2    -0.439305682022E+02   -0.37806E-02   -0.71247E-03  1997   0.247E-01    0.144E-01
RMM:   3    -0.439355769996E+02   -0.50088E-02   -0.54615E-03  1824   0.131E-01    0.889E-02
RMM:   4    -0.439373019295E+02   -0.17249E-02   -0.30658E-03  1824   0.103E-01
    758 T=   739. E= -.41324156E+02 F= -.43937302E+02 E0= -.43892354E+02  EK= 0.33435E+01 SP= -.75E+00 SK= 0.23E-01 mag=     -0.051
       N       E                     dE             d eps       ncg     rms          rms(c)
DAV:   1    -0.439008121500E+02    0.34765E-01   -0.23822E-02  3272   0.954E-01    0.184E-01
RMM:   2    -0.439048191278E+02   -0.40070E-02   -0.89659E-03  1864   0.248E-01    0.145E-01
RMM:   3    -0.439091273921E+02   -0.43083E-02   -0.62836E-03  1824   0.123E-01    0.966E-02
RMM:   4    -0.439110033018E+02   -0.18759E-02   -0.27255E-03  1824   0.920E-02    0.481E-02
RMM:   5    -0.439112836333E+02   -0.28033E-03   -0.40107E-04  1467   0.442E-02
    759 T=   721. E= -.41322551E+02 F= -.43911284E+02 E0= -.43866207E+02  EK= 0.32641E+01 SP= -.69E+00 SK= 0.17E-01 mag=      0.051
       N       E                     dE             d eps       ncg     rms          rms(c)
DAV:   1    -0.438839882279E+02    0.27015E-01   -0.21518E-02  3464   0.982E-01    0.666E-02
RMM:   2    -0.438849058093E+02   -0.91758E-03   -0.40925E-03  1906   0.216E-01
    760 T=   707. E= -.41318011E+02 F= -.43884906E+02 E0= -.43839655E+02  EK= 0.31963E+01 SP= -.64E+00 SK= 0.12E-01 mag=      0.046
       N       E                     dE             d eps       ncg     rms          rms(c)
DAV:   1    -0.438563919757E+02    0.27596E-01   -0.16589E-02  3528   0.105E+00    0.657E-02
RMM:   2    -0.438577607138E+02   -0.13687E-02   -0.59734E-03  2006   0.255E-01
    761 T=   694. E= -.41313390E+02 F= -.43857761E+02 E0= -.43812352E+02  EK= 0.31379E+01 SP= -.60E+00 SK= 0.69E-02 mag=     -0.043
       N       E                     dE             d eps       ncg     rms          rms(c)
DAV:   1    -0.438290264965E+02    0.27365E-01   -0.13570E-02  3112   0.979E-01    0.851E-02
RMM:   2    -0.438303946628E+02   -0.13682E-02   -0.46727E-03  1996   0.264E-01
    762 T=   683. E= -.41308374E+02 F= -.43830395E+02 E0= -.43784882E+02  EK= 0.30905E+01 SP= -.57E+00 SK= 0.29E-02 mag=     -0.128
       N       E                     dE             d eps       ncg     rms          rms(c)
DAV:   1    -0.438041001672E+02    0.24926E-01   -0.19692E-02  3584   0.105E+00    0.502E-02
RMM:   2    -0.438052273949E+02   -0.11272E-02   -0.59257E-03  1987   0.271E-01
    763 T=   676. E= -.41303048E+02 F= -.43805227E+02 E0= -.43759526E+02  EK= 0.30569E+01 SP= -.56E+00 SK= 0.46E-03 mag=     -0.159
       N       E                     dE             d eps       ncg     rms          rms(c)
DAV:   1    -0.437784123215E+02    0.25688E-01   -0.15533E-02  3304   0.940E-01    0.543E-02
RMM:   2    -0.437796972245E+02   -0.12849E-02   -0.61112E-03  1989   0.278E-01
    764 T=   671. E= -.41296848E+02 F= -.43779697E+02 E0= -.43733741E+02  EK= 0.30358E+01 SP= -.55E+00 SK= 0.14E-03 mag=     -0.106
       N       E                     dE             d eps       ncg     rms          rms(c)
DAV:   1    -0.437530460957E+02    0.25366E-01   -0.16047E-02  3368   0.101E+00    0.937E-02
RMM:   2    -0.437546068809E+02   -0.15608E-02   -0.52656E-03  1990   0.257E-01
    765 T=   669. E= -.41289952E+02 F= -.43754607E+02 E0= -.43708419E+02  EK= 0.30278E+01 SP= -.57E+00 SK= 0.21E-02 mag=      0.010
       N       E                     dE             d eps       ncg     rms          rms(c)
DAV:   1    -0.437309378701E+02    0.22108E-01   -0.13693E-02  3184   0.989E-01    0.820E-02
RMM:   2    -0.437324005960E+02   -0.14627E-02   -0.54800E-03  2001   0.285E-01
    766 T=   671. E= -.41284035E+02 F= -.43732401E+02 E0= -.43686047E+02  EK= 0.30340E+01 SP= -.59E+00 SK= 0.65E-02 mag=      0.132
       N       E                     dE             d eps       ncg     rms          rms(c)
DAV:   1    -0.437109565200E+02    0.19981E-01   -0.16358E-02  3376   0.101E+00    0.420E-02
RMM:   2    -0.437120686780E+02   -0.11122E-02   -0.62819E-03  2025   0.278E-01
    767 T=   675. E= -.41278821E+02 F= -.43712069E+02 E0= -.43665560E+02  EK= 0.30536E+01 SP= -.63E+00 SK= 0.13E-01 mag=      0.196
       N       E                     dE             d eps       ncg     rms          rms(c)
DAV:   1    -0.436890098694E+02    0.21947E-01   -0.19686E-02  3216   0.995E-01    0.956E-02
RMM:   2    -0.436907583038E+02   -0.17484E-02   -0.65688E-03  2023   0.280E-01
    768 T=   682. E= -.41271750E+02 F= -.43690758E+02 E0= -.43644071E+02  EK= 0.30863E+01 SP= -.69E+00 SK= 0.21E-01 mag=      0.155
       N       E                     dE             d eps       ncg     rms          rms(c)
DAV:   1    -0.436694113114E+02    0.19599E-01   -0.23141E-02  3696   0.104E+00    0.128E-01
RMM:   2    -0.436718806614E+02   -0.24693E-02   -0.66577E-03  2021   0.284E-01    0.104E-01
RMM:   3    -0.436734652790E+02   -0.15846E-02   -0.22948E-03  1932   0.111E-01
    769 T=   692. E= -.41267638E+02 F= -.43673465E+02 E0= -.43626460E+02  EK= 0.31319E+01 SP= -.76E+00 SK= 0.31E-01 mag=      0.048
       N       E                     dE             d eps       ncg     rms          rms(c)
DAV:   1    -0.436518517326E+02    0.20029E-01   -0.56100E-02  3400   0.992E-01    0.152E-01
RMM:   2    -0.436561445708E+02   -0.42928E-02   -0.70585E-03  1880   0.271E-01    0.127E-01
RMM:   3    -0.436574536195E+02   -0.13090E-02   -0.16357E-03  1771   0.923E-02
    770 T=   705. E= -.41263043E+02 F= -.43657454E+02 E0= -.43610335E+02  EK= 0.31908E+01 SP= -.84E+00 SK= 0.41E-01 mag=     -0.086
       N       E                     dE             d eps       ncg     rms          rms(c)
DAV:   1    -0.436441068861E+02    0.12038E-01   -0.13516E-01  3384   0.114E+00    0.130E-01
RMM:   2    -0.436464822318E+02   -0.23753E-02   -0.10593E-02  2032   0.345E-01    0.820E-02
RMM:   3    -0.436471139020E+02   -0.63167E-03   -0.17163E-03  1966   0.114E-01
    771 T=   721. E= -.41261772E+02 F= -.43647114E+02 E0= -.43599801E+02  EK= 0.32629E+01 SP= -.93E+00 SK= 0.51E-01 mag=     -0.145
       N       E                     dE             d eps       ncg     rms          rms(c)
DAV:   1    -0.436361940842E+02    0.10288E-01   -0.93262E-02  3360   0.112E+00    0.938E-02
RMM:   2    -0.436377678259E+02   -0.15737E-02   -0.77402E-03  2023   0.310E-01
    772 T=   740. E= -.41258352E+02 F= -.43637768E+02 E0= -.43590145E+02  EK= 0.33482E+01 SP= -.10E+01 SK= 0.60E-01 mag=     -0.097
       N       E                     dE             d eps       ncg     rms          rms(c)
DAV:   1    -0.436274745816E+02    0.87195E-02   -0.55286E-02  3912   0.111E+00    0.105E-01
RMM:   2    -0.436292722344E+02   -0.17977E-02   -0.64068E-03  2018   0.261E-01
    773 T=   761. E= -.41254624E+02 F= -.43629272E+02 E0= -.43581502E+02  EK= 0.34434E+01 SP= -.11E+01 SK= 0.66E-01 mag=      0.057
       N       E                     dE             d eps       ncg     rms          rms(c)
DAV:   1    -0.436222924927E+02    0.51821E-02   -0.24964E-02  3424   0.108E+00    0.116E-01
RMM:   2    -0.436246082518E+02   -0.23158E-02   -0.73111E-03  2026   0.302E-01    0.895E-02
RMM:   3    -0.436257590212E+02   -0.11508E-02   -0.22368E-03  1947   0.113E-01
    774 T=   784. E= -.41254258E+02 F= -.43625759E+02 E0= -.43578041E+02  EK= 0.35473E+01 SP= -.12E+01 SK= 0.70E-01 mag=      0.160
       N       E                     dE             d eps       ncg     rms          rms(c)
DAV:   1    -0.436236023365E+02    0.10059E-02   -0.37976E-02  3808   0.116E+00    0.950E-02
RMM:   2    -0.436252110786E+02   -0.16087E-02   -0.55082E-03  1903   0.254E-01
    775 T=   810. E= -.41250558E+02 F= -.43625211E+02 E0= -.43577208E+02  EK= 0.36626E+01 SP= -.14E+01 SK= 0.70E-01 mag=      0.160
       N       E                     dE             d eps       ncg     rms          rms(c)
DAV:   1    -0.436210740857E+02    0.25283E-02   -0.41243E-02  3952   0.118E+00    0.145E-01
RMM:   2    -0.436240459280E+02   -0.29718E-02   -0.73805E-03  2001   0.252E-01    0.117E-01
RMM:   3    -0.436273647440E+02   -0.33188E-02   -0.39863E-03  1824   0.121E-01    0.730E-02
RMM:   4    -0.436285056444E+02   -0.11409E-02   -0.17416E-03  1816   0.833E-02
    776 T=   836. E= -.41249055E+02 F= -.43628506E+02 E0= -.43580294E+02  EK= 0.37821E+01 SP= -.15E+01 SK= 0.67E-01 mag=     -0.025
       N       E                     dE             d eps       ncg     rms          rms(c)
DAV:   1    -0.436279882563E+02   -0.62351E-03   -0.28912E-02  3504   0.109E+00    0.158E-01
RMM:   2    -0.436308489540E+02   -0.28607E-02   -0.80535E-03  1896   0.270E-01    0.117E-01
RMM:   3    -0.436329517403E+02   -0.21028E-02   -0.36906E-03  1824   0.111E-01    0.778E-02
RMM:   4    -0.436340677289E+02   -0.11160E-02   -0.14029E-03  1790   0.812E-02
    777 T=   863. E= -.41247918E+02 F= -.43634068E+02 E0= -.43585821E+02  EK= 0.39029E+01 SP= -.16E+01 SK= 0.61E-01 mag=     -0.111
       N       E                     dE             d eps       ncg     rms          rms(c)
DAV:   1    -0.436413609853E+02   -0.84092E-02   -0.30080E-02  3904   0.120E+00    0.120E-01
RMM:   2    -0.436427061776E+02   -0.13452E-02   -0.46744E-03  2016   0.248E-01
    778 T=   890. E= -.41245077E+02 F= -.43642706E+02 E0= -.43594312E+02  EK= 0.40243E+01 SP= -.17E+01 SK= 0.51E-01 mag=     -0.055
       N       E                     dE             d eps       ncg     rms          rms(c)
DAV:   1    -0.436533937288E+02   -0.12033E-01   -0.30234E-02  3944   0.117E+00    0.461E-02
RMM:   2    -0.436547467371E+02   -0.13530E-02   -0.60998E-03  2039   0.276E-01
    779 T=   915. E= -.41245600E+02 F= -.43654747E+02 E0= -.43606340E+02  EK= 0.41379E+01 SP= -.18E+01 SK= 0.40E-01 mag=      0.115
       N       E                     dE             d eps       ncg     rms          rms(c)
DAV:   1    -0.436671924048E+02   -0.13799E-01   -0.28102E-02  3584   0.119E+00    0.790E-02
RMM:   2    -0.436687924988E+02   -0.16001E-02   -0.61294E-03  2031   0.288E-01
    780 T=   938. E= -.41244540E+02 F= -.43668792E+02 E0= -.43620590E+02  EK= 0.42429E+01 SP= -.18E+01 SK= 0.28E-01 mag=      0.279
       N       E                     dE             d eps       ncg     rms          rms(c)
DAV:   1    -0.436830213978E+02   -0.15829E-01   -0.38365E-02  3872   0.124E+00    0.941E-02
RMM:   2    -0.436850874396E+02   -0.20660E-02   -0.71303E-03  2044   0.304E-01    0.730E-02
RMM:   3    -0.436858296118E+02   -0.74217E-03   -0.19385E-03  1962   0.114E-01
    781 T=   959. E= -.41241847E+02 F= -.43685830E+02 E0= -.43637492E+02  EK= 0.43365E+01 SP= -.19E+01 SK= 0.16E-01 mag=      0.127
       N       E                     dE             d eps       ncg     rms          rms(c)
DAV:   1    -0.437033026976E+02   -0.18215E-01   -0.35646E-02  3720   0.122E+00    0.775E-02
RMM:   2    -0.437052092419E+02   -0.19065E-02   -0.46267E-03  1931   0.276E-01    0.567E-02
RMM:   3    -0.437054675103E+02   -0.25827E-03   -0.93938E-04  1518   0.916E-02
    782 T=   975. E= -.41239884E+02 F= -.43705468E+02 E0= -.43657010E+02  EK= 0.44120E+01 SP= -.20E+01 SK= 0.68E-02 mag=     -0.172
       N       E                     dE             d eps       ncg     rms          rms(c)
DAV:   1    -0.437221421930E+02   -0.16933E-01   -0.50953E-02  3888   0.127E+00    0.112E-01
RMM:   2    -0.437241766794E+02   -0.20345E-02   -0.60747E-03  2055   0.285E-01    0.825E-02
RMM:   3    -0.437250139824E+02   -0.83730E-03   -0.16438E-03  1919   0.109E-01
    783 T=   987. E= -.41235572E+02 F= -.43725014E+02 E0= -.43676853E+02  EK= 0.44667E+01 SP= -.20E+01 SK= 0.12E-02 mag=     -0.206
       N       E                     dE             d eps       ncg     rms          rms(c)
DAV:   1    -0.437464513408E+02   -0.22275E-01   -0.35373E-02  3880   0.128E+00    0.619E-02
RMM:   2    -0.437478750818E+02   -0.14237E-02   -0.54477E-03  2017   0.281E-01
    784 T=   994. E= -.41232940E+02 F= -.43747875E+02 E0= -.43699186E+02  EK= 0.44974E+01 SP= -.20E+01 SK= 0.24E-03 mag=      0.018
       N       E                     dE             d eps       ncg     rms          rms(c)
DAV:   1    -0.437663974618E+02   -0.19946E-01   -0.45181E-02  4048   0.127E+00    0.863E-02
RMM:   2    -0.437681334248E+02   -0.17360E-02   -0.70550E-03  2057   0.286E-01
    785 T=   995. E= -.41229194E+02 F= -.43768133E+02 E0= -.43719879E+02  EK= 0.44997E+01 SP= -.20E+01 SK= 0.45E-02 mag=      0.344
       N       E                     dE             d eps       ncg     rms          rms(c)
DAV:   1    -0.437850022078E+02   -0.18605E-01   -0.26812E-02  3240   0.120E+00    0.121E-01
RMM:   2    -0.437875801175E+02   -0.25779E-02   -0.78833E-03  2066   0.332E-01    0.974E-02
RMM:   3    -0.437890795641E+02   -0.14994E-02   -0.28442E-03  1918   0.129E-01
    786 T=   989. E= -.41227093E+02 F= -.43789080E+02 E0= -.43741028E+02  EK= 0.44743E+01 SP= -.19E+01 SK= 0.14E-01 mag=      0.170
       N       E                     dE             d eps       ncg     rms          rms(c)
DAV:   1    -0.438079255944E+02   -0.20345E-01   -0.49522E-02  3744   0.131E+00    0.109E-01
RMM:   2    -0.438102467872E+02   -0.23212E-02   -0.67613E-03  1912   0.310E-01    0.791E-02
RMM:   3    -0.438108384732E+02   -0.59169E-03   -0.13952E-03  1612   0.104E-01
    787 T=   978. E= -.41222545E+02 F= -.43810838E+02 E0= -.43762406E+02  EK= 0.44267E+01 SP= -.19E+01 SK= 0.28E-01 mag=     -0.200
       N       E                     dE             d eps       ncg     rms          rms(c)
DAV:   1    -0.438252976129E+02   -0.15051E-01   -0.64611E-02  3840   0.125E+00    0.127E-01
RMM:   2    -0.438282354711E+02   -0.29379E-02   -0.81166E-03  2029   0.296E-01    0.101E-01
RMM:   3    -0.438293700283E+02   -0.11346E-02   -0.20830E-03  1917   0.113E-01
    788 T=   962. E= -.41216671E+02 F= -.43829370E+02 E0= -.43781393E+02  EK= 0.43540E+01 SP= -.18E+01 SK= 0.45E-01 mag=     -0.307
       N       E                     dE             d eps       ncg     rms          rms(c)
DAV:   1    -0.438472849486E+02   -0.19049E-01   -0.40927E-02  3672   0.124E+00    0.864E-02
RMM:   2    -0.438489678984E+02   -0.16829E-02   -0.71828E-03  2038   0.295E-01
    789 T=   942. E= -.41213467E+02 F= -.43848968E+02 E0= -.43800276E+02  EK= 0.42600E+01 SP= -.17E+01 SK= 0.63E-01 mag=     -0.112
       N       E                     dE             d eps       ncg     rms          rms(c)
DAV:   1    -0.438628093296E+02   -0.15524E-01   -0.54050E-02  4008   0.124E+00    0.751E-02
RMM:   2    -0.438644555591E+02   -0.16462E-02   -0.74829E-03  2037   0.288E-01
    790 T=   917. E= -.41209225E+02 F= -.43864456E+02 E0= -.43815921E+02  EK= 0.41474E+01 SP= -.16E+01 SK= 0.81E-01 mag=      0.276
       N       E                     dE             d eps       ncg     rms          rms(c)
DAV:   1    -0.438736832740E+02   -0.10874E-01   -0.24356E-02  3504   0.111E+00    0.138E-01
RMM:   2    -0.438764732917E+02   -0.27900E-02   -0.79780E-03  2055   0.320E-01    0.112E-01
RMM:   3    -0.438789739022E+02   -0.25006E-02   -0.36392E-03  1899   0.140E-01    0.688E-02
RMM:   4    -0.438801048423E+02   -0.11309E-02   -0.17884E-03  1828   0.945E-02
    791 T=   889. E= -.41208192E+02 F= -.43880105E+02 E0= -.43831414E+02  EK= 0.40209E+01 SP= -.14E+01 SK= 0.98E-01 mag=      0.099
       N       E                     dE             d eps       ncg     rms          rms(c)
DAV:   1    -0.438878434547E+02   -0.88696E-02   -0.31600E-02  3704   0.120E+00    0.130E-01
RMM:   2    -0.438903170504E+02   -0.24736E-02   -0.59546E-03  1882   0.272E-01    0.103E-01
RMM:   3    -0.438916035675E+02   -0.12865E-02   -0.18210E-03  1814   0.104E-01
    792 T=   860. E= -.41201150E+02 F= -.43891604E+02 E0= -.43843113E+02  EK= 0.38898E+01 SP= -.13E+01 SK= 0.11E+00 mag=     -0.202
       N       E                     dE             d eps       ncg     rms          rms(c)
DAV:   1    -0.438999370120E+02   -0.96200E-02   -0.39063E-02  3720   0.110E+00    0.126E-01
RMM:   2    -0.439017980262E+02   -0.18610E-02   -0.67699E-03  1991   0.289E-01    0.916E-02
RMM:   3    -0.439027102484E+02   -0.91222E-03   -0.18771E-03  1927   0.111E-01
    793 T=   830. E= -.41196180E+02 F= -.43902710E+02 E0= -.43854254E+02  EK= 0.37543E+01 SP= -.12E+01 SK= 0.12E+00 mag=     -0.280
       N       E                     dE             d eps       ncg     rms          rms(c)
DAV:   1    -0.439120742341E+02   -0.10276E-01   -0.29200E-02  3920   0.109E+00    0.107E-01
RMM:   2    -0.439132323455E+02   -0.11581E-02   -0.55021E-03  1980   0.254E-01
    794 T=   800. E= -.41194249E+02 F= -.43913232E+02 E0= -.43864188E+02  EK= 0.36172E+01 SP= -.10E+01 SK= 0.12E+00 mag=     -0.096
       N       E                     dE             d eps       ncg     rms          rms(c)
DAV:   1    -0.439190359007E+02   -0.69617E-02   -0.37219E-02  3976   0.112E+00    0.945E-02
RMM:   2    -0.439204057475E+02   -0.13698E-02   -0.59135E-03  2001   0.259E-01
    795 T=   770. E= -.41191369E+02 F= -.43920406E+02 E0= -.43871446E+02  EK= 0.34832E+01 SP= -.87E+00 SK= 0.12E+00 mag=      0.251
       N       E                     dE             d eps       ncg     rms          rms(c)
DAV:   1    -0.439228808788E+02   -0.38450E-02   -0.17126E-02  3600   0.100E+00    0.140E-01
RMM:   2    -0.439253403633E+02   -0.24595E-02   -0.65737E-03  2008   0.288E-01    0.112E-01
RMM:   3    -0.439269746820E+02   -0.16343E-02   -0.21130E-03  1956   0.115E-01
    796 T=   742. E= -.41187944E+02 F= -.43926975E+02 E0= -.43878327E+02  EK= 0.33575E+01 SP= -.73E+00 SK= 0.11E+00 mag=      0.244
       N       E                     dE             d eps       ncg     rms          rms(c)
DAV:   1    -0.439332247005E+02   -0.78843E-02   -0.27492E-02  3672   0.106E+00    0.103E-01
RMM:   2    -0.439344860694E+02   -0.12614E-02   -0.55102E-03  1920   0.274E-01
    797 T=   717. E= -.41182579E+02 F= -.43934486E+02 E0= -.43885057E+02  EK= 0.32454E+01 SP= -.59E+00 SK= 0.98E-01 mag=     -0.051
       N       E                     dE             d eps       ncg     rms          rms(c)
DAV:   1    -0.439328768116E+02    0.34789E-03   -0.37046E-02  3920   0.110E+00    0.144E-01
RMM:   2    -0.439359997209E+02   -0.31229E-02   -0.66720E-03  1993   0.260E-01    0.123E-01
RMM:   3    -0.439381971450E+02   -0.21974E-02   -0.24604E-03  1856   0.106E-01    0.915E-02
RMM:   4    -0.439405721532E+02   -0.23750E-02   -0.31482E-03  1841   0.961E-02    0.358E-02
RMM:   5    -0.439407609015E+02   -0.18875E-03   -0.41351E-04  1592   0.512E-02
    798 T=   695. E= -.41179113E+02 F= -.43940761E+02 E0= -.43891186E+02  EK= 0.31422E+01 SP= -.46E+00 SK= 0.83E-01 mag=     -0.047
       N       E                     dE             d eps       ncg     rms          rms(c)
DAV:   1    -0.439393105424E+02    0.12616E-02   -0.22738E-02  3456   0.958E-01    0.125E-01
RMM:   2    -0.439418110071E+02   -0.25005E-02   -0.64138E-03  1886   0.226E-01    0.107E-01
RMM:   3    -0.439432928515E+02   -0.14818E-02   -0.17464E-03  1814   0.880E-02
    799 T=   674. E= -.41174829E+02 F= -.43943293E+02 E0= -.43893648E+02  EK= 0.30497E+01 SP= -.35E+00 SK= 0.66E-01 mag=      0.021
       N       E                     dE             d eps       ncg     rms          rms(c)
DAV:   1    -0.439477017651E+02   -0.58908E-02   -0.42829E-02  3544   0.107E+00    0.749E-02
RMM:   2    -0.439490720120E+02   -0.13702E-02   -0.73734E-03  2014   0.317E-01
    800 T=   657. E= -.41171631E+02 F= -.43949072E+02 E0= -.43899290E+02  EK= 0.29737E+01 SP= -.25E+00 SK= 0.49E-01 mag=      0.129
       N       E                     dE             d eps       ncg     rms          rms(c)
DAV:   1    -0.439511515544E+02   -0.34498E-02   -0.56843E-02  3440   0.968E-01    0.642E-02
RMM:   2    -0.439522622027E+02   -0.11106E-02   -0.67103E-03  1998   0.288E-01
    801 T=   643. E= -.41167346E+02 F= -.43952262E+02 E0= -.43902451E+02  EK= 0.29111E+01 SP= -.16E+00 SK= 0.33E-01 mag=      0.209
       N       E                     dE             d eps       ncg     rms          rms(c)
DAV:   1    -0.439540754874E+02   -0.29239E-02   -0.23911E-02  3168   0.929E-01    0.746E-02
RMM:   2    -0.439552598048E+02   -0.11843E-02   -0.63073E-03  1997   0.282E-01
    802 T=   633. E= -.41163037E+02 F= -.43955260E+02 E0= -.43905246E+02  EK= 0.28636E+01 SP= -.91E-01 SK= 0.20E-01 mag=      0.182
       N       E                     dE             d eps       ncg     rms          rms(c)
DAV:   1    -0.439578495028E+02   -0.37740E-02   -0.14517E-02  3448   0.101E+00    0.588E-02
RMM:   2    -0.439590275793E+02   -0.11781E-02   -0.57822E-03  2001   0.278E-01
    803 T=   626. E= -.41157407E+02 F= -.43959028E+02 E0= -.43908746E+02  EK= 0.28336E+01 SP= -.41E-01 SK= 0.90E-02 mag=      0.033
       N       E                     dE             d eps       ncg     rms          rms(c)
DAV:   1    -0.439614496126E+02   -0.36001E-02   -0.10747E-02  3200   0.919E-01    0.563E-02
RMM:   2    -0.439623639768E+02   -0.91436E-03   -0.50885E-03  1991   0.282E-01
    804 T=   623. E= -.41151129E+02 F= -.43962364E+02 E0= -.43912102E+02  EK= 0.28194E+01 SP= -.11E-01 SK= 0.24E-02 mag=     -0.176
       N       E                     dE             d eps       ncg     rms          rms(c)
DAV:   1    -0.439630376311E+02   -0.15880E-02   -0.10342E-02  2784   0.962E-01    0.772E-02
RMM:   2    -0.439641988914E+02   -0.11613E-02   -0.54829E-03  1999   0.264E-01
    805 T=   623. E= -.41143877E+02 F= -.43964199E+02 E0= -.43914131E+02  EK= 0.28201E+01 SP= 0.24E-03 SK= 0.46E-05 mag=     -0.326
       N       E                     dE             d eps       ncg     rms          rms(c)
DAV:   1    -0.439643534927E+02   -0.13159E-02   -0.12539E-02  3120   0.931E-01    0.925E-02
RMM:   2    -0.439658967037E+02   -0.15432E-02   -0.63970E-03  2039   0.285E-01
    806 T=   627. E= -.41136434E+02 F= -.43965897E+02 E0= -.43915682E+02  EK= 0.28362E+01 SP= -.87E-02 SK= 0.19E-02 mag=     -0.286
       N       E                     dE             d eps       ncg     rms          rms(c)
DAV:   1    -0.439680722304E+02   -0.37187E-02   -0.16301E-02  3352   0.964E-01    0.720E-02
RMM:   2    -0.439691024900E+02   -0.10303E-02   -0.55747E-03  2022   0.281E-01
    807 T=   634. E= -.41130904E+02 F= -.43969102E+02 E0= -.43918412E+02  EK= 0.28673E+01 SP= -.37E-01 SK= 0.79E-02 mag=     -0.048
       N       E                     dE             d eps       ncg     rms          rms(c)
DAV:   1    -0.439685939172E+02   -0.52169E-03   -0.14850E-02  3136   0.933E-01    0.740E-02
RMM:   2    -0.439698287716E+02   -0.12349E-02   -0.59295E-03  1993   0.276E-01
    808 T=   644. E= -.41124677E+02 F= -.43969829E+02 E0= -.43919347E+02  EK= 0.29118E+01 SP= -.84E-01 SK= 0.17E-01 mag=      0.270
       N       E                     dE             d eps       ncg     rms          rms(c)
DAV:   1    -0.439651541734E+02    0.34397E-02   -0.14013E-02  3176   0.967E-01    0.121E-01
RMM:   2    -0.439671120729E+02   -0.19579E-02   -0.63069E-03  1995   0.275E-01    0.995E-02
RMM:   3    -0.439686458561E+02   -0.15338E-02   -0.25382E-03  1924   0.118E-01
    809 T=   656. E= -.41118843E+02 F= -.43968646E+02 E0= -.43918525E+02  EK= 0.29687E+01 SP= -.15E+00 SK= 0.29E-01 mag=      0.176
       N       E                     dE             d eps       ncg     rms          rms(c)
DAV:   1    -0.439655373192E+02    0.15748E-02   -0.30134E-02  3216   0.960E-01    0.110E-01
RMM:   2    -0.439676103568E+02   -0.20730E-02   -0.63210E-03  1913   0.278E-01    0.852E-02
RMM:   3    -0.439680932482E+02   -0.48289E-03   -0.12507E-03  1692   0.934E-02
    810 T=   672. E= -.41115466E+02 F= -.43968093E+02 E0= -.43917311E+02  EK= 0.30384E+01 SP= -.23E+00 SK= 0.43E-01 mag=     -0.134
       N       E                     dE             d eps       ncg     rms          rms(c)
DAV:   1    -0.439609077377E+02    0.67026E-02   -0.58407E-02  3312   0.987E-01    0.136E-01
RMM:   2    -0.439630870801E+02   -0.21793E-02   -0.77103E-03  1996   0.281E-01    0.100E-01
RMM:   3    -0.439640367871E+02   -0.94971E-03   -0.18266E-03  1967   0.106E-01
    811 T=   690. E= -.41110207E+02 F= -.43964037E+02 E0= -.43913962E+02  EK= 0.31202E+01 SP= -.32E+00 SK= 0.57E-01 mag=     -0.311
       N       E                     dE             d eps       ncg     rms          rms(c)
DAV:   1    -0.439589000088E+02    0.41871E-02   -0.38929E-02  3344   0.117E+00    0.100E-01
RMM:   2    -0.439605656745E+02   -0.16657E-02   -0.77826E-03  1951   0.303E-01
    812 T=   711. E= -.41105779E+02 F= -.43960566E+02 E0= -.43909769E+02  EK= 0.32150E+01 SP= -.43E+00 SK= 0.70E-01 mag=     -0.266
       N       E                     dE             d eps       ncg     rms          rms(c)
DAV:   1    -0.439508897504E+02    0.80103E-02   -0.47052E-02  3712   0.106E+00    0.901E-02
RMM:   2    -0.439523947947E+02   -0.15050E-02   -0.71358E-03  2008   0.274E-01
    813 T=   733. E= -.41100079E+02 F= -.43952395E+02 E0= -.43901236E+02  EK= 0.33181E+01 SP= -.55E+00 SK= 0.82E-01 mag=      0.003
       N       E                     dE             d eps       ncg     rms          rms(c)
DAV:   1    -0.439383918853E+02    0.12498E-01   -0.20320E-02  3280   0.998E-01    0.129E-01
RMM:   2    -0.439407724020E+02   -0.23805E-02   -0.77642E-03  1998   0.300E-01    0.106E-01
RMM:   3    -0.439430766552E+02   -0.23043E-02   -0.32728E-03  1908   0.129E-01    0.701E-02
RMM:   4    -0.439443522817E+02   -0.12756E-02   -0.19370E-03  1826   0.906E-02
    814 T=   757. E= -.41100461E+02 F= -.43944352E+02 E0= -.43893138E+02  EK= 0.34257E+01 SP= -.67E+00 SK= 0.90E-01 mag=      0.092
       N       E                     dE             d eps       ncg     rms          rms(c)
DAV:   1    -0.439241226036E+02    0.18954E-01   -0.34488E-02  3472   0.107E+00    0.150E-01
RMM:   2    -0.439269622421E+02   -0.28396E-02   -0.82996E-03  1861   0.277E-01    0.122E-01
RMM:   3    -0.439291427495E+02   -0.21805E-02   -0.29813E-03  1824   0.106E-01    0.930E-02
RMM:   4    -0.439315409165E+02   -0.23982E-02   -0.37863E-03  1857   0.921E-02    0.385E-02
RMM:   5    -0.439317855501E+02   -0.24463E-03   -0.44716E-04  1603   0.521E-02
    815 T=   782. E= -.41098878E+02 F= -.43931786E+02 E0= -.43880336E+02  EK= 0.35391E+01 SP= -.80E+00 SK= 0.95E-01 mag=      0.012
       N       E                     dE             d eps       ncg     rms          rms(c)
DAV:   1    -0.439139860957E+02    0.17555E-01   -0.12304E-02  3104   0.101E+00    0.606E-02
RMM:   2    -0.439148798451E+02   -0.89375E-03   -0.51007E-03  1990   0.266E-01
    816 T=   809. E= -.41093527E+02 F= -.43914880E+02 E0= -.43863510E+02  EK= 0.36579E+01 SP= -.93E+00 SK= 0.96E-01 mag=     -0.187
       N       E                     dE             d eps       ncg     rms          rms(c)
DAV:   1    -0.438913586270E+02    0.22627E-01   -0.21046E-02  4024   0.113E+00    0.916E-02
RMM:   2    -0.438930527449E+02   -0.16941E-02   -0.59792E-03  1990   0.257E-01
    817 T=   834. E= -.41088708E+02 F= -.43893053E+02 E0= -.43842190E+02  EK= 0.37746E+01 SP= -.11E+01 SK= 0.92E-01 mag=     -0.390
       N       E                     dE             d eps       ncg     rms          rms(c)
DAV:   1    -0.438659863687E+02    0.25372E-01   -0.17025E-02  2968   0.106E+00    0.117E-01
RMM:   2    -0.438680649168E+02   -0.20785E-02   -0.64644E-03  2008   0.306E-01    0.962E-02
RMM:   3    -0.438699710618E+02   -0.19061E-02   -0.28158E-03  1912   0.130E-01    0.647E-02
RMM:   4    -0.438713106318E+02   -0.13396E-02   -0.23212E-03  1842   0.103E-01
    818 T=   859. E= -.41090373E+02 F= -.43871311E+02 E0= -.43819602E+02  EK= 0.38850E+01 SP= -.12E+01 SK= 0.85E-01 mag=     -0.109
       N       E                     dE             d eps       ncg     rms          rms(c)
DAV:   1    -0.438347040854E+02    0.35267E-01   -0.37284E-02  3672   0.115E+00    0.154E-01
RMM:   2    -0.438375869144E+02   -0.28828E-02   -0.62256E-03  1873   0.254E-01    0.126E-01
RMM:   3    -0.438403771789E+02   -0.27903E-02   -0.31884E-03  1824   0.107E-01    0.918E-02
RMM:   4    -0.438425157154E+02   -0.21385E-02   -0.25420E-03  1831   0.868E-02    0.471E-02
RMM:   5    -0.438430042373E+02   -0.48852E-03   -0.69762E-04  1618   0.524E-02
    819 T=   882. E= -.41088153E+02 F= -.43843004E+02 E0= -.43791169E+02  EK= 0.39892E+01 SP= -.13E+01 SK= 0.75E-01 mag=      0.094
       N       E                     dE             d eps       ncg     rms          rms(c)
DAV:   1    -0.438085797305E+02    0.33936E-01   -0.16175E-02  3456   0.107E+00    0.723E-02
RMM:   2    -0.438095718206E+02   -0.99209E-03   -0.43463E-03  1904   0.260E-01
    820 T=   903. E= -.41082066E+02 F= -.43809572E+02 E0= -.43757626E+02  EK= 0.40853E+01 SP= -.14E+01 SK= 0.62E-01 mag=      0.155
       N       E                     dE             d eps       ncg     rms          rms(c)
DAV:   1    -0.437691932529E+02    0.39386E-01   -0.21649E-02  3904   0.124E+00    0.926E-02
RMM:   2    -0.437708803156E+02   -0.16871E-02   -0.70581E-03  2016   0.278E-01
    821 T=   921. E= -.41076724E+02 F= -.43770880E+02 E0= -.43718697E+02  EK= 0.41651E+01 SP= -.15E+01 SK= 0.48E-01 mag=      0.053
       N       E                     dE             d eps       ncg     rms          rms(c)
DAV:   1    -0.437262053192E+02    0.42988E-01   -0.14010E-02  2944   0.110E+00    0.108E-01
RMM:   2    -0.437280965776E+02   -0.18913E-02   -0.61414E-03  2026   0.304E-01    0.870E-02
RMM:   3    -0.437295095670E+02   -0.14130E-02   -0.25688E-03  1852   0.129E-01
    822 T=   934. E= -.41075226E+02 F= -.43729510E+02 E0= -.43677236E+02  EK= 0.42246E+01 SP= -.16E+01 SK= 0.34E-01 mag=     -0.089
       N       E                     dE             d eps       ncg     rms          rms(c)
DAV:   1    -0.436793069017E+02    0.48790E-01   -0.40990E-02  3720   0.117E+00    0.123E-01
RMM:   2    -0.436818177351E+02   -0.25108E-02   -0.64646E-03  1948   0.303E-01    0.101E-01
RMM:   3    -0.436830971652E+02   -0.12794E-02   -0.19715E-03  1760   0.113E-01
    823 T=   943. E= -.41068832E+02 F= -.43683097E+02 E0= -.43630714E+02  EK= 0.42677E+01 SP= -.17E+01 SK= 0.22E-01 mag=     -0.118
       N       E                     dE             d eps       ncg     rms          rms(c)
DAV:   1    -0.436312544436E+02    0.50563E-01   -0.42286E-02  3560   0.115E+00    0.116E-01
RMM:   2    -0.436326590377E+02   -0.14046E-02   -0.62906E-03  2019   0.286E-01
    824 T=   948. E= -.41062389E+02 F= -.43632659E+02 E0= -.43580046E+02  EK= 0.42886E+01 SP= -.17E+01 SK= 0.12E-01 mag=     -0.020
       N       E                     dE             d eps       ncg     rms          rms(c)
DAV:   1    -0.435783847963E+02    0.52870E-01   -0.28483E-02  3776   0.119E+00    0.909E-02
RMM:   2    -0.435795221458E+02   -0.11373E-02   -0.61488E-03  2025   0.272E-01
    825 T=   947. E= -.41060123E+02 F= -.43579522E+02 E0= -.43526911E+02  EK= 0.42832E+01 SP= -.18E+01 SK= 0.51E-02 mag=      0.163
       N       E                     dE             d eps       ncg     rms          rms(c)
DAV:   1    -0.435201074124E+02    0.58277E-01   -0.28526E-02  3856   0.118E+00    0.104E-01
RMM:   2    -0.435214563596E+02   -0.13489E-02   -0.69841E-03  2029   0.321E-01
    826 T=   941. E= -.41054870E+02 F= -.43521456E+02 E0= -.43469191E+02  EK= 0.42563E+01 SP= -.18E+01 SK= 0.11E-02 mag=      0.346
       N       E                     dE             d eps       ncg     rms          rms(c)
DAV:   1    -0.434556032078E+02    0.64504E-01   -0.28350E-02  3536   0.124E+00    0.121E-01
RMM:   2    -0.434581099325E+02   -0.25067E-02   -0.71570E-03  2054   0.297E-01    0.101E-01
RMM:   3    -0.434599546635E+02   -0.18447E-02   -0.26574E-03  1910   0.121E-01    0.779E-02
RMM:   4    -0.434617954957E+02   -0.18408E-02   -0.33817E-03  1893   0.978E-02    0.239E-02
RMM:   5    -0.434618798124E+02   -0.84317E-04   -0.34527E-04  1561   0.506E-02
    827 T=   930. E= -.41050878E+02 F= -.43461880E+02 E0= -.43409152E+02  EK= 0.42082E+01 SP= -.18E+01 SK= 0.52E-05 mag=      0.082
       N       E                     dE             d eps       ncg     rms          rms(c)
DAV:   1    -0.433930658431E+02    0.68730E-01   -0.23767E-02  3248   0.112E+00    0.138E-01
RMM:   2    -0.433954731774E+02   -0.24073E-02   -0.64981E-03  1889   0.280E-01    0.109E-01
RMM:   3    -0.433969852093E+02   -0.15120E-02   -0.20477E-03  1813   0.105E-01
    828 T=   915. E= -.41044028E+02 F= -.43396985E+02 E0= -.43345035E+02  EK= 0.41407E+01 SP= -.18E+01 SK= 0.12E-02 mag=     -0.274
       N       E                     dE             d eps       ncg     rms          rms(c)
DAV:   1    -0.433314451555E+02    0.64028E-01   -0.32797E-02  3824   0.115E+00    0.126E-01
RMM:   2    -0.433331884480E+02   -0.17433E-02   -0.61249E-03  2043   0.282E-01
    829 T=   897. E= -.41037150E+02 F= -.43333188E+02 E0= -.43282219E+02  EK= 0.40600E+01 SP= -.18E+01 SK= 0.39E-02 mag=     -0.536
       N       E                     dE             d eps       ncg     rms          rms(c)
DAV:   1    -0.432688507904E+02    0.62594E-01   -0.36540E-02  3648   0.116E+00    0.960E-02
RMM:   2    -0.432705139341E+02   -0.16631E-02   -0.65075E-03  2017   0.286E-01
    830 T=   876. E= -.41035104E+02 F= -.43270514E+02 E0= -.43219486E+02  EK= 0.39640E+01 SP= -.17E+01 SK= 0.73E-02 mag=     -0.563
       N       E                     dE             d eps       ncg     rms          rms(c)
DAV:   1    -0.432076861988E+02    0.61165E-01   -0.23399E-02  3488   0.109E+00    0.705E-02
RMM:   2    -0.432088905764E+02   -0.12044E-02   -0.69732E-03  2026   0.298E-01
    831 T=   854. E= -.41031222E+02 F= -.43208891E+02 E0= -.43156987E+02  EK= 0.38625E+01 SP= -.17E+01 SK= 0.11E-01 mag=     -0.285
       N       E                     dE             d eps       ncg     rms          rms(c)
DAV:   1    -0.431445317896E+02    0.63154E-01   -0.22934E-02  3144   0.117E+00    0.844E-02
RMM:   2    -0.431461246242E+02   -0.15928E-02   -0.67737E-03  2007   0.289E-01
    832 T=   831. E= -.41022820E+02 F= -.43146125E+02 E0= -.43094366E+02  EK= 0.37593E+01 SP= -.16E+01 SK= 0.13E-01 mag=      0.232
       N       E                     dE             d eps       ncg     rms          rms(c)
DAV:   1    -0.430805016610E+02    0.64030E-01   -0.13836E-02  3416   0.106E+00    0.143E-01
RMM:   2    -0.430832338080E+02   -0.27321E-02   -0.68987E-03  1999   0.307E-01    0.119E-01
RMM:   3    -0.430863472555E+02   -0.31134E-02   -0.46335E-03  1824   0.141E-01    0.765E-02
RMM:   4    -0.430880626584E+02   -0.17154E-02   -0.27903E-03  1833   0.108E-01
    833 T=   808. E= -.41019686E+02 F= -.43088063E+02 E0= -.43036835E+02  EK= 0.36533E+01 SP= -.16E+01 SK= 0.14E-01 mag=      0.201
       N       E                     dE             d eps       ncg     rms          rms(c)
DAV:   1    -0.430242119142E+02    0.62135E-01   -0.27009E-02  3584   0.110E+00    0.158E-01
RMM:   2    -0.430275012905E+02   -0.32894E-02   -0.78446E-03  1846   0.259E-01    0.130E-01
RMM:   3    -0.430305664337E+02   -0.30651E-02   -0.39322E-03  1824   0.114E-01    0.867E-02
RMM:   4    -0.430324208353E+02   -0.18544E-02   -0.22392E-03  1826   0.845E-02    0.407E-02
RMM:   5    -0.430327081176E+02   -0.28728E-03   -0.46789E-04  1572   0.487E-02
    834 T=   785. E= -.41016863E+02 F= -.43032708E+02 E0= -.42981214E+02  EK= 0.35503E+01 SP= -.15E+01 SK= 0.14E-01 mag=     -0.063
       N       E                     dE             d eps       ncg     rms          rms(c)
DAV:   1    -0.429778992707E+02    0.54522E-01   -0.20708E-02  3456   0.102E+00    0.901E-02
RMM:   2    -0.429789860157E+02   -0.10867E-02   -0.47974E-03  1910   0.247E-01
    835 T=   764. E= -.41009643E+02 F= -.42978986E+02 E0= -.42928805E+02  EK= 0.34563E+01 SP= -.15E+01 SK= 0.12E-01 mag=     -0.421
       N       E                     dE             d eps       ncg     rms          rms(c)
DAV:   1    -0.429259973486E+02    0.51902E-01   -0.20340E-02  3912   0.110E+00    0.132E-01
RMM:   2    -0.429284522418E+02   -0.24549E-02   -0.64174E-03  1980   0.253E-01    0.109E-01
RMM:   3    -0.429297501576E+02   -0.12979E-02   -0.18728E-03  1914   0.104E-01
    836 T=   745. E= -.41003456E+02 F= -.42929750E+02 E0= -.42880730E+02  EK= 0.33707E+01 SP= -.15E+01 SK= 0.98E-02 mag=     -0.333
       N       E                     dE             d eps       ncg     rms          rms(c)
DAV:   1    -0.428882924986E+02    0.40160E-01   -0.37766E-02  3288   0.108E+00    0.998E-02
RMM:   2    -0.428900523781E+02   -0.17599E-02   -0.64614E-03  1916   0.275E-01
    837 T=   729. E= -.41001933E+02 F= -.42890052E+02 E0= -.42839552E+02  EK= 0.32967E+01 SP= -.14E+01 SK= 0.68E-02 mag=      0.172
       N       E                     dE             d eps       ncg     rms          rms(c)
DAV:   1    -0.428434547797E+02    0.44838E-01   -0.71273E-02  3824   0.112E+00    0.171E-01
RMM:   2    -0.428466367037E+02   -0.31819E-02   -0.82324E-03  1992   0.277E-01    0.136E-01
RMM:   3    -0.428497125440E+02   -0.30758E-02   -0.34547E-03  1924   0.124E-01    0.109E-01
RMM:   4    -0.428529297545E+02   -0.32172E-02   -0.46783E-03  1966   0.103E-01    0.550E-02
RMM:   5    -0.428536665571E+02   -0.73680E-03   -0.14449E-03  1830   0.693E-02
    838 T=   715. E= -.40998168E+02 F= -.42853667E+02 E0= -.42803585E+02  EK= 0.32361E+01 SP= -.14E+01 SK= 0.38E-02 mag=      0.160
       N       E                     dE             d eps       ncg     rms          rms(c)
DAV:   1    -0.428153732065E+02    0.37557E-01   -0.21384E-02  3264   0.978E-01    0.160E-01
RMM:   2    -0.428181002842E+02   -0.27271E-02   -0.79386E-03  1914   0.262E-01    0.125E-01
RMM:   3    -0.428206226094E+02   -0.25223E-02   -0.32534E-03  1824   0.108E-01    0.946E-02
RMM:   4    -0.428225323598E+02   -0.19098E-02   -0.26314E-03  1828   0.801E-02    0.451E-02
RMM:   5    -0.428228217934E+02   -0.28943E-03   -0.33381E-04  1532   0.439E-02
    839 T=   705. E= -.40996909E+02 F= -.42822822E+02 E0= -.42772802E+02  EK= 0.31875E+01 SP= -.14E+01 SK= 0.15E-02 mag=     -0.103
       N       E                     dE             d eps       ncg     rms          rms(c)
DAV:   1    -0.427951963870E+02    0.27336E-01   -0.17010E-02  3432   0.971E-01    0.901E-02
RMM:   2    -0.427962834912E+02   -0.10871E-02   -0.44585E-03  1956   0.236E-01
    840 T=   698. E= -.40991204E+02 F= -.42796283E+02 E0= -.42747622E+02  EK= 0.31571E+01 SP= -.14E+01 SK= 0.15E-03 mag=     -0.436
       N       E                     dE             d eps       ncg     rms          rms(c)
DAV:   1    -0.427727452277E+02    0.22451E-01   -0.15972E-02  3616   0.101E+00    0.125E-01
RMM:   2    -0.427750257640E+02   -0.22805E-02   -0.65247E-03  1981   0.260E-01    0.100E-01
RMM:   3    -0.427762451069E+02   -0.12193E-02   -0.19018E-03  1898   0.108E-01
    841 T=   695. E= -.40986466E+02 F= -.42776245E+02 E0= -.42728336E+02  EK= 0.31423E+01 SP= -.14E+01 SK= 0.24E-03 mag=     -0.342
       N       E                     dE             d eps       ncg     rms          rms(c)
DAV:   1    -0.427638534734E+02    0.11172E-01   -0.26003E-02  3336   0.115E+00    0.963E-02
RMM:   2    -0.427653136549E+02   -0.14602E-02   -0.53745E-03  1896   0.264E-01
    842 T=   695. E= -.40984064E+02 F= -.42765314E+02 E0= -.42715930E+02  EK= 0.31446E+01 SP= -.14E+01 SK= 0.19E-02 mag=      0.145
       N       E                     dE             d eps       ncg     rms          rms(c)
DAV:   1    -0.427498365916E+02    0.14017E-01   -0.49118E-02  3616   0.106E+00    0.159E-01
RMM:   2    -0.427524351202E+02   -0.25985E-02   -0.72033E-03  1992   0.260E-01    0.124E-01
RMM:   3    -0.427551593780E+02   -0.27243E-02   -0.32426E-03  1905   0.121E-01    0.946E-02
RMM:   4    -0.427573911586E+02   -0.22318E-02   -0.26507E-03  1879   0.907E-02    0.498E-02
RMM:   5    -0.427579272166E+02   -0.53606E-03   -0.82248E-04  1639   0.573E-02
    843 T=   699. E= -.40979745E+02 F= -.42757927E+02 E0= -.42709121E+02  EK= 0.31625E+01 SP= -.14E+01 SK= 0.49E-02 mag=      0.164
       N       E                     dE             d eps       ncg     rms          rms(c)
DAV:   1    -0.427515758875E+02    0.58153E-02   -0.13761E-02  3080   0.956E-01    0.136E-01
RMM:   2    -0.427535124531E+02   -0.19366E-02   -0.59069E-03  1875   0.254E-01    0.102E-01
RMM:   3    -0.427552439798E+02   -0.17315E-02   -0.25132E-03  1824   0.104E-01
    844 T=   706. E= -.40976961E+02 F= -.42755244E+02 E0= -.42706237E+02  EK= 0.31937E+01 SP= -.14E+01 SK= 0.92E-02 mag=     -0.113
       N       E                     dE             d eps       ncg     rms          rms(c)
DAV:   1    -0.427553462456E+02   -0.18338E-02   -0.28855E-02  3480   0.104E+00    0.109E-01
RMM:   2    -0.427567759766E+02   -0.14297E-02   -0.56019E-03  1984   0.261E-01
    845 T=   717. E= -.40971295E+02 F= -.42756776E+02 E0= -.42709592E+02  EK= 0.32417E+01 SP= -.15E+01 SK= 0.14E-01 mag=     -0.533
       N       E                     dE             d eps       ncg     rms          rms(c)
DAV:   1    -0.427593857416E+02   -0.40395E-02   -0.31202E-02  3528   0.105E+00    0.140E-01
RMM:   2    -0.427617055623E+02   -0.23198E-02   -0.62922E-03  1995   0.266E-01    0.112E-01
RMM:   3    -0.427629399708E+02   -0.12344E-02   -0.21036E-03  1907   0.110E-01
    846 T=   730. E= -.40967565E+02 F= -.42762940E+02 E0= -.42717333E+02  EK= 0.33015E+01 SP= -.15E+01 SK= 0.20E-01 mag=     -0.491
       N       E                     dE             d eps       ncg     rms          rms(c)
DAV:   1    -0.427752769899E+02   -0.13571E-01   -0.31411E-02  3256   0.108E+00    0.125E-01
RMM:   2    -0.427767047550E+02   -0.14278E-02   -0.67958E-03  1921   0.281E-01
    847 T=   746. E= -.40965587E+02 F= -.42776705E+02 E0= -.42727927E+02  EK= 0.33754E+01 SP= -.16E+01 SK= 0.24E-01 mag=      0.018
       N       E                     dE             d eps       ncg     rms          rms(c)
DAV:   1    -0.427829357089E+02   -0.76587E-02   -0.57553E-02  3584   0.110E+00    0.163E-01
RMM:   2    -0.427860871232E+02   -0.31514E-02   -0.86343E-03  1994   0.276E-01    0.130E-01
RMM:   3    -0.427881362811E+02   -0.20492E-02   -0.31379E-03  1894   0.118E-01    0.106E-01
RMM:   4    -0.427908600403E+02   -0.27238E-02   -0.41930E-03  1914   0.958E-02    0.570E-02
RMM:   5    -0.427914616406E+02   -0.60160E-03   -0.73330E-04  1649   0.602E-02
    848 T=   765. E= -.40961382E+02 F= -.42791462E+02 E0= -.42743364E+02  EK= 0.34596E+01 SP= -.17E+01 SK= 0.28E-01 mag=      0.233
       N       E                     dE             d eps       ncg     rms          rms(c)
DAV:   1    -0.428027849292E+02   -0.11925E-01   -0.23763E-02  3384   0.107E+00    0.184E-01
RMM:   2    -0.428053516429E+02   -0.25667E-02   -0.79510E-03  1940   0.277E-01    0.135E-01
RMM:   3    -0.428070961699E+02   -0.17445E-02   -0.28641E-03  1828   0.119E-01
    849 T=   784. E= -.40958254E+02 F= -.42807096E+02 E0= -.42758501E+02  EK= 0.35491E+01 SP= -.17E+01 SK= 0.31E-01 mag=      0.086
       N       E                     dE             d eps       ncg     rms          rms(c)
DAV:   1    -0.428246350146E+02   -0.19283E-01   -0.35766E-02  3624   0.111E+00    0.118E-01
RMM:   2    -0.428262974793E+02   -0.16625E-02   -0.63383E-03  2016   0.300E-01
    850 T=   806. E= -.40954512E+02 F= -.42826297E+02 E0= -.42778168E+02  EK= 0.36463E+01 SP= -.18E+01 SK= 0.31E-01 mag=     -0.315
       N       E                     dE             d eps       ncg     rms          rms(c)
DAV:   1    -0.428428923455E+02   -0.18257E-01   -0.43708E-02  3648   0.114E+00    0.136E-01
RMM:   2    -0.428450437268E+02   -0.21514E-02   -0.76789E-03  2006   0.299E-01    0.105E-01
RMM:   3    -0.428460553036E+02   -0.10116E-02   -0.23251E-03  1985   0.117E-01
    851 T=   828. E= -.40951815E+02 F= -.42846055E+02 E0= -.42800028E+02  EK= 0.37444E+01 SP= -.19E+01 SK= 0.29E-01 mag=     -0.480
       N       E                     dE             d eps       ncg     rms          rms(c)
DAV:   1    -0.428664604920E+02   -0.21417E-01   -0.28973E-02  3344   0.119E+00    0.157E-01
RMM:   2    -0.428679966817E+02   -0.15362E-02   -0.63895E-03  1937   0.290E-01
    852 T=   850. E= -.40947013E+02 F= -.42867997E+02 E0= -.42820157E+02  EK= 0.38455E+01 SP= -.20E+01 SK= 0.26E-01 mag=     -0.344
       N       E                     dE             d eps       ncg     rms          rms(c)
DAV:   1    -0.428843456579E+02   -0.17885E-01   -0.39152E-02  4056   0.119E+00    0.166E-01
RMM:   2    -0.428876268470E+02   -0.32812E-02   -0.80359E-03  1980   0.265E-01    0.128E-01
RMM:   3    -0.428900564677E+02   -0.24296E-02   -0.31285E-03  1855   0.120E-01    0.911E-02
RMM:   4    -0.428917155036E+02   -0.16590E-02   -0.19169E-03  1816   0.803E-02
    853 T=   872. E= -.40943151E+02 F= -.42891716E+02 E0= -.42842904E+02  EK= 0.39434E+01 SP= -.20E+01 SK= 0.21E-01 mag=     -0.004
       N       E                     dE             d eps       ncg     rms          rms(c)
DAV:   1    -0.429068529796E+02   -0.16797E-01   -0.15188E-02  3192   0.110E+00    0.196E-01
RMM:   2    -0.429096223954E+02   -0.27694E-02   -0.80691E-03  1878   0.304E-01    0.142E-01
RMM:   3    -0.429115623755E+02   -0.19400E-02   -0.33764E-03  1824   0.130E-01    0.104E-01
RMM:   4    -0.429130425156E+02   -0.14801E-02   -0.24159E-03  1826   0.997E-02
    854 T=   891. E= -.40941017E+02 F= -.42913043E+02 E0= -.42864858E+02  EK= 0.40300E+01 SP= -.21E+01 SK= 0.15E-01 mag=      0.312
       N       E                     dE             d eps       ncg     rms          rms(c)
DAV:   1    -0.429300148860E+02   -0.18453E-01   -0.17898E-02  3592   0.117E+00    0.140E-01
RMM:   2    -0.429317832564E+02   -0.17684E-02   -0.59363E-03  1993   0.269E-01
    855 T=   908. E= -.40934031E+02 F= -.42931783E+02 E0= -.42884366E+02  EK= 0.41088E+01 SP= -.21E+01 SK= 0.95E-02 mag=      0.437
       N       E                     dE             d eps       ncg     rms          rms(c)
DAV:   1    -0.429522602332E+02   -0.22245E-01   -0.26660E-02  3984   0.121E+00    0.101E-01
RMM:   2    -0.429537325740E+02   -0.14723E-02   -0.67893E-03  1990   0.296E-01
    856 T=   922. E= -.40933397E+02 F= -.42953733E+02 E0= -.42905374E+02  EK= 0.41716E+01 SP= -.22E+01 SK= 0.45E-02 mag=      0.307
       N       E                     dE             d eps       ncg     rms          rms(c)
DAV:   1    -0.429729399964E+02   -0.20680E-01   -0.24685E-02  3496   0.115E+00    0.553E-02
RMM:   2    -0.429740887705E+02   -0.11488E-02   -0.70790E-03  2010   0.299E-01
    857 T=   933. E= -.40931292E+02 F= -.42974089E+02 E0= -.42925109E+02  EK= 0.42191E+01 SP= -.22E+01 SK= 0.11E-02 mag=     -0.061
       N       E                     dE             d eps       ncg     rms          rms(c)
DAV:   1    -0.429862261150E+02   -0.13286E-01   -0.26184E-02  3608   0.121E+00    0.115E-01
RMM:   2    -0.429885084882E+02   -0.22824E-02   -0.82555E-03  2004   0.310E-01    0.950E-02
RMM:   3    -0.429896218857E+02   -0.11134E-02   -0.26925E-03  1898   0.119E-01
    858 T=   939. E= -.40923934E+02 F= -.42989622E+02 E0= -.42942033E+02  EK= 0.42499E+01 SP= -.22E+01 SK= 0.55E-05 mag=     -0.326
       N       E                     dE             d eps       ncg     rms          rms(c)
DAV:   1    -0.430049211832E+02   -0.16413E-01   -0.28046E-02  3384   0.124E+00    0.970E-02
RMM:   2    -0.430063943028E+02   -0.14731E-02   -0.65785E-03  1968   0.314E-01
    859 T=   942. E= -.40916619E+02 F= -.43006394E+02 E0= -.42958493E+02  EK= 0.42636E+01 SP= -.22E+01 SK= 0.16E-02 mag=     -0.404
       N       E                     dE             d eps       ncg     rms          rms(c)
DAV:   1    -0.430187552321E+02   -0.13834E-01   -0.47750E-02  3952   0.126E+00    0.779E-02
RMM:   2    -0.430201021972E+02   -0.13470E-02   -0.64423E-03  2022   0.264E-01
    860 T=   941. E= -.40909047E+02 F= -.43020102E+02 E0= -.42971492E+02  EK= 0.42559E+01 SP= -.22E+01 SK= 0.59E-02 mag=     -0.228
       N       E                     dE             d eps       ncg     rms          rms(c)
DAV:   1    -0.430300238632E+02   -0.11269E-01   -0.17620E-02  3432   0.110E+00    0.852E-02
RMM:   2    -0.430314664782E+02   -0.14426E-02   -0.68639E-03  2023   0.317E-01
    861 T=   934. E= -.40904191E+02 F= -.43031466E+02 E0= -.42982680E+02  EK= 0.42248E+01 SP= -.21E+01 SK= 0.13E-01 mag=      0.164
       N       E                     dE             d eps       ncg     rms          rms(c)
DAV:   1    -0.430368418004E+02   -0.68179E-02   -0.31682E-02  3648   0.128E+00    0.100E-01
RMM:   2    -0.430388690520E+02   -0.20273E-02   -0.79565E-03  2024   0.314E-01    0.829E-02
RMM:   3    -0.430397986413E+02   -0.92959E-03   -0.25590E-03  1949   0.122E-01
    862 T=   923. E= -.40898499E+02 F= -.43039799E+02 E0= -.42992749E+02  EK= 0.41748E+01 SP= -.21E+01 SK= 0.22E-01 mag=      0.421
       N       E                     dE             d eps       ncg     rms          rms(c)
DAV:   1    -0.430450702073E+02   -0.62012E-02   -0.23170E-02  3448   0.126E+00    0.120E-01
RMM:   2    -0.430465493942E+02   -0.14792E-02   -0.50417E-03  1945   0.296E-01
    863 T=   909. E= -.40890703E+02 F= -.43046549E+02 E0= -.42998747E+02  EK= 0.41104E+01 SP= -.20E+01 SK= 0.32E-01 mag=      0.393
       N       E                     dE             d eps       ncg     rms          rms(c)
DAV:   1    -0.430482099466E+02   -0.31397E-02   -0.35844E-02  4112   0.129E+00    0.126E-01
RMM:   2    -0.430501731532E+02   -0.19632E-02   -0.65148E-03  2005   0.262E-01    0.938E-02
RMM:   3    -0.430510802820E+02   -0.90713E-03   -0.18524E-03  1884   0.103E-01
    864 T=   891. E= -.40882942E+02 F= -.43051080E+02 E0= -.43002456E+02  EK= 0.40315E+01 SP= -.19E+01 SK= 0.42E-01 mag=      0.019
       N       E                     dE             d eps       ncg     rms          rms(c)
DAV:   1    -0.430507949890E+02   -0.62184E-03   -0.19508E-02  3376   0.113E+00    0.133E-01
RMM:   2    -0.430525041076E+02   -0.17091E-02   -0.55474E-03  1985   0.317E-01
    865 T=   870. E= -.40877377E+02 F= -.43052504E+02 E0= -.43005436E+02  EK= 0.39381E+01 SP= -.18E+01 SK= 0.51E-01 mag=     -0.538
       N       E                     dE             d eps       ncg     rms          rms(c)
DAV:   1    -0.430403477965E+02    0.10447E-01   -0.39725E-02  3968   0.123E+00    0.203E-01
RMM:   2    -0.430449185518E+02   -0.45708E-02   -0.91796E-03  2006   0.287E-01    0.164E-01
RMM:   3    -0.430492824083E+02   -0.43639E-02   -0.47288E-03  1842   0.132E-01    0.124E-01
RMM:   4    -0.430534954909E+02   -0.42131E-02   -0.70084E-03  2011   0.123E-01    0.546E-02
RMM:   5    -0.430540800355E+02   -0.58454E-03   -0.10038E-03  1731   0.697E-02
    866 T=   848. E= -.40874990E+02 F= -.43054080E+02 E0= -.43006172E+02  EK= 0.38356E+01 SP= -.17E+01 SK= 0.58E-01 mag=     -0.172
       N       E                     dE             d eps       ncg     rms          rms(c)
DAV:   1    -0.430402302973E+02    0.13265E-01   -0.24847E-02  3448   0.122E+00    0.215E-01
RMM:   2    -0.430441811096E+02   -0.39508E-02   -0.84096E-03  1903   0.320E-01    0.164E-01
RMM:   3    -0.430472738960E+02   -0.30928E-02   -0.33009E-03  1825   0.129E-01    0.123E-01
RMM:   4    -0.430503393515E+02   -0.30655E-02   -0.34402E-03  1858   0.104E-01    0.641E-02
RMM:   5    -0.430512104565E+02   -0.87111E-03   -0.10097E-03  1718   0.667E-02
    867 T=   824. E= -.40872824E+02 F= -.43051210E+02 E0= -.43003571E+02  EK= 0.37259E+01 SP= -.16E+01 SK= 0.63E-01 mag=      0.201
       N       E                     dE             d eps       ncg     rms          rms(c)
DAV:   1    -0.430434270553E+02    0.69123E-02   -0.24847E-02  3520   0.113E+00    0.105E-01
RMM:   2    -0.430447009340E+02   -0.12739E-02   -0.55566E-03  2000   0.276E-01
    868 T=   800. E= -.40866238E+02 F= -.43044701E+02 E0= -.42998037E+02  EK= 0.36173E+01 SP= -.15E+01 SK= 0.64E-01 mag=      0.447
       N       E                     dE             d eps       ncg     rms          rms(c)
DAV:   1    -0.430353885950E+02    0.80385E-02   -0.19194E-02  3704   0.111E+00    0.114E-01
RMM:   2    -0.430371360695E+02   -0.17475E-02   -0.66757E-03  2013   0.282E-01
    869 T=   775. E= -.40862273E+02 F= -.43037136E+02 E0= -.42990608E+02  EK= 0.35084E+01 SP= -.14E+01 SK= 0.63E-01 mag=      0.463
       N       E                     dE             d eps       ncg     rms          rms(c)
DAV:   1    -0.430285442165E+02    0.68444E-02   -0.15769E-02  3376   0.110E+00    0.842E-02
RMM:   2    -0.430298848255E+02   -0.13406E-02   -0.55411E-03  2004   0.287E-01
    870 T=   752. E= -.40859669E+02 F= -.43029885E+02 E0= -.42982649E+02  EK= 0.34041E+01 SP= -.13E+01 SK= 0.58E-01 mag=      0.206
       N       E                     dE             d eps       ncg     rms          rms(c)
DAV:   1    -0.430195706243E+02    0.89736E-02   -0.19669E-02  3240   0.114E+00    0.688E-02
RMM:   2    -0.430206416702E+02   -0.10710E-02   -0.62462E-03  1985   0.283E-01
    871 T=   731. E= -.40853370E+02 F= -.43020642E+02 E0= -.42973656E+02  EK= 0.33093E+01 SP= -.12E+01 SK= 0.51E-01 mag=     -0.258
       N       E                     dE             d eps       ncg     rms          rms(c)
DAV:   1    -0.430039097979E+02    0.15661E-01   -0.14869E-02  3080   0.104E+00    0.120E-01
RMM:   2    -0.430060574931E+02   -0.21477E-02   -0.70359E-03  1992   0.300E-01    0.102E-01
RMM:   3    -0.430081120543E+02   -0.20546E-02   -0.38982E-03  1825   0.131E-01    0.757E-02
RMM:   4    -0.430096651392E+02   -0.15531E-02   -0.26758E-03  1848   0.984E-02
    872 T=   712. E= -.40848522E+02 F= -.43009665E+02 E0= -.42963141E+02  EK= 0.32207E+01 SP= -.11E+01 SK= 0.42E-01 mag=     -0.193
       N       E                     dE             d eps       ncg     rms          rms(c)
DAV:   1    -0.429960855360E+02    0.12027E-01   -0.19162E-02  3360   0.107E+00    0.995E-02
RMM:   2    -0.429973881005E+02   -0.13026E-02   -0.52843E-03  1886   0.264E-01
    873 T=   695. E= -.40841669E+02 F= -.42997388E+02 E0= -.42951061E+02  EK= 0.31436E+01 SP= -.10E+01 SK= 0.32E-01 mag=      0.305
       N       E                     dE             d eps       ncg     rms          rms(c)
DAV:   1    -0.429756210393E+02    0.20464E-01   -0.35423E-02  3904   0.108E+00    0.166E-01
RMM:   2    -0.429790360067E+02   -0.34150E-02   -0.76110E-03  1980   0.270E-01    0.138E-01
RMM:   3    -0.429814259972E+02   -0.23900E-02   -0.29725E-03  1860   0.112E-01    0.111E-01
RMM:   4    -0.429848648862E+02   -0.34389E-02   -0.58525E-03  2024   0.115E-01    0.551E-02
RMM:   5    -0.429856286265E+02   -0.76374E-03   -0.13678E-03  1796   0.728E-02
    874 T=   680. E= -.40837623E+02 F= -.42985629E+02 E0= -.42939100E+02  EK= 0.30758E+01 SP= -.95E+00 SK= 0.22E-01 mag=      0.115
       N       E                     dE             d eps       ncg     rms          rms(c)
DAV:   1    -0.429668867062E+02    0.17978E-01   -0.21274E-02  3288   0.109E+00    0.163E-01
RMM:   2    -0.429693678754E+02   -0.24812E-02   -0.79030E-03  1899   0.274E-01    0.123E-01
RMM:   3    -0.429706709729E+02   -0.13031E-02   -0.24210E-03  1838   0.112E-01
    875 T=   667. E= -.40833279E+02 F= -.42970671E+02 E0= -.42925271E+02  EK= 0.30177E+01 SP= -.89E+00 SK= 0.13E-01 mag=     -0.372
       N       E                     dE             d eps       ncg     rms          rms(c)
DAV:   1    -0.429515990550E+02    0.17769E-01   -0.41914E-02  3384   0.121E+00    0.164E-01
RMM:   2    -0.429547147418E+02   -0.31157E-02   -0.75731E-03  2029   0.321E-01    0.131E-01
RMM:   3    -0.429572895223E+02   -0.25748E-02   -0.34105E-03  1852   0.139E-01    0.101E-01
RMM:   4    -0.429596731379E+02   -0.23836E-02   -0.39114E-03  1906   0.116E-01    0.469E-02
RMM:   5    -0.429600961139E+02   -0.42298E-03   -0.67188E-04  1591   0.646E-02
    876 T=   657. E= -.40832315E+02 F= -.42960096E+02 E0= -.42913881E+02  EK= 0.29737E+01 SP= -.85E+00 SK= 0.63E-02 mag=     -0.130
       N       E                     dE             d eps       ncg     rms          rms(c)
DAV:   1    -0.429434982491E+02    0.16175E-01   -0.22875E-02  3272   0.103E+00    0.122E-01
RMM:   2    -0.429455116704E+02   -0.20134E-02   -0.56503E-03  1978   0.242E-01    0.985E-02
RMM:   3    -0.429469528112E+02   -0.14411E-02   -0.22919E-03  1836   0.108E-01
    877 T=   651. E= -.40827577E+02 F= -.42946953E+02 E0= -.42901592E+02  EK= 0.29444E+01 SP= -.83E+00 SK= 0.17E-02 mag=      0.381
       N       E                     dE             d eps       ncg     rms          rms(c)
DAV:   1    -0.429287708870E+02    0.16741E-01   -0.24090E-02  3368   0.103E+00    0.161E-01
RMM:   2    -0.429313998163E+02   -0.26289E-02   -0.68360E-03  1955   0.290E-01    0.126E-01
RMM:   3    -0.429339282787E+02   -0.25285E-02   -0.32783E-03  1828   0.133E-01    0.106E-01
RMM:   4    -0.429374131848E+02   -0.34849E-02   -0.93630E-03  2084   0.149E-01    0.401E-02
RMM:   5    -0.429375954963E+02   -0.18231E-03   -0.50256E-04  1641   0.733E-02
    878 T=   647. E= -.40826089E+02 F= -.42937595E+02 E0= -.42891335E+02  EK= 0.29293E+01 SP= -.82E+00 SK= 0.81E-06 mag=      0.084
       N       E                     dE             d eps       ncg     rms          rms(c)
DAV:   1    -0.429199004277E+02    0.17513E-01   -0.19382E-02  3136   0.973E-01    0.148E-01
RMM:   2    -0.429221627507E+02   -0.22623E-02   -0.64482E-03  1890   0.222E-01    0.117E-01
RMM:   3    -0.429244664285E+02   -0.23037E-02   -0.35284E-03  1825   0.111E-01    0.948E-02
RMM:   4    -0.429260132186E+02   -0.15468E-02   -0.16748E-03  1829   0.742E-02
    879 T=   647. E= -.40822403E+02 F= -.42926013E+02 E0= -.42880826E+02  EK= 0.29279E+01 SP= -.83E+00 SK= 0.16E-02 mag=     -0.205
       N       E                     dE             d eps       ncg     rms          rms(c)
DAV:   1    -0.429167897970E+02    0.76766E-02   -0.26905E-02  3352   0.101E+00    0.917E-02
RMM:   2    -0.429177696049E+02   -0.97981E-03   -0.48891E-03  1993   0.263E-01
    880 T=   651. E= -.40818201E+02 F= -.42917770E+02 E0= -.42872319E+02  EK= 0.29444E+01 SP= -.85E+00 SK= 0.63E-02 mag=     -0.342
       N       E                     dE             d eps       ncg     rms          rms(c)
DAV:   1    -0.429105306606E+02    0.62591E-02   -0.27660E-02  3568   0.968E-01    0.710E-02
RMM:   2    -0.429115459964E+02   -0.10153E-02   -0.54729E-03  2005   0.275E-01
    881 T=   658. E= -.40814850E+02 F= -.42911546E+02 E0= -.42865847E+02  EK= 0.29758E+01 SP= -.89E+00 SK= 0.14E-01 mag=     -0.244
       N       E                     dE             d eps       ncg     rms          rms(c)
DAV:   1    -0.429067022389E+02    0.38284E-02   -0.13635E-02  3336   0.102E+00    0.548E-02
RMM:   2    -0.429075268511E+02   -0.82461E-03   -0.50655E-03  1993   0.255E-01
    882 T=   668. E= -.40812223E+02 F= -.42907527E+02 E0= -.42861559E+02  EK= 0.30223E+01 SP= -.95E+00 SK= 0.24E-01 mag=      0.057
       N       E                     dE             d eps       ncg     rms          rms(c)
DAV:   1    -0.429024312919E+02    0.42709E-02   -0.14126E-02  3056   0.996E-01    0.776E-02
RMM:   2    -0.429036198130E+02   -0.11885E-02   -0.54989E-03  1997   0.273E-01
    883 T=   682. E= -.40805616E+02 F= -.42903620E+02 E0= -.42858433E+02  EK= 0.30863E+01 SP= -.10E+01 SK= 0.35E-01 mag=      0.396
       N       E                     dE             d eps       ncg     rms          rms(c)
DAV:   1    -0.428993981760E+02    0.30331E-02   -0.13157E-02  3200   0.997E-01    0.115E-01
RMM:   2    -0.429011289528E+02   -0.17308E-02   -0.61720E-03  2013   0.287E-01
    884 T=   700. E= -.40797930E+02 F= -.42901129E+02 E0= -.42856867E+02  EK= 0.31655E+01 SP= -.11E+01 SK= 0.47E-01 mag=      0.576
       N       E                     dE             d eps       ncg     rms          rms(c)
DAV:   1    -0.429013883954E+02   -0.19902E-02   -0.14046E-02  3496   0.104E+00    0.103E-01
RMM:   2    -0.429031550430E+02   -0.17666E-02   -0.62063E-03  2017   0.286E-01
    885 T=   720. E= -.40792589E+02 F= -.42903155E+02 E0= -.42858490E+02  EK= 0.32589E+01 SP= -.12E+01 SK= 0.57E-01 mag=      0.414
       N       E                     dE             d eps       ncg     rms          rms(c)
DAV:   1    -0.429080050692E+02   -0.66167E-02   -0.16089E-02  3160   0.103E+00    0.573E-02
RMM:   2    -0.429089840482E+02   -0.97898E-03   -0.65154E-03  2024   0.305E-01
    886 T=   744. E= -.40789127E+02 F= -.42908984E+02 E0= -.42863313E+02  EK= 0.33650E+01 SP= -.13E+01 SK= 0.66E-01 mag=     -0.070
       N       E                     dE             d eps       ncg     rms          rms(c)
DAV:   1    -0.429080420998E+02   -0.37031E-04   -0.22406E-02  3552   0.104E+00    0.127E-01
RMM:   2    -0.429103824259E+02   -0.23403E-02   -0.81764E-03  1999   0.304E-01    0.104E-01
RMM:   3    -0.429118139840E+02   -0.14316E-02   -0.29757E-03  1913   0.120E-01
    887 T=   769. E= -.40782727E+02 F= -.42911814E+02 E0= -.42867498E+02  EK= 0.34802E+01 SP= -.14E+01 SK= 0.72E-01 mag=     -0.351
       N       E                     dE             d eps       ncg     rms          rms(c)
DAV:   1    -0.429179737349E+02   -0.75913E-02   -0.27417E-02  3280   0.108E+00    0.108E-01
RMM:   2    -0.429192000081E+02   -0.12263E-02   -0.53377E-03  1950   0.286E-01
    888 T=   797. E= -.40777739E+02 F= -.42919200E+02 E0= -.42874413E+02  EK= 0.36056E+01 SP= -.15E+01 SK= 0.75E-01 mag=     -0.306
       N       E                     dE             d eps       ncg     rms          rms(c)
DAV:   1    -0.429250848352E+02   -0.71111E-02   -0.40177E-02  3904   0.115E+00    0.807E-02
RMM:   2    -0.429264964413E+02   -0.14116E-02   -0.60788E-03  2004   0.260E-01
    889 T=   826. E= -.40773074E+02 F= -.42926496E+02 E0= -.42881121E+02  EK= 0.37349E+01 SP= -.17E+01 SK= 0.73E-01 mag=      0.041
       N       E                     dE             d eps       ncg     rms          rms(c)
DAV:   1    -0.429300529254E+02   -0.49681E-02   -0.15183E-02  3248   0.103E+00    0.112E-01
RMM:   2    -0.429319006938E+02   -0.18478E-02   -0.68876E-03  2035   0.306E-01    0.882E-02
RMM:   3    -0.429331108918E+02   -0.12102E-02   -0.24679E-03  1930   0.133E-01
    890 T=   854. E= -.40770850E+02 F= -.42933111E+02 E0= -.42888440E+02  EK= 0.38622E+01 SP= -.18E+01 SK= 0.68E-01 mag=      0.269
       N       E                     dE             d eps       ncg     rms          rms(c)
DAV:   1    -0.429379281251E+02   -0.60274E-02   -0.28770E-02  3536   0.116E+00    0.103E-01
RMM:   2    -0.429395715773E+02   -0.16435E-02   -0.60374E-03  1857   0.292E-01
    891 T=   882. E= -.40763848E+02 F= -.42939572E+02 E0= -.42895069E+02  EK= 0.39916E+01 SP= -.19E+01 SK= 0.59E-01 mag=      0.266
       N       E                     dE             d eps       ncg     rms          rms(c)
DAV:   1    -0.429435676153E+02   -0.56395E-02   -0.33581E-02  3840   0.127E+00    0.115E-01
RMM:   2    -0.429457856901E+02   -0.22181E-02   -0.69851E-03  2018   0.288E-01    0.924E-02
RMM:   3    -0.429470483527E+02   -0.12627E-02   -0.19848E-03  1874   0.113E-01
    892 T=   909. E= -.40759790E+02 F= -.42947048E+02 E0= -.42901979E+02  EK= 0.41125E+01 SP= -.20E+01 SK= 0.47E-01 mag=      0.052
       N       E                     dE             d eps       ncg     rms          rms(c)
DAV:   1    -0.429508938801E+02   -0.51082E-02   -0.24945E-02  3392   0.113E+00    0.987E-02
RMM:   2    -0.429525314347E+02   -0.16376E-02   -0.65153E-03  1884   0.276E-01
    893 T=   933. E= -.40754776E+02 F= -.42952531E+02 E0= -.42908154E+02  EK= 0.42215E+01 SP= -.21E+01 SK= 0.34E-01 mag=     -0.300
       N       E                     dE             d eps       ncg     rms          rms(c)
DAV:   1    -0.429449120591E+02    0.59818E-02   -0.43141E-02  3912   0.128E+00    0.187E-01
RMM:   2    -0.429493475708E+02   -0.44355E-02   -0.10022E-02  2003   0.295E-01    0.155E-01
RMM:   3    -0.429552716155E+02   -0.59240E-02   -0.76297E-03  1825   0.148E-01    0.104E-01
RMM:   4    -0.429580131058E+02   -0.27415E-02   -0.55436E-03  1840   0.122E-01    0.393E-02
RMM:   5    -0.429582604878E+02   -0.24738E-03   -0.76479E-04  1641   0.616E-02
    894 T=   953. E= -.40751601E+02 F= -.42958260E+02 E0= -.42913302E+02  EK= 0.43137E+01 SP= -.21E+01 SK= 0.22E-01 mag=     -0.095
       N       E                     dE             d eps       ncg     rms          rms(c)
DAV:   1    -0.429479122502E+02    0.10101E-01   -0.27045E-02  3400   0.115E+00    0.185E-01
RMM:   2    -0.429521979227E+02   -0.42857E-02   -0.10721E-02  1904   0.302E-01    0.151E-01
RMM:   3    -0.429562527713E+02   -0.40548E-02   -0.47003E-03  1824   0.123E-01    0.117E-01
RMM:   4    -0.429597765938E+02   -0.35238E-02   -0.59119E-03  1882   0.111E-01    0.558E-02
RMM:   5    -0.429603043477E+02   -0.52775E-03   -0.81532E-04  1668   0.657E-02
    895 T=   968. E= -.40750248E+02 F= -.42960304E+02 E0= -.42915439E+02  EK= 0.43815E+01 SP= -.22E+01 SK= 0.11E-01 mag=      0.115
       N       E                     dE             d eps       ncg     rms          rms(c)
DAV:   1    -0.429577214798E+02    0.20551E-02   -0.22271E-02  3544   0.117E+00    0.874E-02
RMM:   2    -0.429591197025E+02   -0.13982E-02   -0.53349E-03  1991   0.272E-01
    896 T=   979. E= -.40744239E+02 F= -.42959120E+02 E0= -.42914249E+02  EK= 0.44286E+01 SP= -.22E+01 SK= 0.35E-02 mag=      0.209
       N       E                     dE             d eps       ncg     rms          rms(c)
DAV:   1    -0.429540396828E+02    0.36818E-02   -0.21794E-02  3768   0.124E+00    0.929E-02
RMM:   2    -0.429561329732E+02   -0.20933E-02   -0.80567E-03  2023   0.297E-01    0.737E-02
RMM:   3    -0.429570278500E+02   -0.89488E-03   -0.22461E-03  1901   0.117E-01
    897 T=   983. E= -.40740595E+02 F= -.42957028E+02 E0= -.42911949E+02  EK= 0.44484E+01 SP= -.22E+01 SK= 0.12E-03 mag=      0.023
       N       E                     dE             d eps       ncg     rms          rms(c)
DAV:   1    -0.429494361943E+02    0.66968E-02   -0.27084E-02  3448   0.121E+00    0.112E-01
RMM:   2    -0.429519978155E+02   -0.25616E-02   -0.49220E-03  1935   0.275E-01    0.787E-02
RMM:   3    -0.429527279107E+02   -0.73010E-03   -0.13854E-03  1729   0.103E-01
    898 T=   982. E= -.40736999E+02 F= -.42952728E+02 E0= -.42907707E+02  EK= 0.44409E+01 SP= -.22E+01 SK= 0.14E-02 mag=     -0.161
       N       E                     dE             d eps       ncg     rms          rms(c)
DAV:   1    -0.429433800107E+02    0.86178E-02   -0.50746E-02  3480   0.120E+00    0.871E-02
RMM:   2    -0.429450404675E+02   -0.16605E-02   -0.68799E-03  2030   0.305E-01
    899 T=   975. E= -.40727520E+02 F= -.42945040E+02 E0= -.42900157E+02  EK= 0.44111E+01 SP= -.22E+01 SK= 0.71E-02 mag=     -0.267
       N       E                     dE             d eps       ncg     rms          rms(c)
DAV:   1    -0.429338306147E+02    0.95494E-02   -0.42924E-02  3624   0.120E+00    0.857E-02
RMM:   2    -0.429356299398E+02   -0.17993E-02   -0.72508E-03  2009   0.297E-01
    900 T=   962. E= -.40721282E+02 F= -.42935630E+02 E0= -.42890458E+02  EK= 0.43531E+01 SP= -.22E+01 SK= 0.17E-01 mag=     -0.224
       N       E                     dE             d eps       ncg     rms          rms(c)
DAV:   1    -0.429251357588E+02    0.86949E-02   -0.18909E-02  3568   0.117E+00    0.462E-02
RMM:   2    -0.429263410648E+02   -0.12053E-02   -0.69004E-03  2003   0.315E-01
    901 T=   945. E= -.40716024E+02 F= -.42926341E+02 E0= -.42880555E+02  EK= 0.42735E+01 SP= -.21E+01 SK= 0.29E-01 mag=     -0.025
       N       E                     dE             d eps       ncg     rms          rms(c)
DAV:   1    -0.429126795658E+02    0.12456E-01   -0.32386E-02  3744   0.127E+00    0.632E-02
RMM:   2    -0.429141965683E+02   -0.15170E-02   -0.75490E-03  2007   0.301E-01
    902 T=   923. E= -.40706664E+02 F= -.42914197E+02 E0= -.42868597E+02  EK= 0.41779E+01 SP= -.20E+01 SK= 0.42E-01 mag=      0.260
       N       E                     dE             d eps       ncg     rms          rms(c)
DAV:   1    -0.428977393701E+02    0.14940E-01   -0.16658E-02  3376   0.111E+00    0.115E-01
RMM:   2    -0.429001507550E+02   -0.24114E-02   -0.78700E-03  2013   0.323E-01    0.965E-02
RMM:   3    -0.429018106384E+02   -0.16599E-02   -0.32924E-03  1887   0.129E-01
    903 T=   899. E= -.40699861E+02 F= -.42901811E+02 E0= -.42856339E+02  EK= 0.40661E+01 SP= -.19E+01 SK= 0.55E-01 mag=      0.186
       N       E                     dE             d eps       ncg     rms          rms(c)
DAV:   1    -0.428881433549E+02    0.12007E-01   -0.40597E-02  3384   0.112E+00    0.100E-01
RMM:   2    -0.428907335877E+02   -0.25902E-02   -0.76445E-03  1895   0.316E-01    0.773E-02
RMM:   3    -0.428913446886E+02   -0.61110E-03   -0.16131E-03  1787   0.105E-01
    904 T=   872. E= -.40693699E+02 F= -.42891345E+02 E0= -.42845076E+02  EK= 0.39464E+01 SP= -.18E+01 SK= 0.66E-01 mag=     -0.139
       N       E                     dE             d eps       ncg     rms          rms(c)
DAV:   1    -0.428753194819E+02    0.15414E-01   -0.77998E-02  3504   0.113E+00    0.128E-01
RMM:   2    -0.428779818372E+02   -0.26624E-02   -0.82349E-03  2011   0.302E-01    0.976E-02
RMM:   3    -0.428793277116E+02   -0.13459E-02   -0.22645E-03  1918   0.116E-01
    905 T=   845. E= -.40686213E+02 F= -.42879328E+02 E0= -.42833394E+02  EK= 0.38213E+01 SP= -.17E+01 SK= 0.74E-01 mag=     -0.266
       N       E                     dE             d eps       ncg     rms          rms(c)
DAV:   1    -0.428692493316E+02    0.87325E-02   -0.50259E-02  3400   0.119E+00    0.799E-02
RMM:   2    -0.428706170137E+02   -0.13677E-02   -0.64089E-03  2006   0.293E-01
    906 T=   817. E= -.40680131E+02 F= -.42870617E+02 E0= -.42823977E+02  EK= 0.36967E+01 SP= -.16E+01 SK= 0.78E-01 mag=     -0.167
       N       E                     dE             d eps       ncg     rms          rms(c)
DAV:   1    -0.428606140310E+02    0.86353E-02   -0.46384E-02  3792   0.108E+00    0.752E-02
RMM:   2    -0.428619496825E+02   -0.13357E-02   -0.65865E-03  1995   0.268E-01
    907 T=   790. E= -.40673667E+02 F= -.42861950E+02 E0= -.42814951E+02  EK= 0.35747E+01 SP= -.15E+01 SK= 0.79E-01 mag=      0.089
       N       E                     dE             d eps       ncg     rms          rms(c)
DAV:   1    -0.428533443593E+02    0.72697E-02   -0.17520E-02  3312   0.105E+00    0.103E-01
RMM:   2    -0.428550120931E+02   -0.16677E-02   -0.65510E-03  1992   0.283E-01
    908 T=   765. E= -.40667044E+02 F= -.42855012E+02 E0= -.42808549E+02  EK= 0.34595E+01 SP= -.13E+01 SK= 0.76E-01 mag=      0.314
       N       E                     dE             d eps       ncg     rms          rms(c)
DAV:   1    -0.428508594599E+02    0.24849E-02   -0.24594E-02  3880   0.109E+00    0.769E-02
RMM:   2    -0.428523820910E+02   -0.15226E-02   -0.72021E-03  2020   0.288E-01
    909 T=   742. E= -.40660400E+02 F= -.42852382E+02 E0= -.42806044E+02  EK= 0.33559E+01 SP= -.12E+01 SK= 0.69E-01 mag=      0.408
       N       E                     dE             d eps       ncg     rms          rms(c)
DAV:   1    -0.428497501386E+02    0.11093E-02   -0.20039E-02  3208   0.981E-01    0.910E-02
RMM:   2    -0.428513587879E+02   -0.16086E-02   -0.69216E-03  1986   0.299E-01
    910 T=   721. E= -.40653621E+02 F= -.42851359E+02 E0= -.42804671E+02  EK= 0.32630E+01 SP= -.11E+01 SK= 0.60E-01 mag=      0.293
       N       E                     dE             d eps       ncg     rms          rms(c)
DAV:   1    -0.428514131642E+02   -0.16630E-02   -0.17431E-02  3344   0.102E+00    0.112E-01
RMM:   2    -0.428532931914E+02   -0.18800E-02   -0.63272E-03  1993   0.274E-01    0.915E-02
RMM:   3    -0.428542947106E+02   -0.10015E-02   -0.19610E-03  1954   0.111E-01
    911 T=   704. E= -.40648548E+02 F= -.42854295E+02 E0= -.42807078E+02  EK= 0.31828E+01 SP= -.10E+01 SK= 0.49E-01 mag=      0.008
       N       E                     dE             d eps       ncg     rms          rms(c)
DAV:   1    -0.428553945951E+02   -0.21014E-02   -0.36899E-02  3288   0.989E-01    0.124E-01
RMM:   2    -0.428581997906E+02   -0.28052E-02   -0.66016E-03  1878   0.273E-01    0.105E-01
RMM:   3    -0.428590437652E+02   -0.84397E-03   -0.14777E-03  1770   0.941E-02
    912 T=   689. E= -.40642798E+02 F= -.42859044E+02 E0= -.42812388E+02  EK= 0.31165E+01 SP= -.94E+00 SK= 0.38E-01 mag=     -0.188
       N       E                     dE             d eps       ncg     rms          rms(c)
DAV:   1    -0.428662738887E+02   -0.80741E-02   -0.64160E-02  3248   0.101E+00    0.122E-01
RMM:   2    -0.428680111785E+02   -0.17373E-02   -0.78681E-03  2001   0.303E-01
    913 T=   678. E= -.40636867E+02 F= -.42868011E+02 E0= -.42821190E+02  EK= 0.30666E+01 SP= -.86E+00 SK= 0.27E-01 mag=     -0.231
       N       E                     dE             d eps       ncg     rms          rms(c)
DAV:   1    -0.428789893908E+02   -0.12716E-01   -0.50969E-02  3240   0.101E+00    0.830E-02
RMM:   2    -0.428802684577E+02   -0.12791E-02   -0.67583E-03  1994   0.296E-01
    914 T=   670. E= -.40631507E+02 F= -.42880268E+02 E0= -.42833266E+02  EK= 0.30318E+01 SP= -.80E+00 SK= 0.17E-01 mag=     -0.096
       N       E                     dE             d eps       ncg     rms          rms(c)
DAV:   1    -0.428942745112E+02   -0.15285E-01   -0.24661E-02  3256   0.991E-01    0.683E-02
RMM:   2    -0.428954160803E+02   -0.11416E-02   -0.82226E-03  1990   0.316E-01
    915 T=   666. E= -.40625825E+02 F= -.42895416E+02 E0= -.42848491E+02  EK= 0.30128E+01 SP= -.75E+00 SK= 0.90E-02 mag=      0.164
       N       E                     dE             d eps       ncg     rms          rms(c)
DAV:   1    -0.429076020458E+02   -0.13328E-01   -0.21606E-02  3408   0.101E+00    0.115E-01
RMM:   2    -0.429097482867E+02   -0.21462E-02   -0.78636E-03  2017   0.285E-01    0.954E-02
RMM:   3    -0.429117404943E+02   -0.19922E-02   -0.39569E-03  1856   0.122E-01    0.667E-02
RMM:   4    -0.429127729190E+02   -0.10324E-02   -0.16446E-03  1819   0.846E-02
    916 T=   665. E= -.40621142E+02 F= -.42912773E+02 E0= -.42866013E+02  EK= 0.30076E+01 SP= -.72E+00 SK= 0.35E-02 mag=      0.113
       N       E                     dE             d eps       ncg     rms          rms(c)
DAV:   1    -0.429311618148E+02   -0.19421E-01   -0.19296E-02  3200   0.975E-01    0.103E-01
RMM:   2    -0.429323727950E+02   -0.12110E-02   -0.46815E-03  1841   0.224E-01
    917 T=   667. E= -.40616066E+02 F= -.42932373E+02 E0= -.42885727E+02  EK= 0.30177E+01 SP= -.70E+00 SK= 0.58E-03 mag=     -0.170
       N       E                     dE             d eps       ncg     rms          rms(c)
DAV:   1    -0.429498801644E+02   -0.18718E-01   -0.29186E-02  3504   0.104E+00    0.130E-01
RMM:   2    -0.429520658978E+02   -0.21857E-02   -0.62716E-03  1996   0.263E-01    0.108E-01
RMM:   3    -0.429532459239E+02   -0.11800E-02   -0.20038E-03  1889   0.105E-01
    918 T=   673. E= -.40609328E+02 F= -.42953246E+02 E0= -.42907511E+02  EK= 0.30430E+01 SP= -.70E+00 SK= 0.11E-03 mag=     -0.190
       N       E                     dE             d eps       ncg     rms          rms(c)
DAV:   1    -0.429783102457E+02   -0.26244E-01   -0.45204E-02  3232   0.101E+00    0.929E-02
RMM:   2    -0.429802811281E+02   -0.19709E-02   -0.93438E-03  1931   0.305E-01    0.658E-02
RMM:   3    -0.429807709456E+02   -0.48982E-03   -0.24728E-03  1856   0.116E-01
    919 T=   681. E= -.40609265E+02 F= -.42980771E+02 E0= -.42934120E+02  EK= 0.30803E+01 SP= -.71E+00 SK= 0.18E-02 mag=      0.020
       N       E                     dE             d eps       ncg     rms          rms(c)
DAV:   1    -0.430043424713E+02   -0.24061E-01   -0.62259E-02  3272   0.111E+00    0.104E-01
RMM:   2    -0.430061683605E+02   -0.18259E-02   -0.78317E-03  2002   0.311E-01    0.769E-02
RMM:   3    -0.430071242248E+02   -0.95586E-03   -0.22185E-03  1920   0.118E-01
    920 T=   692. E= -.40605098E+02 F= -.43007124E+02 E0= -.42960970E+02  EK= 0.31322E+01 SP= -.74E+00 SK= 0.53E-02 mag=      0.226
       N       E                     dE             d eps       ncg     rms          rms(c)
DAV:   1    -0.430356589314E+02   -0.29491E-01   -0.39323E-02  3304   0.102E+00    0.770E-02
RMM:   2    -0.430366900278E+02   -0.10311E-02   -0.47098E-03  2002   0.252E-01
    921 T=   707. E= -.40599781E+02 F= -.43036690E+02 E0= -.42990611E+02  EK= 0.31993E+01 SP= -.77E+00 SK= 0.99E-02 mag=      0.316
       N       E                     dE             d eps       ncg     rms          rms(c)
DAV:   1    -0.430672654218E+02   -0.31606E-01   -0.26164E-02  3232   0.103E+00    0.477E-02
RMM:   2    -0.430681197261E+02   -0.85430E-03   -0.52807E-03  1994   0.261E-01
    922 T=   725. E= -.40593926E+02 F= -.43068120E+02 E0= -.43021771E+02  EK= 0.32789E+01 SP= -.82E+00 SK= 0.15E-01 mag=      0.213
       N       E                     dE             d eps       ncg     rms          rms(c)
DAV:   1    -0.430985353854E+02   -0.31270E-01   -0.14065E-02  3312   0.103E+00    0.620E-02
RMM:   2    -0.430996415271E+02   -0.11061E-02   -0.60825E-03  1967   0.283E-01
    923 T=   745. E= -.40586707E+02 F= -.43099642E+02 E0= -.43053216E+02  EK= 0.33687E+01 SP= -.88E+00 SK= 0.19E-01 mag=     -0.065
       N       E                     dE             d eps       ncg     rms          rms(c)
DAV:   1    -0.431290212763E+02   -0.30486E-01   -0.13933E-02  3000   0.109E+00    0.969E-02
RMM:   2    -0.431306713611E+02   -0.16501E-02   -0.60366E-03  1976   0.283E-01
    924 T=   766. E= -.40578453E+02 F= -.43130671E+02 E0= -.43084934E+02  EK= 0.34664E+01 SP= -.94E+00 SK= 0.23E-01 mag=     -0.364
       N       E                     dE             d eps       ncg     rms          rms(c)
DAV:   1    -0.431628490289E+02   -0.33828E-01   -0.11416E-02  3256   0.103E+00    0.966E-02
RMM:   2    -0.431642663944E+02   -0.14174E-02   -0.55708E-03  1999   0.280E-01
    925 T=   789. E= -.40572079E+02 F= -.43164266E+02 E0= -.43118883E+02  EK= 0.35701E+01 SP= -.10E+01 SK= 0.24E-01 mag=     -0.490
       N       E                     dE             d eps       ncg     rms          rms(c)
DAV:   1    -0.431983813187E+02   -0.35532E-01   -0.17704E-02  3136   0.110E+00    0.688E-02
RMM:   2    -0.431996524219E+02   -0.12711E-02   -0.65761E-03  2008   0.287E-01
    926 T=   813. E= -.40565877E+02 F= -.43199652E+02 E0= -.43153544E+02  EK= 0.36785E+01 SP= -.11E+01 SK= 0.24E-01 mag=     -0.303
       N       E                     dE             d eps       ncg     rms          rms(c)
DAV:   1    -0.432313570561E+02   -0.32976E-01   -0.18114E-02  3136   0.106E+00    0.906E-02
RMM:   2    -0.432330588511E+02   -0.17018E-02   -0.74055E-03  2007   0.307E-01
    927 T=   837. E= -.40557944E+02 F= -.43233059E+02 E0= -.43186687E+02  EK= 0.37872E+01 SP= -.11E+01 SK= 0.22E-01 mag=      0.154
       N       E                     dE             d eps       ncg     rms          rms(c)
DAV:   1    -0.432602949084E+02   -0.28938E-01   -0.20004E-02  3624   0.111E+00    0.147E-01
RMM:   2    -0.432632610827E+02   -0.29662E-02   -0.76682E-03  2021   0.297E-01    0.124E-01
RMM:   3    -0.432665601926E+02   -0.32991E-02   -0.49289E-03  1827   0.136E-01    0.850E-02
RMM:   4    -0.432686789025E+02   -0.21187E-02   -0.42945E-03  1838   0.110E-01    0.314E-02
RMM:   5    -0.432689378483E+02   -0.25895E-03   -0.84954E-04  1661   0.618E-02
    928 T=   860. E= -.40556038E+02 F= -.43268938E+02 E0= -.43222357E+02  EK= 0.38898E+01 SP= -.12E+01 SK= 0.19E-01 mag=      0.031
       N       E                     dE             d eps       ncg     rms          rms(c)
DAV:   1    -0.432883944497E+02   -0.19716E-01   -0.38379E-02  3312   0.109E+00    0.189E-01
RMM:   2    -0.432928933229E+02   -0.44989E-02   -0.97538E-03  1855   0.256E-01    0.160E-01
RMM:   3    -0.432985948799E+02   -0.57016E-02   -0.75236E-03  1824   0.124E-01    0.109E-01
RMM:   4    -0.433016259844E+02   -0.30311E-02   -0.70097E-03  1845   0.118E-01    0.364E-02
RMM:   5    -0.433018572131E+02   -0.23123E-03   -0.70227E-04  1616   0.573E-02
    929 T=   880. E= -.40554731E+02 F= -.43301857E+02 E0= -.43255170E+02  EK= 0.39832E+01 SP= -.13E+01 SK= 0.14E-01 mag=     -0.062
       N       E                     dE             d eps       ncg     rms          rms(c)
DAV:   1    -0.433310413087E+02   -0.29415E-01   -0.15319E-02  3256   0.107E+00    0.764E-02
RMM:   2    -0.433323332058E+02   -0.12919E-02   -0.59037E-03  2004   0.267E-01
    930 T=   900. E= -.40549087E+02 F= -.43332333E+02 E0= -.43285601E+02  EK= 0.40699E+01 SP= -.13E+01 SK= 0.90E-02 mag=     -0.087
       N       E                     dE             d eps       ncg     rms          rms(c)
DAV:   1    -0.433569961574E+02   -0.25955E-01   -0.24426E-02  3912   0.114E+00    0.124E-01
RMM:   2    -0.433597975179E+02   -0.28014E-02   -0.76436E-03  2000   0.268E-01    0.105E-01
RMM:   3    -0.433620221959E+02   -0.22247E-02   -0.34440E-03  1828   0.118E-01    0.795E-02
RMM:   4    -0.433638561529E+02   -0.18340E-02   -0.49968E-03  1862   0.103E-01    0.225E-02
RMM:   5    -0.433639298134E+02   -0.73661E-04   -0.36786E-04  1563   0.510E-02
    931 T=   916. E= -.40547194E+02 F= -.43363930E+02 E0= -.43317031E+02  EK= 0.41423E+01 SP= -.13E+01 SK= 0.44E-02 mag=      0.003
       N       E                     dE             d eps       ncg     rms          rms(c)
DAV:   1    -0.433857274641E+02   -0.21871E-01   -0.31969E-02  3296   0.111E+00    0.130E-01
RMM:   2    -0.433883707054E+02   -0.26432E-02   -0.72657E-03  1935   0.252E-01    0.105E-01
RMM:   3    -0.433906144762E+02   -0.22438E-02   -0.37686E-03  1824   0.104E-01    0.774E-02
RMM:   4    -0.433920875486E+02   -0.14731E-02   -0.26695E-03  1825   0.780E-02
    932 T=   928. E= -.40545298E+02 F= -.43392088E+02 E0= -.43345091E+02  EK= 0.41971E+01 SP= -.14E+01 SK= 0.12E-02 mag=      0.045
       N       E                     dE             d eps       ncg     rms          rms(c)
DAV:   1    -0.434169377295E+02   -0.26323E-01   -0.19774E-02  3800   0.112E+00    0.651E-02
RMM:   2    -0.434180887426E+02   -0.11510E-02   -0.46436E-03  1964   0.237E-01
    933 T=   936. E= -.40540563E+02 F= -.43418089E+02 E0= -.43370952E+02  EK= 0.42363E+01 SP= -.14E+01 SK= 0.74E-06 mag=      0.016
       N       E                     dE             d eps       ncg     rms          rms(c)
DAV:   1    -0.434407877232E+02   -0.23850E-01   -0.23087E-02  3856   0.111E+00    0.438E-02
RMM:   2    -0.434418946912E+02   -0.11070E-02   -0.57473E-03  1990   0.263E-01
    934 T=   940. E= -.40538724E+02 F= -.43441895E+02 E0= -.43394656E+02  EK= 0.42525E+01 SP= -.14E+01 SK= 0.14E-02 mag=     -0.067
       N       E                     dE             d eps       ncg     rms          rms(c)
DAV:   1    -0.434610480076E+02   -0.20260E-01   -0.17371E-02  3456   0.113E+00    0.709E-02
RMM:   2    -0.434624740731E+02   -0.14261E-02   -0.58536E-03  2028   0.276E-01
    935 T=   939. E= -.40534350E+02 F= -.43462474E+02 E0= -.43415174E+02  EK= 0.42498E+01 SP= -.13E+01 SK= 0.55E-02 mag=     -0.134
       N       E                     dE             d eps       ncg     rms          rms(c)
DAV:   1    -0.434799125632E+02   -0.18865E-01   -0.24050E-02  3424   0.116E+00    0.696E-02
RMM:   2    -0.434812482835E+02   -0.13357E-02   -0.62573E-03  2044   0.297E-01
    936 T=   935. E= -.40527060E+02 F= -.43481248E+02 E0= -.43433780E+02  EK= 0.42300E+01 SP= -.13E+01 SK= 0.12E-01 mag=     -0.133
       N       E                     dE             d eps       ncg     rms          rms(c)
DAV:   1    -0.434962500056E+02   -0.16337E-01   -0.13937E-02  3192   0.109E+00    0.307E-02
RMM:   2    -0.434974017448E+02   -0.11517E-02   -0.65760E-03  2040   0.309E-01
    937 T=   926. E= -.40521094E+02 F= -.43497402E+02 E0= -.43449728E+02  EK= 0.41891E+01 SP= -.12E+01 SK= 0.21E-01 mag=     -0.043
       N       E                     dE             d eps       ncg     rms          rms(c)
DAV:   1    -0.435078374349E+02   -0.11587E-01   -0.22583E-02  3624   0.114E+00    0.561E-02
RMM:   2    -0.435090744373E+02   -0.12370E-02   -0.58203E-03  2024   0.273E-01
    938 T=   913. E= -.40514404E+02 F= -.43509074E+02 E0= -.43461313E+02  EK= 0.41291E+01 SP= -.12E+01 SK= 0.31E-01 mag=      0.096
       N       E                     dE             d eps       ncg     rms          rms(c)
DAV:   1    -0.435145081331E+02   -0.66707E-02   -0.20207E-02  3312   0.111E+00    0.919E-02
RMM:   2    -0.435162897751E+02   -0.17816E-02   -0.66888E-03  2017   0.298E-01
    939 T=   896. E= -.40506689E+02 F= -.43516290E+02 E0= -.43468585E+02  EK= 0.40527E+01 SP= -.11E+01 SK= 0.42E-01 mag=      0.187
       N       E                     dE             d eps       ncg     rms          rms(c)
DAV:   1    -0.435211116063E+02   -0.66035E-02   -0.20977E-02  3920   0.114E+00    0.635E-02
RMM:   2    -0.435224106648E+02   -0.12991E-02   -0.69298E-03  2075   0.297E-01
    940 T=   876. E= -.40501530E+02 F= -.43522411E+02 E0= -.43474527E+02  EK= 0.39627E+01 SP= -.99E+00 SK= 0.51E-01 mag=      0.179
       N       E                     dE             d eps       ncg     rms          rms(c)
DAV:   1    -0.435232194029E+02   -0.21078E-02   -0.21108E-02  3296   0.106E+00    0.415E-02
RMM:   2    -0.435243925361E+02   -0.11731E-02   -0.69400E-03  2054   0.303E-01
    941 T=   854. E= -.40495791E+02 F= -.43524393E+02 E0= -.43476248E+02  EK= 0.38624E+01 SP= -.89E+00 SK= 0.59E-01 mag=      0.066
       N       E                     dE             d eps       ncg     rms          rms(c)
DAV:   1    -0.435188318227E+02    0.43876E-02   -0.20042E-02  3408   0.110E+00    0.906E-02
RMM:   2    -0.435206559219E+02   -0.18241E-02   -0.70046E-03  2026   0.279E-01    0.755E-02
RMM:   3    -0.435218766274E+02   -0.12207E-02   -0.27454E-03  1889   0.116E-01
    942 T=   830. E= -.40489611E+02 F= -.43521877E+02 E0= -.43473683E+02  EK= 0.37546E+01 SP= -.79E+00 SK= 0.65E-01 mag=     -0.040
       N       E                     dE             d eps       ncg     rms          rms(c)
DAV:   1    -0.435148611889E+02    0.57947E-02   -0.23594E-02  3376   0.106E+00    0.738E-02
RMM:   2    -0.435164125183E+02   -0.15513E-02   -0.50132E-03  1895   0.285E-01
    943 T=   806. E= -.40481406E+02 F= -.43516413E+02 E0= -.43468219E+02  EK= 0.36456E+01 SP= -.68E+00 SK= 0.67E-01 mag=     -0.122
       N       E                     dE             d eps       ncg     rms          rms(c)
DAV:   1    -0.435037541421E+02    0.11107E-01   -0.39398E-02  3968   0.110E+00    0.108E-01
RMM:   2    -0.435056048579E+02   -0.18507E-02   -0.59999E-03  2028   0.244E-01    0.850E-02
RMM:   3    -0.435073183408E+02   -0.17135E-02   -0.23519E-03  1871   0.103E-01
    944 T=   781. E= -.40474413E+02 F= -.43507318E+02 E0= -.43459005E+02  EK= 0.35345E+01 SP= -.57E+00 SK= 0.66E-01 mag=     -0.085
       N       E                     dE             d eps       ncg     rms          rms(c)
DAV:   1    -0.434932131692E+02    0.12392E-01   -0.13736E-02  3176   0.987E-01    0.959E-02
RMM:   2    -0.434954281528E+02   -0.22150E-02   -0.62745E-03  1948   0.257E-01    0.668E-02
RMM:   3    -0.434961317369E+02   -0.70358E-03   -0.17241E-03  1873   0.104E-01
    945 T=   756. E= -.40471963E+02 F= -.43496132E+02 E0= -.43447744E+02  EK= 0.34221E+01 SP= -.46E+00 SK= 0.62E-01 mag=      0.081
       N       E                     dE             d eps       ncg     rms          rms(c)
DAV:   1    -0.434789259797E+02    0.16502E-01   -0.40461E-02  3472   0.102E+00    0.101E-01
RMM:   2    -0.434805918037E+02   -0.16658E-02   -0.56254E-03  2002   0.268E-01
    946 T=   733. E= -.40464795E+02 F= -.43480592E+02 E0= -.43432443E+02  EK= 0.33177E+01 SP= -.36E+00 SK= 0.55E-01 mag=      0.267
       N       E                     dE             d eps       ncg     rms          rms(c)
DAV:   1    -0.434605479070E+02    0.18378E-01   -0.40803E-02  3568   0.106E+00    0.114E-01
RMM:   2    -0.434625686121E+02   -0.20207E-02   -0.61968E-03  2006   0.263E-01    0.906E-02
RMM:   3    -0.434637021165E+02   -0.11335E-02   -0.18520E-03  1967   0.105E-01
    947 T=   712. E= -.40460105E+02 F= -.43463702E+02 E0= -.43415604E+02  EK= 0.32192E+01 SP= -.26E+00 SK= 0.46E-01 mag=      0.152
       N       E                     dE             d eps       ncg     rms          rms(c)
DAV:   1    -0.434417760224E+02    0.20793E-01   -0.29511E-02  3344   0.961E-01    0.124E-01
RMM:   2    -0.434441870788E+02   -0.24111E-02   -0.58097E-03  1864   0.236E-01    0.909E-02
RMM:   3    -0.434449674891E+02   -0.78041E-03   -0.16375E-03  1811   0.887E-02
    948 T=   692. E= -.40456910E+02 F= -.43444967E+02 E0= -.43396513E+02  EK= 0.31284E+01 SP= -.18E+00 SK= 0.35E-01 mag=     -0.070
       N       E                     dE             d eps       ncg     rms          rms(c)
DAV:   1    -0.434197184451E+02    0.24469E-01   -0.54426E-02  3376   0.101E+00    0.126E-01
RMM:   2    -0.434219863065E+02   -0.22679E-02   -0.69964E-03  1984   0.274E-01    0.949E-02
RMM:   3    -0.434233846521E+02   -0.13983E-02   -0.24498E-03  1832   0.107E-01
    949 T=   674. E= -.40451585E+02 F= -.43423385E+02 E0= -.43375403E+02  EK= 0.30493E+01 SP= -.10E+00 SK= 0.25E-01 mag=     -0.235
       N       E                     dE             d eps       ncg     rms          rms(c)
DAV:   1    -0.434007505712E+02    0.21236E-01   -0.42217E-02  3176   0.957E-01    0.854E-02
RMM:   2    -0.434018924778E+02   -0.11419E-02   -0.55635E-03  1994   0.256E-01
    950 T=   659. E= -.40446976E+02 F= -.43401892E+02 E0= -.43353680E+02  EK= 0.29828E+01 SP= -.43E-01 SK= 0.15E-01 mag=     -0.245
       N       E                     dE             d eps       ncg     rms          rms(c)
DAV:   1    -0.433759024336E+02    0.24848E-01   -0.42918E-02  3584   0.990E-01    0.849E-02
RMM:   2    -0.433771316696E+02   -0.12292E-02   -0.58698E-03  1993   0.254E-01
    951 T=   647. E= -.40441261E+02 F= -.43377132E+02 E0= -.43328713E+02  EK= 0.29279E+01 SP= 0.10E-02 SK= 0.69E-02 mag=     -0.076
       N       E                     dE             d eps       ncg     rms          rms(c)
DAV:   1    -0.433481405617E+02    0.27762E-01   -0.19554E-02  3288   0.950E-01    0.129E-01
RMM:   2    -0.433503240868E+02   -0.21835E-02   -0.64516E-03  1975   0.268E-01    0.106E-01
RMM:   3    -0.433525174303E+02   -0.21933E-02   -0.30021E-03  1883   0.117E-01    0.685E-02
RMM:   4    -0.433538656431E+02   -0.13482E-02   -0.20601E-03  1824   0.876E-02
    952 T=   638. E= -.40440012E+02 F= -.43353866E+02 E0= -.43305443E+02  EK= 0.28844E+01 SP= 0.28E-01 SK= 0.17E-02 mag=      0.059
       N       E                     dE             d eps       ncg     rms          rms(c)
DAV:   1    -0.433224797387E+02    0.30038E-01   -0.21615E-02  3336   0.973E-01    0.142E-01
RMM:   2    -0.433247770932E+02   -0.22974E-02   -0.59235E-03  1844   0.227E-01    0.115E-01
RMM:   3    -0.433267233326E+02   -0.19462E-02   -0.22878E-03  1824   0.924E-02    0.860E-02
RMM:   4    -0.433286163893E+02   -0.18931E-02   -0.23500E-03  1825   0.766E-02    0.379E-02
RMM:   5    -0.433288731299E+02   -0.25674E-03   -0.39054E-04  1554   0.460E-02
    953 T=   631. E= -.40437846E+02 F= -.43328873E+02 E0= -.43280471E+02  EK= 0.28547E+01 SP= 0.36E-01 SK= 0.42E-05 mag=      0.036
       N       E                     dE             d eps       ncg     rms          rms(c)
DAV:   1    -0.433026202521E+02    0.25996E-01   -0.91470E-03  2952   0.872E-01    0.566E-02
RMM:   2    -0.433031999449E+02   -0.57969E-03   -0.37820E-03  1935   0.229E-01
    954 T=   628. E= -.40432477E+02 F= -.43303200E+02 E0= -.43254889E+02  EK= 0.28425E+01 SP= 0.26E-01 SK= 0.22E-02 mag=     -0.114
       N       E                     dE             d eps       ncg     rms          rms(c)
DAV:   1    -0.432750841842E+02    0.27536E-01   -0.12581E-02  3568   0.968E-01    0.755E-02
RMM:   2    -0.432761761005E+02   -0.10919E-02   -0.50104E-03  1981   0.225E-01
    955 T=   629. E= -.40426726E+02 F= -.43276176E+02 E0= -.43228350E+02  EK= 0.28444E+01 SP= -.35E-02 SK= 0.85E-02 mag=     -0.294
       N       E                     dE             d eps       ncg     rms          rms(c)
DAV:   1    -0.432486662223E+02    0.26418E-01   -0.11701E-02  2672   0.896E-01    0.960E-02
RMM:   2    -0.432498634707E+02   -0.11972E-02   -0.42514E-03  1993   0.243E-01
    956 T=   632. E= -.40423302E+02 F= -.43249863E+02 E0= -.43202400E+02  EK= 0.28598E+01 SP= -.52E-01 SK= 0.19E-01 mag=     -0.348
       N       E                     dE             d eps       ncg     rms          rms(c)
DAV:   1    -0.432254219349E+02    0.23244E-01   -0.16656E-02  3672   0.101E+00    0.504E-02
RMM:   2    -0.432262791688E+02   -0.85723E-03   -0.54316E-03  1978   0.270E-01
    957 T=   639. E= -.40420120E+02 F= -.43226279E+02 E0= -.43178260E+02  EK= 0.28931E+01 SP= -.12E+00 SK= 0.33E-01 mag=     -0.211
       N       E                     dE             d eps       ncg     rms          rms(c)
DAV:   1    -0.432008729960E+02    0.24549E-01   -0.11473E-02  2872   0.899E-01    0.433E-02
RMM:   2    -0.432016798659E+02   -0.80687E-03   -0.55113E-03  1982   0.272E-01
    958 T=   651. E= -.40414259E+02 F= -.43201680E+02 E0= -.43153485E+02  EK= 0.29432E+01 SP= -.20E+00 SK= 0.49E-01 mag=      0.095
       N       E                     dE             d eps       ncg     rms          rms(c)
DAV:   1    -0.431728884199E+02    0.27985E-01   -0.13558E-02  2944   0.985E-01    0.106E-01
RMM:   2    -0.431746237335E+02   -0.17353E-02   -0.61468E-03  2004   0.258E-01
    959 T=   665. E= -.40405075E+02 F= -.43174624E+02 E0= -.43127418E+02  EK= 0.30093E+01 SP= -.31E+00 SK= 0.67E-01 mag=      0.350
       N       E                     dE             d eps       ncg     rms          rms(c)
DAV:   1    -0.431509908897E+02    0.21898E-01   -0.20870E-02  3216   0.975E-01    0.101E-01
RMM:   2    -0.431521863830E+02   -0.11955E-02   -0.59633E-03  1996   0.299E-01
    960 T=   683. E= -.40400363E+02 F= -.43152186E+02 E0= -.43104920E+02  EK= 0.30902E+01 SP= -.42E+00 SK= 0.85E-01 mag=      0.434
       N       E                     dE             d eps       ncg     rms          rms(c)
DAV:   1    -0.431292247737E+02    0.21766E-01   -0.26608E-02  3328   0.991E-01    0.638E-02
RMM:   2    -0.431303215793E+02   -0.10968E-02   -0.68768E-03  2008   0.307E-01
    961 T=   704. E= -.40395453E+02 F= -.43130322E+02 E0= -.43082453E+02  EK= 0.31862E+01 SP= -.55E+00 SK= 0.10E+00 mag=      0.269
       N       E                     dE             d eps       ncg     rms          rms(c)
DAV:   1    -0.431052729678E+02    0.23952E-01   -0.16179E-02  3056   0.995E-01    0.909E-02
RMM:   2    -0.431067960977E+02   -0.15231E-02   -0.68933E-03  2057   0.298E-01
    962 T=   729. E= -.40388192E+02 F= -.43106796E+02 E0= -.43058679E+02  EK= 0.32960E+01 SP= -.69E+00 SK= 0.12E+00 mag=     -0.108
       N       E                     dE             d eps       ncg     rms          rms(c)
DAV:   1    -0.430791889001E+02    0.26084E-01   -0.17409E-02  3440   0.108E+00    0.133E-01
RMM:   2    -0.430816491747E+02   -0.24603E-02   -0.72434E-03  2036   0.309E-01    0.110E-01
RMM:   3    -0.430836698750E+02   -0.20207E-02   -0.29341E-03  1874   0.126E-01    0.856E-02
RMM:   4    -0.430859601674E+02   -0.22903E-02   -0.45368E-03  1964   0.110E-01    0.304E-02
RMM:   5    -0.430861440331E+02   -0.18387E-03   -0.56380E-04  1626   0.586E-02
    963 T=   755. E= -.40386138E+02 F= -.43086144E+02 E0= -.43037957E+02  EK= 0.34154E+01 SP= -.84E+00 SK= 0.13E+00 mag=     -0.065
       N       E                     dE             d eps       ncg     rms          rms(c)
DAV:   1    -0.430532670801E+02    0.32693E-01   -0.30531E-02  3352   0.104E+00    0.173E-01
RMM:   2    -0.430565799517E+02   -0.33129E-02   -0.73451E-03  1868   0.243E-01    0.141E-01
RMM:   3    -0.430598694082E+02   -0.32895E-02   -0.33353E-03  1824   0.105E-01    0.111E-01
RMM:   4    -0.430634571006E+02   -0.35877E-02   -0.76190E-03  2009   0.112E-01    0.324E-02
RMM:   5    -0.430635366541E+02   -0.79554E-04   -0.42042E-04  1621   0.562E-02
    964 T=   783. E= -.40385130E+02 F= -.43063537E+02 E0= -.43015267E+02  EK= 0.35416E+01 SP= -.10E+01 SK= 0.13E+00 mag=      0.043
       N       E                     dE             d eps       ncg     rms          rms(c)
DAV:   1    -0.430387445953E+02    0.24713E-01   -0.12799E-02  3256   0.102E+00    0.675E-02
RMM:   2    -0.430396976266E+02   -0.95303E-03   -0.50423E-03  2014   0.266E-01
    965 T=   813. E= -.40380192E+02 F= -.43039698E+02 E0= -.42991546E+02  EK= 0.36780E+01 SP= -.12E+01 SK= 0.13E+00 mag=      0.161
       N       E                     dE             d eps       ncg     rms          rms(c)
DAV:   1    -0.430112162032E+02    0.27528E-01   -0.19225E-02  3864   0.109E+00    0.119E-01
RMM:   2    -0.430135321074E+02   -0.23159E-02   -0.77758E-03  2005   0.283E-01    0.995E-02
RMM:   3    -0.430154189706E+02   -0.18869E-02   -0.32577E-03  1827   0.118E-01    0.764E-02
RMM:   4    -0.430172047817E+02   -0.17858E-02   -0.46012E-03  1890   0.965E-02
    966 T=   844. E= -.40378359E+02 F= -.43017205E+02 E0= -.42968817E+02  EK= 0.38170E+01 SP= -.13E+01 SK= 0.13E+00 mag=      0.054
       N       E                     dE             d eps       ncg     rms          rms(c)
DAV:   1    -0.429869090097E+02    0.28510E-01   -0.23787E-02  3352   0.109E+00    0.128E-01
RMM:   2    -0.429892545632E+02   -0.23456E-02   -0.64689E-03  1954   0.250E-01    0.101E-01
RMM:   3    -0.429912235634E+02   -0.19690E-02   -0.36039E-03  1824   0.974E-02    0.744E-02
RMM:   4    -0.429925930360E+02   -0.13695E-02   -0.24979E-03  1817   0.687E-02
    967 T=   874. E= -.40377172E+02 F= -.42992593E+02 E0= -.42944163E+02  EK= 0.39539E+01 SP= -.15E+01 SK= 0.12E+00 mag=     -0.085
       N       E                     dE             d eps       ncg     rms          rms(c)
DAV:   1    -0.429655752839E+02    0.25648E-01   -0.21473E-02  3680   0.111E+00    0.828E-02
RMM:   2    -0.429667781990E+02   -0.12029E-02   -0.51576E-03  1987   0.264E-01
    968 T=   904. E= -.40372696E+02 F= -.42966778E+02 E0= -.42918308E+02  EK= 0.40893E+01 SP= -.16E+01 SK= 0.10E+00 mag=     -0.173
       N       E                     dE             d eps       ncg     rms          rms(c)
DAV:   1    -0.429382874790E+02    0.27288E-01   -0.24832E-02  3912   0.114E+00    0.542E-02
RMM:   2    -0.429394005917E+02   -0.11131E-02   -0.59081E-03  1986   0.274E-01
    969 T=   931. E= -.40371525E+02 F= -.42939401E+02 E0= -.42890767E+02  EK= 0.42115E+01 SP= -.17E+01 SK= 0.84E-01 mag=     -0.153
       N       E                     dE             d eps       ncg     rms          rms(c)
DAV:   1    -0.429084594531E+02    0.29828E-01   -0.16623E-02  3432   0.114E+00    0.697E-02
RMM:   2    -0.429097502638E+02   -0.12908E-02   -0.62946E-03  2009   0.289E-01
    970 T=   955. E= -.40367953E+02 F= -.42909750E+02 E0= -.42860920E+02  EK= 0.43208E+01 SP= -.18E+01 SK= 0.63E-01 mag=     -0.015
       N       E                     dE             d eps       ncg     rms          rms(c)
DAV:   1    -0.428768749084E+02    0.31585E-01   -0.24182E-02  3640   0.123E+00    0.771E-02
RMM:   2    -0.428783724407E+02   -0.14975E-02   -0.70421E-03  2043   0.316E-01
    971 T=   976. E= -.40360551E+02 F= -.42878372E+02 E0= -.42829512E+02  EK= 0.44146E+01 SP= -.19E+01 SK= 0.43E-01 mag=      0.181
       N       E                     dE             d eps       ncg     rms          rms(c)
DAV:   1    -0.428436980875E+02    0.33177E-01   -0.13314E-02  3304   0.115E+00    0.683E-02
RMM:   2    -0.428451653105E+02   -0.14672E-02   -0.70608E-03  2039   0.336E-01
    972 T=   991. E= -.40354621E+02 F= -.42845165E+02 E0= -.42796428E+02  EK= 0.44832E+01 SP= -.20E+01 SK= 0.26E-01 mag=      0.313
       N       E                     dE             d eps       ncg     rms          rms(c)
DAV:   1    -0.428080465372E+02    0.35652E-01   -0.21161E-02  3672   0.122E+00    0.693E-02
RMM:   2    -0.428094630503E+02   -0.14165E-02   -0.67018E-03  1995   0.299E-01
    973 T=  1000. E= -.40348504E+02 F= -.42809463E+02 E0= -.42760593E+02  EK= 0.45242E+01 SP= -.21E+01 SK= 0.12E-01 mag=      0.282
       N       E                     dE             d eps       ncg     rms          rms(c)
DAV:   1    -0.427689497800E+02    0.39097E-01   -0.21153E-02  3504   0.120E+00    0.846E-02
RMM:   2    -0.427708174495E+02   -0.18677E-02   -0.75430E-03  2033   0.321E-01    0.686E-02
RMM:   3    -0.427718287971E+02   -0.10113E-02   -0.26602E-03  1897   0.123E-01
    974 T=  1002. E= -.40344054E+02 F= -.42771829E+02 E0= -.42722565E+02  EK= 0.45341E+01 SP= -.21E+01 SK= 0.30E-02 mag=      0.037
       N       E                     dE             d eps       ncg     rms          rms(c)
DAV:   1    -0.427291923332E+02    0.41625E-01   -0.27229E-02  3504   0.116E+00    0.857E-02
RMM:   2    -0.427311017257E+02   -0.19094E-02   -0.60016E-03  1909   0.294E-01    0.660E-02
RMM:   3    -0.427316181281E+02   -0.51640E-03   -0.14900E-03  1686   0.107E-01
    975 T=   998. E= -.40336949E+02 F= -.42731618E+02 E0= -.42682627E+02  EK= 0.45159E+01 SP= -.21E+01 SK= 0.38E-05 mag=     -0.216
       N       E                     dE             d eps       ncg     rms          rms(c)
DAV:   1    -0.426873222651E+02    0.43779E-01   -0.42018E-02  3872   0.117E+00    0.111E-01
RMM:   2    -0.426890604525E+02   -0.17382E-02   -0.62431E-03  2024   0.273E-01
    976 T=   988. E= -.40328289E+02 F= -.42689060E+02 E0= -.42640125E+02  EK= 0.44694E+01 SP= -.21E+01 SK= 0.24E-02 mag=     -0.324
       N       E                     dE             d eps       ncg     rms          rms(c)
DAV:   1    -0.426455524054E+02    0.41770E-01   -0.35888E-02  3760   0.119E+00    0.969E-02
RMM:   2    -0.426472916207E+02   -0.17392E-02   -0.67793E-03  2015   0.284E-01
    977 T=   971. E= -.40324937E+02 F= -.42647292E+02 E0= -.42598201E+02  EK= 0.43929E+01 SP= -.21E+01 SK= 0.93E-02 mag=     -0.208
       N       E                     dE             d eps       ncg     rms          rms(c)
DAV:   1    -0.426048843736E+02    0.40668E-01   -0.22156E-02  3736   0.113E+00    0.568E-02
RMM:   2    -0.426062546619E+02   -0.13703E-02   -0.73277E-03  2027   0.323E-01
    978 T=   950. E= -.40320528E+02 F= -.42606255E+02 E0= -.42557150E+02  EK= 0.42960E+01 SP= -.20E+01 SK= 0.19E-01 mag=      0.102
       N       E                     dE             d eps       ncg     rms          rms(c)
DAV:   1    -0.425611847603E+02    0.43700E-01   -0.25199E-02  3408   0.120E+00    0.900E-02
RMM:   2    -0.425630216808E+02   -0.18369E-02   -0.82726E-03  2111   0.306E-01    0.725E-02
RMM:   3    -0.425637153885E+02   -0.69371E-03   -0.20806E-03  1954   0.118E-01
    979 T=   924. E= -.40313478E+02 F= -.42563715E+02 E0= -.42515285E+02  EK= 0.41822E+01 SP= -.20E+01 SK= 0.31E-01 mag=      0.182
       N       E                     dE             d eps       ncg     rms          rms(c)
DAV:   1    -0.425217691583E+02    0.41253E-01   -0.27315E-02  3368   0.113E+00    0.917E-02
RMM:   2    -0.425232639880E+02   -0.14948E-02   -0.53693E-03  1891   0.285E-01
    980 T=   897. E= -.40305427E+02 F= -.42523264E+02 E0= -.42474618E+02  EK= 0.40579E+01 SP= -.19E+01 SK= 0.42E-01 mag=      0.039
       N       E                     dE             d eps       ncg     rms          rms(c)
DAV:   1    -0.424824756230E+02    0.39294E-01   -0.39057E-02  4000   0.121E+00    0.800E-02
RMM:   2    -0.424838599302E+02   -0.13843E-02   -0.57483E-03  2002   0.262E-01
    981 T=   868. E= -.40297026E+02 F= -.42483860E+02 E0= -.42435670E+02  EK= 0.39259E+01 SP= -.18E+01 SK= 0.51E-01 mag=     -0.244
       N       E                     dE             d eps       ncg     rms          rms(c)
DAV:   1    -0.424445727586E+02    0.37903E-01   -0.17157E-02  3208   0.102E+00    0.917E-02
RMM:   2    -0.424461957680E+02   -0.16230E-02   -0.66821E-03  2025   0.306E-01
    982 T=   838. E= -.40290582E+02 F= -.42446196E+02 E0= -.42399253E+02  EK= 0.37890E+01 SP= -.17E+01 SK= 0.57E-01 mag=     -0.486
       N       E                     dE             d eps       ncg     rms          rms(c)
DAV:   1    -0.424101444710E+02    0.34428E-01   -0.26461E-02  3528   0.117E+00    0.102E-01
RMM:   2    -0.424119682538E+02   -0.18238E-02   -0.69799E-03  2007   0.294E-01    0.824E-02
RMM:   3    -0.424127104803E+02   -0.74223E-03   -0.20417E-03  1918   0.111E-01
    983 T=   808. E= -.40285320E+02 F= -.42412710E+02 E0= -.42366079E+02  EK= 0.36545E+01 SP= -.16E+01 SK= 0.60E-01 mag=     -0.234
       N       E                     dE             d eps       ncg     rms          rms(c)
DAV:   1    -0.423809556078E+02    0.31013E-01   -0.35666E-02  3248   0.117E+00    0.114E-01
RMM:   2    -0.423832119168E+02   -0.22563E-02   -0.81008E-03  1976   0.320E-01    0.802E-02
RMM:   3    -0.423837185297E+02   -0.50661E-03   -0.16435E-03  1788   0.106E-01
    984 T=   779. E= -.40280913E+02 F= -.42383719E+02 E0= -.42337007E+02  EK= 0.35265E+01 SP= -.15E+01 SK= 0.60E-01 mag=      0.304
       N       E                     dE             d eps       ncg     rms          rms(c)
DAV:   1    -0.423511061160E+02    0.32106E-01   -0.76469E-02  3592   0.122E+00    0.160E-01
RMM:   2    -0.423540286516E+02   -0.29225E-02   -0.80129E-03  2042   0.322E-01    0.123E-01
RMM:   3    -0.423559384582E+02   -0.19098E-02   -0.22804E-03  1949   0.124E-01    0.101E-01
RMM:   4    -0.423585669396E+02   -0.26285E-02   -0.38325E-03  1945   0.114E-01    0.458E-02
RMM:   5    -0.423590889328E+02   -0.52199E-03   -0.91264E-04  1671   0.706E-02
    985 T=   753. E= -.40276803E+02 F= -.42359089E+02 E0= -.42312220E+02  EK= 0.34083E+01 SP= -.14E+01 SK= 0.55E-01 mag=      0.084
       N       E                     dE             d eps       ncg     rms          rms(c)
DAV:   1    -0.423328689265E+02    0.25698E-01   -0.17856E-02  3376   0.102E+00    0.125E-01
RMM:   2    -0.423348750170E+02   -0.20061E-02   -0.51768E-03  1929   0.232E-01    0.991E-02
RMM:   3    -0.423362849145E+02   -0.14099E-02   -0.18660E-03  1826   0.105E-01
    986 T=   730. E= -.40271361E+02 F= -.42336285E+02 E0= -.42290837E+02  EK= 0.33012E+01 SP= -.13E+01 SK= 0.48E-01 mag=     -0.345
       N       E                     dE             d eps       ncg     rms          rms(c)
DAV:   1    -0.423148931404E+02    0.19982E-01   -0.26926E-02  3488   0.104E+00    0.139E-01
RMM:   2    -0.423170684302E+02   -0.21753E-02   -0.65804E-03  1984   0.311E-01    0.108E-01
RMM:   3    -0.423189578248E+02   -0.18894E-02   -0.28417E-03  1830   0.130E-01    0.903E-02
RMM:   4    -0.423211521305E+02   -0.21943E-02   -0.43476E-03  1938   0.119E-01    0.500E-02
RMM:   5    -0.423216854289E+02   -0.53330E-03   -0.97969E-04  1678   0.738E-02
    987 T=   709. E= -.40269583E+02 F= -.42321685E+02 E0= -.42275544E+02  EK= 0.32084E+01 SP= -.12E+01 SK= 0.39E-01 mag=     -0.080
       N       E                     dE             d eps       ncg     rms          rms(c)
DAV:   1    -0.423051541358E+02    0.15998E-01   -0.13277E-02  3112   0.986E-01    0.124E-01
RMM:   2    -0.423068662505E+02   -0.17121E-02   -0.52442E-03  1874   0.217E-01
    988 T=   693. E= -.40259990E+02 F= -.42306866E+02 E0= -.42263206E+02  EK= 0.31341E+01 SP= -.11E+01 SK= 0.30E-01 mag=      0.598
       N       E                     dE             d eps       ncg     rms          rms(c)
DAV:   1    -0.422852271555E+02    0.19927E-01   -0.35694E-02  3624   0.106E+00    0.245E-01
RMM:   2    -0.422912398534E+02   -0.60127E-02   -0.84546E-03  1962   0.279E-01    0.196E-01
RMM:   3    -0.422966166774E+02   -0.53768E-02   -0.47537E-03  1826   0.135E-01    0.155E-01
RMM:   4    -0.423034134042E+02   -0.67967E-02   -0.13598E-02  2113   0.162E-01    0.514E-02
RMM:   5    -0.423041840597E+02   -0.77066E-03   -0.22896E-03  1889   0.921E-02
    989 T=   680. E= -.40258113E+02 F= -.42304184E+02 E0= -.42258703E+02  EK= 0.30759E+01 SP= -.10E+01 SK= 0.20E-01 mag=      0.017
       N       E                     dE             d eps       ncg     rms          rms(c)
DAV:   1    -0.422794288405E+02    0.23985E-01   -0.33228E-02  3232   0.975E-01    0.273E-01
RMM:   2    -0.422869470244E+02   -0.75182E-02   -0.12571E-02  1919   0.267E-01    0.217E-01
RMM:   3    -0.422937344221E+02   -0.67874E-02   -0.71174E-03  1824   0.128E-01    0.170E-01
RMM:   4    -0.423002485257E+02   -0.65141E-02   -0.88743E-03  2015   0.126E-01    0.890E-02
RMM:   5    -0.423025388165E+02   -0.22903E-02   -0.49006E-03  2045   0.110E-01    0.288E-02
RMM:   6    -0.423027054197E+02   -0.16660E-03   -0.59184E-04  1622   0.601E-02
    990 T=   670. E= -.40257231E+02 F= -.42302705E+02 E0= -.42257588E+02  EK= 0.30302E+01 SP= -.10E+01 SK= 0.12E-01 mag=     -0.019
       N       E                     dE             d eps       ncg     rms          rms(c)
DAV:   1    -0.423029901267E+02   -0.45131E-03   -0.10007E-02  2840   0.968E-01    0.873E-02
RMM:   2    -0.423042768531E+02   -0.12867E-02   -0.47913E-03  1986   0.247E-01
    991 T=   664. E= -.40250889E+02 F= -.42304277E+02 E0= -.42260192E+02  EK= 0.30057E+01 SP= -.96E+00 SK= 0.55E-02 mag=      0.353
       N       E                     dE             d eps       ncg     rms          rms(c)
DAV:   1    -0.423039758005E+02   -0.98567E-03   -0.19504E-02  3544   0.993E-01    0.169E-01
RMM:   2    -0.423072451953E+02   -0.32694E-02   -0.59793E-03  1940   0.262E-01    0.139E-01
RMM:   3    -0.423097542629E+02   -0.25091E-02   -0.24425E-03  1832   0.114E-01    0.110E-01
RMM:   4    -0.423134082467E+02   -0.36540E-02   -0.79339E-03  2102   0.124E-01    0.360E-02
RMM:   5    -0.423137143158E+02   -0.30607E-03   -0.73027E-04  1664   0.611E-02
    992 T=   663. E= -.40248225E+02 F= -.42313714E+02 E0= -.42269298E+02  EK= 0.29981E+01 SP= -.93E+00 SK= 0.14E-02 mag=      0.050
       N       E                     dE             d eps       ncg     rms          rms(c)
DAV:   1    -0.423149751382E+02   -0.15669E-02   -0.24684E-02  3240   0.957E-01    0.175E-01
RMM:   2    -0.423186283718E+02   -0.36532E-02   -0.75915E-03  1876   0.233E-01    0.141E-01
RMM:   3    -0.423215421177E+02   -0.29137E-02   -0.32695E-03  1824   0.970E-02    0.111E-01
RMM:   4    -0.423246978615E+02   -0.31557E-02   -0.55526E-03  1957   0.889E-02    0.489E-02
RMM:   5    -0.423252448590E+02   -0.54700E-03   -0.10093E-03  1688   0.565E-02
    993 T=   664. E= -.40247570E+02 F= -.42325245E+02 E0= -.42281193E+02  EK= 0.30034E+01 SP= -.93E+00 SK= 0.32E-05 mag=     -0.083
       N       E                     dE             d eps       ncg     rms          rms(c)
DAV:   1    -0.423382289671E+02   -0.13531E-01   -0.14432E-02  3136   0.952E-01    0.847E-02
RMM:   2    -0.423394790975E+02   -0.12501E-02   -0.46255E-03  1892   0.234E-01
    994 T=   669. E= -.40242449E+02 F= -.42339479E+02 E0= -.42295665E+02  EK= 0.30285E+01 SP= -.93E+00 SK= 0.11E-02 mag=     -0.033
       N       E                     dE             d eps       ncg     rms          rms(c)
DAV:   1    -0.423546775654E+02   -0.16449E-01   -0.16263E-02  3552   0.102E+00    0.114E-01
RMM:   2    -0.423565485619E+02   -0.18710E-02   -0.57291E-03  1997   0.261E-01    0.901E-02
RMM:   3    -0.423575869273E+02   -0.10384E-02   -0.16622E-03  1856   0.106E-01
    995 T=   678. E= -.40237690E+02 F= -.42357587E+02 E0= -.42314045E+02  EK= 0.30694E+01 SP= -.95E+00 SK= 0.45E-02 mag=      0.027
       N       E                     dE             d eps       ncg     rms          rms(c)
DAV:   1    -0.423756772708E+02   -0.19129E-01   -0.23137E-02  3272   0.993E-01    0.120E-01
RMM:   2    -0.423784029900E+02   -0.27257E-02   -0.55438E-03  1907   0.252E-01    0.875E-02
RMM:   3    -0.423791708166E+02   -0.76783E-03   -0.16317E-03  1818   0.933E-02
    996 T=   690. E= -.40236146E+02 F= -.42379171E+02 E0= -.42335816E+02  EK= 0.31226E+01 SP= -.99E+00 SK= 0.95E-02 mag=      0.057
       N       E                     dE             d eps       ncg     rms          rms(c)
DAV:   1    -0.423999535839E+02   -0.21551E-01   -0.65375E-02  3136   0.104E+00    0.108E-01
RMM:   2    -0.424018410507E+02   -0.18875E-02   -0.71693E-03  1992   0.296E-01    0.767E-02
RMM:   3    -0.424026374339E+02   -0.79638E-03   -0.19197E-03  1891   0.107E-01
    997 T=   705. E= -.40232543E+02 F= -.42402637E+02 E0= -.42359489E+02  EK= 0.31909E+01 SP= -.10E+01 SK= 0.15E-01 mag=      0.053
       N       E                     dE             d eps       ncg     rms          rms(c)
DAV:   1    -0.424269195569E+02   -0.25079E-01   -0.61887E-02  3232   0.105E+00    0.531E-02
RMM:   2    -0.424279634909E+02   -0.10439E-02   -0.58067E-03  1999   0.284E-01
    998 T=   724. E= -.40227203E+02 F= -.42427963E+02 E0= -.42384879E+02  EK= 0.32733E+01 SP= -.11E+01 SK= 0.22E-01 mag=      0.008
       N       E                     dE             d eps       ncg     rms          rms(c)
DAV:   1    -0.424503138476E+02   -0.23394E-01   -0.39034E-02  3424   0.108E+00    0.741E-02
RMM:   2    -0.424515237000E+02   -0.12099E-02   -0.66077E-03  2004   0.273E-01
    999 T=   744. E= -.40220417E+02 F= -.42451524E+02 E0= -.42408614E+02  EK= 0.33646E+01 SP= -.12E+01 SK= 0.27E-01 mag=     -0.069
       N       E                     dE             d eps       ncg     rms          rms(c)
DAV:   1    -0.424733573405E+02   -0.23043E-01   -0.16046E-02  3400   0.103E+00    0.982E-02
RMM:   2    -0.424748798046E+02   -0.15225E-02   -0.63357E-03  2003   0.306E-01
   1000 T=   766. E= -.40213180E+02 F= -.42474880E+02 E0= -.42432095E+02  EK= 0.34637E+01 SP= -.12E+01 SK= 0.31E-01 mag=     -0.134
       N       E                     dE             d eps       ncg     rms          rms(c)
DAV:   1    -0.424981663133E+02   -0.24809E-01   -0.18399E-02  3352   0.116E+00    0.604E-02
RMM:   2    -0.424993216583E+02   -0.11553E-02   -0.62019E-03  2009   0.300E-01
   1001 T=   789. E= -.40207154E+02 F= -.42499322E+02 E0= -.42456471E+02  EK= 0.35685E+01 SP= -.13E+01 SK= 0.33E-01 mag=     -0.140
       N       E                     dE             d eps       ncg     rms          rms(c)
DAV:   1    -0.425200850316E+02   -0.21919E-01   -0.10768E-02  2936   0.104E+00    0.437E-02
RMM:   2    -0.425211261667E+02   -0.10411E-02   -0.68055E-03  2036   0.312E-01
   1002 T=   812. E= -.40200387E+02 F= -.42521126E+02 E0= -.42478142E+02  EK= 0.36749E+01 SP= -.14E+01 SK= 0.33E-01 mag=     -0.059
       N       E                     dE             d eps       ncg     rms          rms(c)
DAV:   1    -0.425358570789E+02   -0.15772E-01   -0.18555E-02  3536   0.114E+00    0.107E-01
RMM:   2    -0.425379482177E+02   -0.20911E-02   -0.77668E-03  2024   0.294E-01    0.897E-02
RMM:   3    -0.425397616599E+02   -0.18134E-02   -0.35560E-03  1826   0.127E-01    0.606E-02
RMM:   4    -0.425407647133E+02   -0.10031E-02   -0.22278E-03  1820   0.871E-02
   1003 T=   835. E= -.40195756E+02 F= -.42540765E+02 E0= -.42497682E+02  EK= 0.37778E+01 SP= -.15E+01 SK= 0.31E-01 mag=      0.047
       N       E                     dE             d eps       ncg     rms          rms(c)
DAV:   1    -0.425521970529E+02   -0.12435E-01   -0.16260E-02  3432   0.110E+00    0.109E-01
RMM:   2    -0.425541623489E+02   -0.19653E-02   -0.71162E-03  1912   0.285E-01    0.846E-02
RMM:   3    -0.425554597914E+02   -0.12974E-02   -0.24602E-03  1823   0.101E-01
   1004 T=   856. E= -.40190575E+02 F= -.42555460E+02 E0= -.42512220E+02  EK= 0.38743E+01 SP= -.15E+01 SK= 0.27E-01 mag=      0.014
       N       E                     dE             d eps       ncg     rms          rms(c)
DAV:   1    -0.425662631742E+02   -0.12101E-01   -0.32197E-02  3632   0.115E+00    0.870E-02
RMM:   2    -0.425677879389E+02   -0.15248E-02   -0.68761E-03  1891   0.286E-01
   1005 T=   876. E= -.40184605E+02 F= -.42567788E+02 E0= -.42524364E+02  EK= 0.39642E+01 SP= -.16E+01 SK= 0.22E-01 mag=     -0.114
       N       E                     dE             d eps       ncg     rms          rms(c)
DAV:   1    -0.425736286700E+02   -0.73655E-02   -0.42841E-02  3744   0.123E+00    0.596E-02
RMM:   2    -0.425749887125E+02   -0.13600E-02   -0.69048E-03  2036   0.287E-01
   1006 T=   893. E= -.40180968E+02 F= -.42574989E+02 E0= -.42531450E+02  EK= 0.40387E+01 SP= -.17E+01 SK= 0.15E-01 mag=     -0.249
       N       E                     dE             d eps       ncg     rms          rms(c)
DAV:   1    -0.425765456724E+02   -0.29170E-02   -0.22745E-02  3264   0.109E+00    0.786E-02
RMM:   2    -0.425779564330E+02   -0.14108E-02   -0.72933E-03  2032   0.332E-01
   1007 T=   906. E= -.40174973E+02 F= -.42577956E+02 E0= -.42534192E+02  EK= 0.41009E+01 SP= -.17E+01 SK= 0.96E-02 mag=     -0.276
       N       E                     dE             d eps       ncg     rms          rms(c)
DAV:   1    -0.425749850474E+02    0.15606E-02   -0.24462E-02  3472   0.127E+00    0.621E-02
RMM:   2    -0.425763698602E+02   -0.13848E-02   -0.72205E-03  2028   0.312E-01
   1008 T=   917. E= -.40166848E+02 F= -.42576370E+02 E0= -.42532165E+02  EK= 0.41478E+01 SP= -.17E+01 SK= 0.47E-02 mag=     -0.140
       N       E                     dE             d eps       ncg     rms          rms(c)
DAV:   1    -0.425685580255E+02    0.64270E-02   -0.13232E-02  3280   0.112E+00    0.623E-02
RMM:   2    -0.425698900966E+02   -0.13321E-02   -0.70296E-03  2036   0.332E-01
   1009 T=   923. E= -.40159607E+02 F= -.42569890E+02 E0= -.42525353E+02  EK= 0.41743E+01 SP= -.18E+01 SK= 0.14E-02 mag=      0.117
       N       E                     dE             d eps       ncg     rms          rms(c)
DAV:   1    -0.425571817155E+02    0.11376E-01   -0.23170E-02  3648   0.127E+00    0.809E-02
RMM:   2    -0.425587340833E+02   -0.15524E-02   -0.73626E-03  2037   0.313E-01
   1010 T=   924. E= -.40151546E+02 F= -.42558734E+02 E0= -.42514223E+02  EK= 0.41813E+01 SP= -.18E+01 SK= 0.18E-04 mag=      0.360
       N       E                     dE             d eps       ncg     rms          rms(c)
DAV:   1    -0.425412580894E+02    0.15924E-01   -0.19341E-02  3328   0.114E+00    0.920E-02
RMM:   2    -0.425431699390E+02   -0.19118E-02   -0.76439E-03  2015   0.336E-01    0.757E-02
RMM:   3    -0.425442969581E+02   -0.11270E-02   -0.28151E-03  1898   0.133E-01
   1011 T=   921. E= -.40146426E+02 F= -.42544297E+02 E0= -.42499459E+02  EK= 0.41661E+01 SP= -.18E+01 SK= 0.79E-03 mag=      0.155
       N       E                     dE             d eps       ncg     rms          rms(c)
DAV:   1    -0.425230136677E+02    0.20156E-01   -0.27916E-02  3488   0.115E+00    0.103E-01
RMM:   2    -0.425249515146E+02   -0.19378E-02   -0.61456E-03  1938   0.315E-01    0.754E-02
RMM:   3    -0.425254536467E+02   -0.50213E-03   -0.14345E-03  1620   0.111E-01
   1012 T=   914. E= -.40139247E+02 F= -.42525454E+02 E0= -.42480288E+02  EK= 0.41331E+01 SP= -.18E+01 SK= 0.35E-02 mag=     -0.215
       N       E                     dE             d eps       ncg     rms          rms(c)
DAV:   1    -0.424995444123E+02    0.25407E-01   -0.44208E-02  3672   0.114E+00    0.128E-01
RMM:   2    -0.425015157653E+02   -0.19714E-02   -0.65956E-03  1987   0.273E-01    0.958E-02
RMM:   3    -0.425026337813E+02   -0.11180E-02   -0.18811E-03  1927   0.111E-01
   1013 T=   902. E= -.40131949E+02 F= -.42502634E+02 E0= -.42457629E+02  EK= 0.40821E+01 SP= -.17E+01 SK= 0.77E-02 mag=     -0.288
       N       E                     dE             d eps       ncg     rms          rms(c)
DAV:   1    -0.424785057594E+02    0.23010E-01   -0.24318E-02  3536   0.125E+00    0.770E-02
RMM:   2    -0.424796278263E+02   -0.11221E-02   -0.59676E-03  2046   0.302E-01
   1014 T=   888. E= -.40125126E+02 F= -.42479628E+02 E0= -.42433791E+02  EK= 0.40182E+01 SP= -.17E+01 SK= 0.13E-01 mag=     -0.049
       N       E                     dE             d eps       ncg     rms          rms(c)
DAV:   1    -0.424502859941E+02    0.28220E-01   -0.35935E-02  4040   0.117E+00    0.806E-02
RMM:   2    -0.424516416303E+02   -0.13556E-02   -0.64441E-03  2011   0.269E-01
   1015 T=   871. E= -.40117379E+02 F= -.42451642E+02 E0= -.42406078E+02  EK= 0.39403E+01 SP= -.16E+01 SK= 0.18E-01 mag=      0.348
       N       E                     dE             d eps       ncg     rms          rms(c)
DAV:   1    -0.424181513262E+02    0.32135E-01   -0.17436E-02  3144   0.112E+00    0.133E-01
RMM:   2    -0.424205792215E+02   -0.24279E-02   -0.69200E-03  2000   0.293E-01    0.108E-01
RMM:   3    -0.424231226520E+02   -0.25434E-02   -0.41907E-03  1853   0.138E-01    0.705E-02
RMM:   4    -0.424244164265E+02   -0.12938E-02   -0.24550E-03  1834   0.970E-02
   1016 T=   851. E= -.40116634E+02 F= -.42424416E+02 E0= -.42378507E+02  EK= 0.38488E+01 SP= -.16E+01 SK= 0.22E-01 mag=      0.106
       N       E                     dE             d eps       ncg     rms          rms(c)
DAV:   1    -0.423907715184E+02    0.32351E-01   -0.24328E-02  3544   0.112E+00    0.128E-01
RMM:   2    -0.423928346467E+02   -0.20631E-02   -0.59793E-03  1880   0.280E-01    0.984E-02
RMM:   3    -0.423941462552E+02   -0.13116E-02   -0.20921E-03  1824   0.107E-01
   1017 T=   830. E= -.40109626E+02 F= -.42394146E+02 E0= -.42348659E+02  EK= 0.37561E+01 SP= -.15E+01 SK= 0.26E-01 mag=     -0.283
       N       E                     dE             d eps       ncg     rms          rms(c)
DAV:   1    -0.423615087623E+02    0.31326E-01   -0.38045E-02  3552   0.108E+00    0.138E-01
RMM:   2    -0.423636926218E+02   -0.21839E-02   -0.67790E-03  1935   0.289E-01    0.107E-01
RMM:   3    -0.423650660235E+02   -0.13734E-02   -0.22431E-03  1846   0.114E-01
   1018 T=   809. E= -.40103445E+02 F= -.42365066E+02 E0= -.42319911E+02  EK= 0.36620E+01 SP= -.14E+01 SK= 0.27E-01 mag=     -0.355
       N       E                     dE             d eps       ncg     rms          rms(c)
DAV:   1    -0.423378670215E+02    0.25826E-01   -0.24757E-02  3400   0.105E+00    0.997E-02
RMM:   2    -0.423389467288E+02   -0.10797E-02   -0.54588E-03  1972   0.264E-01
   1019 T=   789. E= -.40100916E+02 F= -.42338947E+02 E0= -.42292809E+02  EK= 0.35679E+01 SP= -.14E+01 SK= 0.27E-01 mag=     -0.082
       N       E                     dE             d eps       ncg     rms          rms(c)
DAV:   1    -0.423085540982E+02    0.29313E-01   -0.39382E-02  3840   0.109E+00    0.916E-02
RMM:   2    -0.423098880509E+02   -0.13340E-02   -0.63695E-03  2000   0.257E-01
   1020 T=   768. E= -.40096059E+02 F= -.42309888E+02 E0= -.42264431E+02  EK= 0.34763E+01 SP= -.13E+01 SK= 0.26E-01 mag=      0.409
       N       E                     dE             d eps       ncg     rms          rms(c)
DAV:   1    -0.422755380225E+02    0.33016E-01   -0.17953E-02  3416   0.102E+00    0.169E-01
RMM:   2    -0.422788976100E+02   -0.33596E-02   -0.78453E-03  2030   0.292E-01    0.138E-01
RMM:   3    -0.422814927545E+02   -0.25951E-02   -0.33561E-03  1873   0.124E-01    0.105E-01
RMM:   4    -0.422844187038E+02   -0.29259E-02   -0.43863E-03  1964   0.107E-01    0.505E-02
RMM:   5    -0.422850485010E+02   -0.62980E-03   -0.12401E-03  1743   0.649E-02
   1021 T=   749. E= -.40096043E+02 F= -.42285049E+02 E0= -.42239170E+02  EK= 0.33891E+01 SP= -.12E+01 SK= 0.22E-01 mag=      0.023
       N       E                     dE             d eps       ncg     rms          rms(c)
DAV:   1    -0.422491515337E+02    0.35267E-01   -0.30796E-02  3432   0.104E+00    0.183E-01
RMM:   2    -0.422531697746E+02   -0.40182E-02   -0.67499E-03  1906   0.260E-01    0.153E-01
RMM:   3    -0.422573512937E+02   -0.41815E-02   -0.44439E-03  1824   0.115E-01    0.950E-02
RMM:   4    -0.422599526687E+02   -0.26014E-02   -0.35148E-03  1854   0.105E-01    0.490E-02
RMM:   5    -0.422605554709E+02   -0.60280E-03   -0.12298E-03  1771   0.640E-02
   1022 T=   732. E= -.40093622E+02 F= -.42260555E+02 E0= -.42214792E+02  EK= 0.33114E+01 SP= -.12E+01 SK= 0.18E-01 mag=     -0.032
       N       E                     dE             d eps       ncg     rms          rms(c)
DAV:   1    -0.422364930105E+02    0.23460E-01   -0.22636E-02  3360   0.989E-01    0.640E-02
RMM:   2    -0.422375186183E+02   -0.10256E-02   -0.47421E-03  1988   0.253E-01
   1023 T=   718. E= -.40088308E+02 F= -.42237519E+02 E0= -.42191864E+02  EK= 0.32461E+01 SP= -.11E+01 SK= 0.13E-01 mag=      0.160
       N       E                     dE             d eps       ncg     rms          rms(c)
DAV:   1    -0.422138396109E+02    0.22653E-01   -0.22627E-02  3664   0.102E+00    0.993E-02
RMM:   2    -0.422155007909E+02   -0.16612E-02   -0.54351E-03  2002   0.256E-01
   1024 T=   705. E= -.40083104E+02 F= -.42215501E+02 E0= -.42170601E+02  EK= 0.31908E+01 SP= -.11E+01 SK= 0.81E-02 mag=      0.372
       N       E                     dE             d eps       ncg     rms          rms(c)
DAV:   1    -0.421960728240E+02    0.17767E-01   -0.13887E-02  3072   0.100E+00    0.995E-02
RMM:   2    -0.421973718781E+02   -0.12991E-02   -0.49765E-03  2004   0.262E-01
   1025 T=   696. E= -.40079892E+02 F= -.42197372E+02 E0= -.42152920E+02  EK= 0.31472E+01 SP= -.10E+01 SK= 0.40E-02 mag=      0.452
       N       E                     dE             d eps       ncg     rms          rms(c)
DAV:   1    -0.421807776458E+02    0.15295E-01   -0.18158E-02  3624   0.107E+00    0.673E-02
RMM:   2    -0.421820110723E+02   -0.12334E-02   -0.52292E-03  1974   0.256E-01
   1026 T=   689. E= -.40074749E+02 F= -.42182011E+02 E0= -.42137373E+02  EK= 0.31188E+01 SP= -.10E+01 SK= 0.12E-02 mag=      0.313
       N       E                     dE             d eps       ncg     rms          rms(c)
DAV:   1    -0.421673691967E+02    0.13408E-01   -0.10544E-02  2744   0.973E-01    0.683E-02
RMM:   2    -0.421684645872E+02   -0.10954E-02   -0.59467E-03  2003   0.299E-01
   1027 T=   686. E= -.40068586E+02 F= -.42168465E+02 E0= -.42123416E+02  EK= 0.31039E+01 SP= -.10E+01 SK= 0.30E-04 mag=     -0.022
       N       E                     dE             d eps       ncg     rms          rms(c)
DAV:   1    -0.421530060449E+02    0.14363E-01   -0.15142E-02  3408   0.103E+00    0.101E-01
RMM:   2    -0.421547080309E+02   -0.17020E-02   -0.58165E-03  1984   0.272E-01
   1028 T=   686. E= -.40060579E+02 F= -.42154708E+02 E0= -.42110594E+02  EK= 0.31017E+01 SP= -.10E+01 SK= 0.61E-03 mag=     -0.348
       N       E                     dE             d eps       ncg     rms          rms(c)
DAV:   1    -0.421426184058E+02    0.10388E-01   -0.20175E-02  3312   0.105E+00    0.117E-01
RMM:   2    -0.421443872685E+02   -0.17689E-02   -0.70583E-03  1999   0.308E-01
   1029 T=   688. E= -.40054071E+02 F= -.42144387E+02 E0= -.42101143E+02  EK= 0.31123E+01 SP= -.10E+01 SK= 0.30E-02 mag=     -0.524
       N       E                     dE             d eps       ncg     rms          rms(c)
DAV:   1    -0.421333933876E+02    0.92250E-02   -0.22404E-02  3456   0.102E+00    0.118E-01
RMM:   2    -0.421354905757E+02   -0.20972E-02   -0.74142E-03  2004   0.298E-01    0.952E-02
RMM:   3    -0.421364648251E+02   -0.97425E-03   -0.20499E-03  1947   0.112E-01
   1030 T=   693. E= -.40049353E+02 F= -.42136465E+02 E0= -.42092883E+02  EK= 0.31344E+01 SP= -.11E+01 SK= 0.70E-02 mag=     -0.231
       N       E                     dE             d eps       ncg     rms          rms(c)
DAV:   1    -0.421271030862E+02    0.83875E-02   -0.25783E-02  3280   0.102E+00    0.109E-01
RMM:   2    -0.421291678612E+02   -0.20648E-02   -0.57640E-03  1901   0.277E-01    0.850E-02
RMM:   3    -0.421298448887E+02   -0.67703E-03   -0.14672E-03  1774   0.982E-02
   1031 T=   700. E= -.40045828E+02 F= -.42129845E+02 E0= -.42086312E+02  EK= 0.31673E+01 SP= -.11E+01 SK= 0.12E-01 mag=      0.275
       N       E                     dE             d eps       ncg     rms          rms(c)
DAV:   1    -0.421167485863E+02    0.12419E-01   -0.54523E-02  3328   0.104E+00    0.170E-01
RMM:   2    -0.421195681000E+02   -0.28195E-02   -0.69411E-03  1998   0.281E-01    0.134E-01
RMM:   3    -0.421213778885E+02   -0.18098E-02   -0.21312E-03  1935   0.119E-01    0.112E-01
RMM:   4    -0.421246219771E+02   -0.32441E-02   -0.41248E-03  1951   0.104E-01    0.527E-02
RMM:   5    -0.421251728998E+02   -0.55092E-03   -0.75226E-04  1612   0.612E-02
   1032 T=   710. E= -.40044032E+02 F= -.42125173E+02 E0= -.42081288E+02  EK= 0.32107E+01 SP= -.11E+01 SK= 0.18E-01 mag=      0.055
       N       E                     dE             d eps       ncg     rms          rms(c)
DAV:   1    -0.421130871902E+02    0.11535E-01   -0.18683E-02  3432   0.104E+00    0.150E-01
RMM:   2    -0.421155012233E+02   -0.24140E-02   -0.56977E-03  1903   0.233E-01    0.121E-01
RMM:   3    -0.421172400038E+02   -0.17388E-02   -0.18524E-03  1823   0.103E-01
   1033 T=   722. E= -.40038080E+02 F= -.42117240E+02 E0= -.42074821E+02  EK= 0.32647E+01 SP= -.12E+01 SK= 0.25E-01 mag=     -0.313
       N       E                     dE             d eps       ncg     rms          rms(c)
DAV:   1    -0.421098143864E+02    0.56868E-02   -0.38633E-02  3416   0.104E+00    0.142E-01
RMM:   2    -0.421117860867E+02   -0.19717E-02   -0.64958E-03  1995   0.302E-01    0.109E-01
RMM:   3    -0.421138273314E+02   -0.20412E-02   -0.30000E-03  1852   0.131E-01    0.851E-02
RMM:   4    -0.421152128914E+02   -0.13856E-02   -0.17503E-03  1827   0.938E-02
   1034 T=   736. E= -.40036762E+02 F= -.42115213E+02 E0= -.42072124E+02  EK= 0.33290E+01 SP= -.13E+01 SK= 0.31E-01 mag=     -0.175
       N       E                     dE             d eps       ncg     rms          rms(c)
DAV:   1    -0.421098769782E+02    0.39504E-02   -0.16554E-02  3128   0.106E+00    0.120E-01
RMM:   2    -0.421108818437E+02   -0.10049E-02   -0.50042E-03  1931   0.236E-01
   1035 T=   753. E= -.40029805E+02 F= -.42110882E+02 E0= -.42068250E+02  EK= 0.34047E+01 SP= -.14E+01 SK= 0.37E-01 mag=      0.340
       N       E                     dE             d eps       ncg     rms          rms(c)
DAV:   1    -0.420958994800E+02    0.13977E-01   -0.33123E-02  3864   0.115E+00    0.197E-01
RMM:   2    -0.421003375243E+02   -0.44380E-02   -0.82133E-03  1950   0.282E-01    0.164E-01
RMM:   3    -0.421048458144E+02   -0.45083E-02   -0.47605E-03  1824   0.137E-01    0.125E-01
RMM:   4    -0.421093370381E+02   -0.44912E-02   -0.96071E-03  2093   0.140E-01    0.359E-02
RMM:   5    -0.421096333109E+02   -0.29627E-03   -0.86335E-04  1674   0.694E-02
   1036 T=   771. E= -.40026265E+02 F= -.42109633E+02 E0= -.42066701E+02  EK= 0.34867E+01 SP= -.14E+01 SK= 0.41E-01 mag=      0.013
       N       E                     dE             d eps       ncg     rms          rms(c)
DAV:   1    -0.420933919249E+02    0.15945E-01   -0.29296E-02  3240   0.106E+00    0.207E-01
RMM:   2    -0.420975557611E+02   -0.41638E-02   -0.92777E-03  1891   0.250E-01    0.164E-01
RMM:   3    -0.421014639931E+02   -0.39082E-02   -0.43762E-03  1824   0.115E-01    0.134E-01
RMM:   4    -0.421060989246E+02   -0.46349E-02   -0.85666E-03  2048   0.118E-01    0.616E-02
RMM:   5    -0.421068761827E+02   -0.77726E-03   -0.13422E-03  1773   0.716E-02
   1037 T=   789. E= -.40025753E+02 F= -.42106876E+02 E0= -.42064223E+02  EK= 0.35693E+01 SP= -.15E+01 SK= 0.43E-01 mag=     -0.047
       N       E                     dE             d eps       ncg     rms          rms(c)
DAV:   1    -0.421029193830E+02    0.31795E-02   -0.14680E-02  3328   0.109E+00    0.801E-02
RMM:   2    -0.421038663171E+02   -0.94693E-03   -0.50795E-03  1962   0.266E-01
   1038 T=   809. E= -.40020811E+02 F= -.42103866E+02 E0= -.42061523E+02  EK= 0.36594E+01 SP= -.16E+01 SK= 0.43E-01 mag=      0.125
       N       E                     dE             d eps       ncg     rms          rms(c)
DAV:   1    -0.420978827085E+02    0.50367E-02   -0.20534E-02  3880   0.115E+00    0.112E-01
RMM:   2    -0.420998054200E+02   -0.19227E-02   -0.65326E-03  1978   0.271E-01    0.906E-02
RMM:   3    -0.421008141982E+02   -0.10088E-02   -0.17819E-03  1847   0.106E-01
   1039 T=   829. E= -.40016038E+02 F= -.42100814E+02 E0= -.42059185E+02  EK= 0.37504E+01 SP= -.17E+01 SK= 0.41E-01 mag=      0.128
       N       E                     dE             d eps       ncg     rms          rms(c)
DAV:   1    -0.420977208735E+02    0.20845E-02   -0.40931E-02  3312   0.116E+00    0.112E-01
RMM:   2    -0.420998344033E+02   -0.21135E-02   -0.73677E-03  1940   0.299E-01    0.761E-02
RMM:   3    -0.421003459386E+02   -0.51154E-03   -0.19812E-03  1834   0.109E-01
   1040 T=   848. E= -.40015405E+02 F= -.42100346E+02 E0= -.42058544E+02  EK= 0.38387E+01 SP= -.18E+01 SK= 0.37E-01 mag=     -0.028
       N       E                     dE             d eps       ncg     rms          rms(c)
DAV:   1    -0.420958936263E+02    0.39408E-02   -0.67802E-02  3456   0.120E+00    0.109E-01
RMM:   2    -0.420977665171E+02   -0.18729E-02   -0.72447E-03  2001   0.312E-01    0.808E-02
RMM:   3    -0.420985447729E+02   -0.77826E-03   -0.17364E-03  1943   0.110E-01
   1041 T=   868. E= -.40010527E+02 F= -.42098545E+02 E0= -.42057046E+02  EK= 0.39261E+01 SP= -.19E+01 SK= 0.31E-01 mag=     -0.113
       N       E                     dE             d eps       ncg     rms          rms(c)
DAV:   1    -0.420973124896E+02    0.45403E-03   -0.43662E-02  3296   0.118E+00    0.720E-02
RMM:   2    -0.420985139100E+02   -0.12014E-02   -0.64800E-03  2027   0.303E-01
   1042 T=   886. E= -.40005200E+02 F= -.42098514E+02 E0= -.42057260E+02  EK= 0.40092E+01 SP= -.19E+01 SK= 0.25E-01 mag=     -0.100
       N       E                     dE             d eps       ncg     rms          rms(c)
DAV:   1    -0.420956931728E+02    0.16193E-02   -0.38279E-02  3720   0.120E+00    0.865E-02
RMM:   2    -0.420972785530E+02   -0.15854E-02   -0.76674E-03  2029   0.294E-01
   1043 T=   902. E= -.39999448E+02 F= -.42097279E+02 E0= -.42056150E+02  EK= 0.40824E+01 SP= -.20E+01 SK= 0.17E-01 mag=     -0.003
       N       E                     dE             d eps       ncg     rms          rms(c)
DAV:   1    -0.420950836328E+02    0.60954E-03   -0.19472E-02  3456   0.112E+00    0.105E-01
RMM:   2    -0.420970019964E+02   -0.19184E-02   -0.79326E-03  2033   0.337E-01    0.833E-02
RMM:   3    -0.420982322808E+02   -0.12303E-02   -0.23109E-03  1965   0.128E-01
   1044 T=   916. E= -.39996682E+02 F= -.42098232E+02 E0= -.42057263E+02  EK= 0.41429E+01 SP= -.21E+01 SK= 0.11E-01 mag=      0.037
       N       E                     dE             d eps       ncg     rms          rms(c)
DAV:   1    -0.420967784606E+02    0.22354E-03   -0.27653E-02  3560   0.118E+00    0.111E-01
RMM:   2    -0.420984532212E+02   -0.16748E-02   -0.54854E-03  1877   0.285E-01
   1045 T=   927. E= -.39987931E+02 F= -.42098453E+02 E0= -.42057626E+02  EK= 0.41946E+01 SP= -.21E+01 SK= 0.51E-02 mag=      0.027
       N       E                     dE             d eps       ncg     rms          rms(c)
DAV:   1    -0.420901847748E+02    0.65937E-02   -0.35071E-02  3952   0.122E+00    0.182E-01
RMM:   2    -0.420943426043E+02   -0.41578E-02   -0.88423E-03  1945   0.268E-01    0.149E-01
RMM:   3    -0.420996557323E+02   -0.53131E-02   -0.55992E-03  1824   0.134E-01    0.951E-02
RMM:   4    -0.421015692946E+02   -0.19136E-02   -0.30070E-03  1824   0.100E-01    0.249E-02
RMM:   5    -0.421016697464E+02   -0.10045E-03   -0.43924E-04  1595   0.514E-02
   1046 T=   935. E= -.39983985E+02 F= -.42101670E+02 E0= -.42060865E+02  EK= 0.42284E+01 SP= -.21E+01 SK= 0.13E-02 mag=      0.030
       N       E                     dE             d eps       ncg     rms          rms(c)
DAV:   1    -0.420915237940E+02    0.10046E-01   -0.25708E-02  3152   0.110E+00    0.200E-01
RMM:   2    -0.420959135423E+02   -0.43897E-02   -0.11264E-02  1881   0.278E-01    0.162E-01
RMM:   3    -0.421000634563E+02   -0.41499E-02   -0.38729E-03  1827   0.111E-01    0.122E-01
RMM:   4    -0.421037392963E+02   -0.36758E-02   -0.58585E-03  1906   0.106E-01    0.426E-02
RMM:   5    -0.421039595712E+02   -0.22027E-03   -0.57124E-04  1598   0.563E-02
   1047 T=   937. E= -.39982775E+02 F= -.42103960E+02 E0= -.42063162E+02  EK= 0.42411E+01 SP= -.21E+01 SK= 0.32E-06 mag=     -0.033
       N       E                     dE             d eps       ncg     rms          rms(c)
DAV:   1    -0.421058484051E+02   -0.21091E-02   -0.17307E-02  3552   0.115E+00    0.647E-02
RMM:   2    -0.421068962236E+02   -0.10478E-02   -0.48739E-03  1994   0.269E-01
   1048 T=   937. E= -.39977846E+02 F= -.42106896E+02 E0= -.42066043E+02  EK= 0.42403E+01 SP= -.21E+01 SK= 0.13E-02 mag=     -0.105
       N       E                     dE             d eps       ncg     rms          rms(c)
DAV:   1    -0.421072013561E+02   -0.13530E-02   -0.18219E-02  3728   0.118E+00    0.937E-02
RMM:   2    -0.421091660505E+02   -0.19647E-02   -0.62574E-03  1985   0.275E-01    0.734E-02
RMM:   3    -0.421100686806E+02   -0.90263E-03   -0.16789E-03  1851   0.108E-01
   1049 T=   933. E= -.39973616E+02 F= -.42110069E+02 E0= -.42069056E+02  EK= 0.42211E+01 SP= -.21E+01 SK= 0.51E-02 mag=     -0.024
       N       E                     dE             d eps       ncg     rms          rms(c)
DAV:   1    -0.421131908976E+02   -0.40248E-02   -0.20552E-02  3376   0.113E+00    0.793E-02
RMM:   2    -0.421145108251E+02   -0.13199E-02   -0.38894E-03  1976   0.257E-01
   1050 T=   925. E= -.39968467E+02 F= -.42114511E+02 E0= -.42073315E+02  EK= 0.41871E+01 SP= -.21E+01 SK= 0.11E-01 mag=      0.143
       N       E                     dE             d eps       ncg     rms          rms(c)
DAV:   1    -0.421152888422E+02   -0.20979E-02   -0.32895E-02  3944   0.120E+00    0.924E-02
RMM:   2    -0.421167370182E+02   -0.14482E-02   -0.55445E-03  2001   0.245E-01
   1051 T=   915. E= -.39960617E+02 F= -.42116737E+02 E0= -.42075383E+02  EK= 0.41379E+01 SP= -.20E+01 SK= 0.19E-01 mag=      0.230
       N       E                     dE             d eps       ncg     rms          rms(c)
DAV:   1    -0.421187761543E+02   -0.34873E-02   -0.10898E-02  2912   0.108E+00    0.845E-02
RMM:   2    -0.421201705009E+02   -0.13943E-02   -0.70035E-03  2033   0.329E-01
   1052 T=   901. E= -.39954489E+02 F= -.42120171E+02 E0= -.42078406E+02  EK= 0.40744E+01 SP= -.19E+01 SK= 0.27E-01 mag=      0.156
       N       E                     dE             d eps       ncg     rms          rms(c)
DAV:   1    -0.421229288264E+02   -0.41527E-02   -0.25336E-02  3840   0.123E+00    0.488E-02
RMM:   2    -0.421240576285E+02   -0.11288E-02   -0.63742E-03  2027   0.298E-01
   1053 T=   884. E= -.39948015E+02 F= -.42124058E+02 E0= -.42081858E+02  EK= 0.40005E+01 SP= -.19E+01 SK= 0.36E-01 mag=     -0.048
       N       E                     dE             d eps       ncg     rms          rms(c)
DAV:   1    -0.421245035569E+02   -0.15747E-02   -0.11804E-02  2984   0.107E+00    0.757E-02
RMM:   2    -0.421258927989E+02   -0.13892E-02   -0.68287E-03  2030   0.318E-01
   1054 T=   866. E= -.39940459E+02 F= -.42125893E+02 E0= -.42083483E+02  EK= 0.39170E+01 SP= -.18E+01 SK= 0.44E-01 mag=     -0.263
       N       E                     dE             d eps       ncg     rms          rms(c)
DAV:   1    -0.421240354727E+02    0.46808E-03   -0.23648E-02  3592   0.116E+00    0.105E-01
RMM:   2    -0.421260820721E+02   -0.20466E-02   -0.66723E-03  2016   0.290E-01    0.862E-02
RMM:   3    -0.421280844691E+02   -0.20024E-02   -0.41203E-03  1835   0.130E-01    0.448E-02
RMM:   4    -0.421286271928E+02   -0.54272E-03   -0.14204E-03  1807   0.837E-02
   1055 T=   846. E= -.39935407E+02 F= -.42128627E+02 E0= -.42085646E+02  EK= 0.38260E+01 SP= -.17E+01 SK= 0.50E-01 mag=     -0.035
       N       E                     dE             d eps       ncg     rms          rms(c)
DAV:   1    -0.421234383488E+02    0.46461E-02   -0.16018E-02  3112   0.108E+00    0.129E-01
RMM:   2    -0.421258383825E+02   -0.24000E-02   -0.62599E-03  1878   0.266E-01    0.103E-01
RMM:   3    -0.421276572004E+02   -0.18188E-02   -0.25760E-03  1824   0.108E-01    0.739E-02
RMM:   4    -0.421290517577E+02   -0.13946E-02   -0.23788E-03  1837   0.866E-02
   1056 T=   824. E= -.39931433E+02 F= -.42129052E+02 E0= -.42085692E+02  EK= 0.37288E+01 SP= -.16E+01 SK= 0.55E-01 mag=      0.057
       N       E                     dE             d eps       ncg     rms          rms(c)
DAV:   1    -0.421274881970E+02    0.16900E-03   -0.13310E-02  3400   0.108E+00    0.594E-02
RMM:   2    -0.421284168912E+02   -0.92869E-03   -0.53913E-03  2002   0.254E-01
   1057 T=   803. E= -.39925012E+02 F= -.42128417E+02 E0= -.42084648E+02  EK= 0.36327E+01 SP= -.15E+01 SK= 0.56E-01 mag=      0.018
       N       E                     dE             d eps       ncg     rms          rms(c)
DAV:   1    -0.421262011348E+02    0.12871E-02   -0.17911E-02  3760   0.107E+00    0.513E-02
RMM:   2    -0.421271555915E+02   -0.95446E-03   -0.50219E-03  2005   0.262E-01
   1058 T=   782. E= -.39920745E+02 F= -.42127156E+02 E0= -.42083046E+02  EK= 0.35362E+01 SP= -.14E+01 SK= 0.55E-01 mag=     -0.096
       N       E                     dE             d eps       ncg     rms          rms(c)
DAV:   1    -0.421241081136E+02    0.20930E-02   -0.19084E-02  3272   0.107E+00    0.656E-02
RMM:   2    -0.421252787068E+02   -0.11706E-02   -0.58475E-03  2006   0.286E-01
   1059 T=   761. E= -.39915178E+02 F= -.42125279E+02 E0= -.42080950E+02  EK= 0.34450E+01 SP= -.13E+01 SK= 0.52E-01 mag=     -0.174
       N       E                     dE             d eps       ncg     rms          rms(c)
DAV:   1    -0.421231931266E+02    0.91499E-03   -0.16865E-02  3176   0.108E+00    0.536E-02
RMM:   2    -0.421240808176E+02   -0.88769E-03   -0.57663E-03  2008   0.288E-01
   1060 T=   743. E= -.39907956E+02 F= -.42124081E+02 E0= -.42079485E+02  EK= 0.33625E+01 SP= -.12E+01 SK= 0.46E-01 mag=     -0.163
       N       E                     dE             d eps       ncg     rms          rms(c)
DAV:   1    -0.421217349869E+02    0.14581E-02   -0.11423E-02  2832   0.102E+00    0.533E-02
RMM:   2    -0.421226330479E+02   -0.89806E-03   -0.55402E-03  2022   0.294E-01
   1061 T=   727. E= -.39901433E+02 F= -.42122633E+02 E0= -.42077727E+02  EK= 0.32869E+01 SP= -.11E+01 SK= 0.39E-01 mag=     -0.059
       N       E                     dE             d eps       ncg     rms          rms(c)
DAV:   1    -0.421205961789E+02    0.11388E-02   -0.14623E-02  3000   0.105E+00    0.671E-02
RMM:   2    -0.421216810966E+02   -0.10849E-02   -0.51026E-03  1991   0.272E-01
   1062 T=   712. E= -.39893776E+02 F= -.42121681E+02 E0= -.42076577E+02  EK= 0.32220E+01 SP= -.10E+01 SK= 0.31E-01 mag=      0.086
       N       E                     dE             d eps       ncg     rms          rms(c)
DAV:   1    -0.421220577737E+02   -0.14616E-02   -0.11917E-02  3128   0.106E+00    0.652E-02
RMM:   2    -0.421231495588E+02   -0.10918E-02   -0.60457E-03  2014   0.300E-01
   1063 T=   701. E= -.39885945E+02 F= -.42123150E+02 E0= -.42078054E+02  EK= 0.31696E+01 SP= -.96E+00 SK= 0.23E-01 mag=      0.171
       N       E                     dE             d eps       ncg     rms          rms(c)
DAV:   1    -0.421265995400E+02   -0.45418E-02   -0.18040E-02  3304   0.103E+00    0.460E-02
RMM:   2    -0.421274638664E+02   -0.86433E-03   -0.58157E-03  2008   0.297E-01
   1064 T=   692. E= -.39879026E+02 F= -.42127464E+02 E0= -.42082277E+02  EK= 0.31298E+01 SP= -.90E+00 SK= 0.15E-01 mag=      0.154
       N       E                     dE             d eps       ncg     rms          rms(c)
DAV:   1    -0.421313848235E+02   -0.47853E-02   -0.20036E-02  3416   0.101E+00    0.850E-02
RMM:   2    -0.421327347329E+02   -0.13499E-02   -0.63527E-03  2003   0.291E-01
   1065 T=   686. E= -.39871429E+02 F= -.42132735E+02 E0= -.42087410E+02  EK= 0.31025E+01 SP= -.85E+00 SK= 0.90E-02 mag=      0.043
       N       E                     dE             d eps       ncg     rms          rms(c)
DAV:   1    -0.421418639140E+02   -0.10479E-01   -0.14886E-02  3272   0.103E+00    0.845E-02
RMM:   2    -0.421430748859E+02   -0.12110E-02   -0.60856E-03  2022   0.311E-01
   1066 T=   683. E= -.39864631E+02 F= -.42143075E+02 E0= -.42097749E+02  EK= 0.30907E+01 SP= -.82E+00 SK= 0.42E-02 mag=     -0.111
       N       E                     dE             d eps       ncg     rms          rms(c)
DAV:   1    -0.421575892403E+02   -0.15725E-01   -0.17229E-02  3240   0.101E+00    0.613E-02
RMM:   2    -0.421586579566E+02   -0.10687E-02   -0.59985E-03  2000   0.295E-01
   1067 T=   684. E= -.39858637E+02 F= -.42158658E+02 E0= -.42113545E+02  EK= 0.30945E+01 SP= -.80E+00 SK= 0.11E-02 mag=     -0.210
       N       E                     dE             d eps       ncg     rms          rms(c)
DAV:   1    -0.421773596995E+02   -0.19770E-01   -0.14437E-02  3240   0.101E+00    0.842E-02
RMM:   2    -0.421786275082E+02   -0.12678E-02   -0.68219E-03  2060   0.292E-01
   1068 T=   688. E= -.39852043E+02 F= -.42178628E+02 E0= -.42133598E+02  EK= 0.31143E+01 SP= -.79E+00 SK= 0.14E-04 mag=     -0.197
       N       E                     dE             d eps       ncg     rms          rms(c)
DAV:   1    -0.422007296052E+02   -0.23370E-01   -0.17797E-02  3528   0.101E+00    0.126E-01
RMM:   2    -0.422029086111E+02   -0.21790E-02   -0.64170E-03  2001   0.285E-01    0.103E-01
RMM:   3    -0.422053362454E+02   -0.24276E-02   -0.35685E-03  1829   0.123E-01    0.606E-02
RMM:   4    -0.422063106492E+02   -0.97440E-03   -0.15927E-03  1812   0.886E-02
   1069 T=   696. E= -.39849266E+02 F= -.42206311E+02 E0= -.42161129E+02  EK= 0.31488E+01 SP= -.79E+00 SK= 0.61E-03 mag=     -0.048
       N       E                     dE             d eps       ncg     rms          rms(c)
DAV:   1    -0.422322220550E+02   -0.26886E-01   -0.24586E-02  3248   0.992E-01    0.149E-01
RMM:   2    -0.422345664495E+02   -0.23444E-02   -0.64478E-03  1871   0.236E-01    0.118E-01
RMM:   3    -0.422369685657E+02   -0.24021E-02   -0.31744E-03  1824   0.104E-01    0.787E-02
RMM:   4    -0.422382531237E+02   -0.12846E-02   -0.13259E-03  1789   0.744E-02
   1070 T=   707. E= -.39846568E+02 F= -.42238253E+02 E0= -.42193226E+02  EK= 0.31978E+01 SP= -.81E+00 SK= 0.26E-02 mag=      0.089
       N       E                     dE             d eps       ncg     rms          rms(c)
DAV:   1    -0.422764169501E+02   -0.39448E-01   -0.10374E-02  3120   0.980E-01    0.103E-01
RMM:   2    -0.422771586304E+02   -0.74168E-03   -0.50783E-03  1995   0.260E-01
   1071 T=   722. E= -.39842194E+02 F= -.42277159E+02 E0= -.42232319E+02  EK= 0.32649E+01 SP= -.84E+00 SK= 0.54E-02 mag=      0.147
       N       E                     dE             d eps       ncg     rms          rms(c)
DAV:   1    -0.423233558583E+02   -0.46939E-01   -0.16972E-02  3688   0.101E+00    0.404E-02
RMM:   2    -0.423240649235E+02   -0.70907E-03   -0.45997E-03  1985   0.249E-01
   1072 T=   739. E= -.39840995E+02 F= -.42324065E+02 E0= -.42279233E+02  EK= 0.33454E+01 SP= -.87E+00 SK= 0.84E-02 mag=      0.097
       N       E                     dE             d eps       ncg     rms          rms(c)
DAV:   1    -0.423763442401E+02   -0.52988E-01   -0.19101E-02  3288   0.100E+00    0.758E-02
RMM:   2    -0.423772303386E+02   -0.88610E-03   -0.53161E-03  1996   0.267E-01
   1073 T=   760. E= -.39839289E+02 F= -.42377230E+02 E0= -.42332503E+02  EK= 0.34398E+01 SP= -.91E+00 SK= 0.11E-01 mag=     -0.051
       N       E                     dE             d eps       ncg     rms          rms(c)
DAV:   1    -0.424355711333E+02   -0.59227E-01   -0.18692E-02  3568   0.106E+00    0.914E-02
RMM:   2    -0.424368458532E+02   -0.12747E-02   -0.56520E-03  2008   0.279E-01
   1074 T=   785. E= -.39834335E+02 F= -.42436846E+02 E0= -.42392508E+02  EK= 0.35494E+01 SP= -.96E+00 SK= 0.13E-01 mag=     -0.223
       N       E                     dE             d eps       ncg     rms          rms(c)
DAV:   1    -0.425031120593E+02   -0.67541E-01   -0.11948E-02  3000   0.103E+00    0.925E-02
RMM:   2    -0.425044833094E+02   -0.13713E-02   -0.56882E-03  2007   0.290E-01
   1075 T=   811. E= -.39830753E+02 F= -.42504483E+02 E0= -.42460452E+02  EK= 0.36688E+01 SP= -.10E+01 SK= 0.13E-01 mag=     -0.276
       N       E                     dE             d eps       ncg     rms          rms(c)
DAV:   1    -0.425787379501E+02   -0.75626E-01   -0.18569E-02  3384   0.109E+00    0.591E-02
RMM:   2    -0.425796663607E+02   -0.92841E-03   -0.56213E-03  1997   0.286E-01
   1076 T=   839. E= -.39828124E+02 F= -.42579666E+02 E0= -.42535336E+02  EK= 0.37951E+01 SP= -.11E+01 SK= 0.11E-01 mag=     -0.157
       N       E                     dE             d eps       ncg     rms          rms(c)
DAV:   1    -0.426558934144E+02   -0.77155E-01   -0.20343E-02  3280   0.109E+00    0.941E-02
RMM:   2    -0.426574508719E+02   -0.15575E-02   -0.73129E-03  2047   0.299E-01
   1077 T=   867. E= -.39822469E+02 F= -.42657451E+02 E0= -.42613196E+02  EK= 0.39241E+01 SP= -.11E+01 SK= 0.85E-02 mag=      0.098
       N       E                     dE             d eps       ncg     rms          rms(c)
DAV:   1    -0.427374592951E+02   -0.81566E-01   -0.23469E-02  3472   0.114E+00    0.127E-01
RMM:   2    -0.427396211502E+02   -0.21619E-02   -0.70212E-03  2038   0.304E-01    0.103E-01
RMM:   3    -0.427408319217E+02   -0.12108E-02   -0.20150E-03  1926   0.118E-01
   1078 T=   895. E= -.39818542E+02 F= -.42740832E+02 E0= -.42697048E+02  EK= 0.40502E+01 SP= -.11E+01 SK= 0.50E-02 mag=      0.128
       N       E                     dE             d eps       ncg     rms          rms(c)
DAV:   1    -0.428256562720E+02   -0.86035E-01   -0.42287E-02  3456   0.113E+00    0.122E-01
RMM:   2    -0.428282257145E+02   -0.25694E-02   -0.79151E-03  1964   0.304E-01    0.987E-02
RMM:   3    -0.428289709968E+02   -0.74528E-03   -0.17850E-03  1770   0.105E-01
   1079 T=   922. E= -.39815673E+02 F= -.42828971E+02 E0= -.42784796E+02  EK= 0.41690E+01 SP= -.12E+01 SK= 0.18E-02 mag=     -0.043
       N       E                     dE             d eps       ncg     rms          rms(c)
DAV:   1    -0.429157315186E+02   -0.87506E-01   -0.65579E-02  3552   0.120E+00    0.152E-01
RMM:   2    -0.429176073687E+02   -0.18759E-02   -0.80415E-03  2055   0.323E-01    0.107E-01
RMM:   3    -0.429188000641E+02   -0.11927E-02   -0.20287E-03  1975   0.123E-01
   1080 T=   945. E= -.39812185E+02 F= -.42918800E+02 E0= -.42874893E+02  EK= 0.42751E+01 SP= -.12E+01 SK= 0.50E-04 mag=     -0.193
       N       E                     dE             d eps       ncg     rms          rms(c)
DAV:   1    -0.430089003602E+02   -0.91293E-01   -0.34938E-02  3384   0.117E+00    0.123E-01
RMM:   2    -0.430100255445E+02   -0.11252E-02   -0.69205E-03  2088   0.313E-01
   1081 T=   965. E= -.39808652E+02 F= -.43010026E+02 E0= -.42966080E+02  EK= 0.43637E+01 SP= -.12E+01 SK= 0.11E-02 mag=     -0.213
       N       E                     dE             d eps       ncg     rms          rms(c)
DAV:   1    -0.430977977671E+02   -0.88897E-01   -0.35218E-02  4128   0.124E+00    0.942E-02
RMM:   2    -0.430993281833E+02   -0.15304E-02   -0.70852E-03  2053   0.291E-01
   1082 T=   979. E= -.39805809E+02 F= -.43099328E+02 E0= -.43055142E+02  EK= 0.44272E+01 SP= -.11E+01 SK= 0.63E-02 mag=     -0.069
       N       E                     dE             d eps       ncg     rms          rms(c)
DAV:   1    -0.431824369993E+02   -0.84639E-01   -0.22588E-02  3464   0.120E+00    0.142E-01
RMM:   2    -0.431851530417E+02   -0.27160E-02   -0.83843E-03  2054   0.321E-01    0.112E-01
RMM:   3    -0.431867665880E+02   -0.16135E-02   -0.28142E-03  1912   0.132E-01
   1083 T=   987. E= -.39803036E+02 F= -.43186767E+02 E0= -.43142690E+02  EK= 0.44641E+01 SP= -.11E+01 SK= 0.16E-01 mag=      0.113
       N       E                     dE             d eps       ncg     rms          rms(c)
DAV:   1    -0.432719927816E+02   -0.86840E-01   -0.34663E-02  3536   0.123E+00    0.102E-01
RMM:   2    -0.432733921233E+02   -0.13993E-02   -0.53636E-03  2012   0.306E-01
   1084 T=   990. E= -.39795552E+02 F= -.43273392E+02 E0= -.43229300E+02  EK= 0.44788E+01 SP= -.10E+01 SK= 0.31E-01 mag=      0.196
       N       E                     dE             d eps       ncg     rms          rms(c)
DAV:   1    -0.433491109847E+02   -0.77118E-01   -0.43181E-02  3928   0.132E+00    0.131E-01
RMM:   2    -0.433520105805E+02   -0.28996E-02   -0.86579E-03  2061   0.293E-01    0.108E-01
RMM:   3    -0.433537991346E+02   -0.17886E-02   -0.25275E-03  1872   0.116E-01
   1085 T=   986. E= -.39789126E+02 F= -.43353799E+02 E0= -.43309405E+02  EK= 0.44601E+01 SP= -.95E+00 SK= 0.52E-01 mag=      0.017
       N       E                     dE             d eps       ncg     rms          rms(c)
DAV:   1    -0.434287521770E+02   -0.76742E-01   -0.26995E-02  3432   0.117E+00    0.966E-02
RMM:   2    -0.434305274097E+02   -0.17752E-02   -0.65036E-03  2046   0.291E-01
   1086 T=   975. E= -.39785033E+02 F= -.43430527E+02 E0= -.43386302E+02  EK= 0.44109E+01 SP= -.84E+00 SK= 0.75E-01 mag=     -0.305
       N       E                     dE             d eps       ncg     rms          rms(c)
DAV:   1    -0.434932305890E+02   -0.64478E-01   -0.52800E-02  3920   0.129E+00    0.160E-01
RMM:   2    -0.434965761324E+02   -0.33455E-02   -0.85311E-03  2051   0.301E-01    0.127E-01
RMM:   3    -0.435003573420E+02   -0.37812E-02   -0.41945E-03  1895   0.132E-01    0.770E-02
RMM:   4    -0.435019189900E+02   -0.15616E-02   -0.29162E-03  1828   0.102E-01
   1087 T=   958. E= -.39780636E+02 F= -.43501919E+02 E0= -.43457167E+02  EK= 0.43349E+01 SP= -.72E+00 SK= 0.10E+00 mag=     -0.041
       N       E                     dE             d eps       ncg     rms          rms(c)
DAV:   1    -0.435585329975E+02   -0.58176E-01   -0.18337E-02  3360   0.113E+00    0.161E-01
RMM:   2    -0.435615064641E+02   -0.29735E-02   -0.76276E-03  1967   0.294E-01    0.123E-01
RMM:   3    -0.435641609999E+02   -0.26545E-02   -0.38831E-03  1824   0.121E-01    0.865E-02
RMM:   4    -0.435656373398E+02   -0.14763E-02   -0.18025E-03  1816   0.853E-02
   1088 T=   936. E= -.39776860E+02 F= -.43565637E+02 E0= -.43520776E+02  EK= 0.42329E+01 SP= -.57E+00 SK= 0.13E+00 mag=      0.155
       N       E                     dE             d eps       ncg     rms          rms(c)
DAV:   1    -0.436214779326E+02   -0.57317E-01   -0.24924E-02  3976   0.118E+00    0.105E-01
RMM:   2    -0.436225284169E+02   -0.10505E-02   -0.52435E-03  1908   0.244E-01
   1089 T=   909. E= -.39771066E+02 F= -.43622528E+02 E0= -.43577379E+02  EK= 0.41130E+01 SP= -.41E+00 SK= 0.15E+00 mag=      0.176
       N       E                     dE             d eps       ncg     rms          rms(c)
DAV:   1    -0.436718607023E+02   -0.50383E-01   -0.22413E-02  4072   0.113E+00    0.562E-02
RMM:   2    -0.436728017858E+02   -0.94108E-03   -0.52674E-03  2001   0.248E-01
   1090 T=   878. E= -.39769506E+02 F= -.43672802E+02 E0= -.43627139E+02  EK= 0.39743E+01 SP= -.24E+00 SK= 0.17E+00 mag=      0.029
       N       E                     dE             d eps       ncg     rms          rms(c)
DAV:   1    -0.437146241250E+02   -0.42763E-01   -0.19020E-02  3472   0.111E+00    0.771E-02
RMM:   2    -0.437158373910E+02   -0.12133E-02   -0.57016E-03  2008   0.275E-01
   1091 T=   846. E= -.39766004E+02 F= -.43715837E+02 E0= -.43669870E+02  EK= 0.38276E+01 SP= -.63E-01 SK= 0.19E+00 mag=     -0.192
       N       E                     dE             d eps       ncg     rms          rms(c)
DAV:   1    -0.437509511543E+02   -0.36327E-01   -0.20310E-02  3400   0.113E+00    0.874E-02
RMM:   2    -0.437523967796E+02   -0.14456E-02   -0.62362E-03  2030   0.277E-01
   1092 T=   813. E= -.39758926E+02 F= -.43752397E+02 E0= -.43706280E+02  EK= 0.36800E+01 SP= 0.12E+00 SK= 0.19E+00 mag=     -0.349
       N       E                     dE             d eps       ncg     rms          rms(c)
DAV:   1    -0.437824260105E+02   -0.31475E-01   -0.15186E-02  3528   0.104E+00    0.799E-02
RMM:   2    -0.437837801108E+02   -0.13541E-02   -0.60733E-03  2012   0.289E-01
   1093 T=   781. E= -.39753950E+02 F= -.43783780E+02 E0= -.43737167E+02  EK= 0.35311E+01 SP= 0.31E+00 SK= 0.19E+00 mag=     -0.285
       N       E                     dE             d eps       ncg     rms          rms(c)
DAV:   1    -0.438092403160E+02   -0.26814E-01   -0.16116E-02  3320   0.106E+00    0.683E-02
RMM:   2    -0.438102537792E+02   -0.10135E-02   -0.54283E-03  2019   0.273E-01
   1094 T=   749. E= -.39749332E+02 F= -.43810254E+02 E0= -.43762686E+02  EK= 0.33866E+01 SP= 0.49E+00 SK= 0.18E+00 mag=     -0.011
       N       E                     dE             d eps       ncg     rms          rms(c)
DAV:   1    -0.438283326756E+02   -0.19092E-01   -0.18613E-02  3592   0.993E-01    0.957E-02
RMM:   2    -0.438297892924E+02   -0.14566E-02   -0.57716E-03  2017   0.275E-01
   1095 T=   718. E= -.39742598E+02 F= -.43829789E+02 E0= -.43781969E+02  EK= 0.32496E+01 SP= 0.67E+00 SK= 0.17E+00 mag=      0.300
       N       E                     dE             d eps       ncg     rms          rms(c)
DAV:   1    -0.438438735747E+02   -0.15541E-01   -0.17295E-02  3528   0.101E+00    0.107E-01
RMM:   2    -0.438454865427E+02   -0.16130E-02   -0.60397E-03  2022   0.271E-01
   1096 T=   690. E= -.39736172E+02 F= -.43845487E+02 E0= -.43797525E+02  EK= 0.31229E+01 SP= 0.84E+00 SK= 0.15E+00 mag=      0.463
       N       E                     dE             d eps       ncg     rms          rms(c)
DAV:   1    -0.438565388855E+02   -0.12665E-01   -0.16724E-02  3240   0.968E-01    0.941E-02
RMM:   2    -0.438580241224E+02   -0.14852E-02   -0.61585E-03  2019   0.282E-01
   1097 T=   665. E= -.39730292E+02 F= -.43858024E+02 E0= -.43809250E+02  EK= 0.30085E+01 SP= 0.99E+00 SK= 0.12E+00 mag=      0.328
       N       E                     dE             d eps       ncg     rms          rms(c)
DAV:   1    -0.438660939595E+02   -0.95551E-02   -0.14781E-02  3504   0.954E-01    0.967E-02
RMM:   2    -0.438673759886E+02   -0.12820E-02   -0.59785E-03  2019   0.272E-01
   1098 T=   643. E= -.39725121E+02 F= -.43867376E+02 E0= -.43817439E+02  EK= 0.29071E+01 SP= 0.11E+01 SK= 0.99E-01 mag=     -0.062
       N       E                     dE             d eps       ncg     rms          rms(c)
DAV:   1    -0.438690256510E+02   -0.29317E-02   -0.17198E-02  3576   0.928E-01    0.116E-01
RMM:   2    -0.438711572259E+02   -0.21316E-02   -0.63574E-03  1994   0.270E-01    0.947E-02
RMM:   3    -0.438726998766E+02   -0.15427E-02   -0.25982E-03  1911   0.110E-01
   1099 T=   623. E= -.39720415E+02 F= -.43872700E+02 E0= -.43822624E+02  EK= 0.28189E+01 SP= 0.13E+01 SK= 0.73E-01 mag=     -0.233
       N       E                     dE             d eps       ncg     rms          rms(c)
DAV:   1    -0.438729658185E+02   -0.18086E-02   -0.20552E-02  3304   0.911E-01    0.132E-01
RMM:   2    -0.438748080341E+02   -0.18422E-02   -0.49944E-03  1866   0.234E-01    0.984E-02
RMM:   3    -0.438757555695E+02   -0.94754E-03   -0.15598E-03  1806   0.944E-02
   1100 T=   607. E= -.39716326E+02 F= -.43875756E+02 E0= -.43824742E+02  EK= 0.27457E+01 SP= 0.14E+01 SK= 0.49E-01 mag=     -0.120
       N       E                     dE             d eps       ncg     rms          rms(c)
DAV:   1    -0.438752308694E+02   -0.42284E-03   -0.31718E-02  3416   0.909E-01    0.132E-01
RMM:   2    -0.438762952003E+02   -0.10643E-02   -0.45295E-03  2004   0.233E-01
   1101 T=   594. E= -.39711429E+02 F= -.43876295E+02 E0= -.43824528E+02  EK= 0.26889E+01 SP= 0.14E+01 SK= 0.28E-01 mag=      0.189
       N       E                     dE             d eps       ncg     rms          rms(c)
DAV:   1    -0.438725091804E+02    0.27217E-02   -0.27725E-02  3424   0.911E-01    0.111E-01
RMM:   2    -0.438739771976E+02   -0.14680E-02   -0.51350E-03  2007   0.250E-01
   1102 T=   585. E= -.39707304E+02 F= -.43873977E+02 E0= -.43822627E+02  EK= 0.26466E+01 SP= 0.15E+01 SK= 0.13E-01 mag=      0.530
       N       E                     dE             d eps       ncg     rms          rms(c)
DAV:   1    -0.438669159968E+02    0.55932E-02   -0.18155E-02  3440   0.889E-01    0.138E-01
RMM:   2    -0.438689626148E+02   -0.20466E-02   -0.59307E-03  2000   0.262E-01    0.111E-01
RMM:   3    -0.438704647404E+02   -0.15021E-02   -0.22939E-03  1903   0.113E-01
   1103 T=   579. E= -.39704203E+02 F= -.43870465E+02 E0= -.43818936E+02  EK= 0.26201E+01 SP= 0.15E+01 SK= 0.31E-02 mag=      0.386
       N       E                     dE             d eps       ncg     rms          rms(c)
DAV:   1    -0.438658146888E+02    0.31479E-02   -0.24164E-02  3328   0.900E-01    0.112E-01
RMM:   2    -0.438669449801E+02   -0.11303E-02   -0.44754E-03  1871   0.234E-01
   1104 T=   577. E= -.39700419E+02 F= -.43866945E+02 E0= -.43813504E+02  EK= 0.26124E+01 SP= 0.16E+01 SK= 0.11E-04 mag=     -0.148
       N       E                     dE             d eps       ncg     rms          rms(c)
DAV:   1    -0.438533911099E+02    0.12424E-01   -0.35443E-02  3504   0.952E-01    0.145E-01
RMM:   2    -0.438562846089E+02   -0.28935E-02   -0.63094E-03  2020   0.243E-01    0.124E-01
RMM:   3    -0.438583138475E+02   -0.20292E-02   -0.22366E-03  1889   0.103E-01    0.977E-02
RMM:   4    -0.438611815747E+02   -0.28677E-02   -0.42179E-03  1937   0.988E-02    0.441E-02
RMM:   5    -0.438616492248E+02   -0.46765E-03   -0.89023E-04  1665   0.625E-02
   1105 T=   579. E= -.39698150E+02 F= -.43861649E+02 E0= -.43807827E+02  EK= 0.26194E+01 SP= 0.15E+01 SK= 0.38E-02 mag=     -0.112
       N       E                     dE             d eps       ncg     rms          rms(c)
DAV:   1    -0.438459595350E+02    0.15222E-01   -0.19912E-02  3240   0.863E-01    0.156E-01
RMM:   2    -0.438486919664E+02   -0.27324E-02   -0.62096E-03  1939   0.216E-01    0.125E-01
RMM:   3    -0.438506223171E+02   -0.19304E-02   -0.18748E-03  1824   0.897E-02    0.100E-01
RMM:   4    -0.438536180929E+02   -0.29958E-02   -0.53925E-03  1911   0.881E-02    0.316E-02
RMM:   5    -0.438537287132E+02   -0.11062E-03   -0.33325E-04  1596   0.487E-02
   1106 T=   584. E= -.39697732E+02 F= -.43853729E+02 E0= -.43799307E+02  EK= 0.26399E+01 SP= 0.15E+01 SK= 0.14E-01 mag=      0.080
       N       E                     dE             d eps       ncg     rms          rms(c)
DAV:   1    -0.438416032626E+02    0.12015E-01   -0.13388E-02  3352   0.878E-01    0.840E-02
RMM:   2    -0.438425928104E+02   -0.98955E-03   -0.40381E-03  1995   0.223E-01
   1107 T=   592. E= -.39692579E+02 F= -.43842593E+02 E0= -.43788412E+02  EK= 0.26801E+01 SP= 0.14E+01 SK= 0.31E-01 mag=      0.350
       N       E                     dE             d eps       ncg     rms          rms(c)
DAV:   1    -0.438262775182E+02    0.15326E-01   -0.13857E-02  3456   0.928E-01    0.138E-01
RMM:   2    -0.438286578556E+02   -0.23803E-02   -0.60842E-03  2008   0.251E-01    0.114E-01
RMM:   3    -0.438303735775E+02   -0.17157E-02   -0.20824E-03  1865   0.106E-01
   1108 T=   605. E= -.39687521E+02 F= -.43830374E+02 E0= -.43776419E+02  EK= 0.27373E+01 SP= 0.14E+01 SK= 0.52E-01 mag=      0.282
       N       E                     dE             d eps       ncg     rms          rms(c)
DAV:   1    -0.438160503580E+02    0.12607E-01   -0.39725E-02  3120   0.924E-01    0.123E-01
RMM:   2    -0.438188272533E+02   -0.27769E-02   -0.63948E-03  1915   0.240E-01    0.985E-02
RMM:   3    -0.438195741820E+02   -0.74693E-03   -0.12690E-03  1787   0.827E-02
   1109 T=   621. E= -.39687453E+02 F= -.43819574E+02 E0= -.43764011E+02  EK= 0.28093E+01 SP= 0.12E+01 SK= 0.77E-01 mag=     -0.118
       N       E                     dE             d eps       ncg     rms          rms(c)
DAV:   1    -0.438007675893E+02    0.18060E-01   -0.99621E-02  3080   0.996E-01    0.133E-01
RMM:   2    -0.438032454671E+02   -0.24779E-02   -0.80598E-03  2002   0.308E-01    0.104E-01
RMM:   3    -0.438045301028E+02   -0.12846E-02   -0.19431E-03  1992   0.113E-01
   1110 T=   641. E= -.39684088E+02 F= -.43804530E+02 E0= -.43750005E+02  EK= 0.28984E+01 SP= 0.11E+01 SK= 0.10E+00 mag=     -0.441
       N       E                     dE             d eps       ncg     rms          rms(c)
DAV:   1    -0.437869401727E+02    0.16305E-01   -0.44051E-02  3160   0.974E-01    0.996E-02
RMM:   2    -0.437883513170E+02   -0.14111E-02   -0.59612E-03  2017   0.272E-01
   1111 T=   664. E= -.39679736E+02 F= -.43788351E+02 E0= -.43733856E+02  EK= 0.30053E+01 SP= 0.97E+00 SK= 0.13E+00 mag=     -0.563
       N       E                     dE             d eps       ncg     rms          rms(c)
DAV:   1    -0.437668589580E+02    0.20081E-01   -0.32495E-02  3552   0.101E+00    0.105E-01
RMM:   2    -0.437686459519E+02   -0.17870E-02   -0.63455E-03  2012   0.261E-01
   1112 T=   691. E= -.39674957E+02 F= -.43768646E+02 E0= -.43712845E+02  EK= 0.31265E+01 SP= 0.81E+00 SK= 0.16E+00 mag=     -0.375
       N       E                     dE             d eps       ncg     rms          rms(c)
DAV:   1    -0.437457333724E+02    0.21126E-01   -0.20418E-02  3296   0.967E-01    0.106E-01
RMM:   2    -0.437474810667E+02   -0.17477E-02   -0.69606E-03  2016   0.294E-01
   1113 T=   721. E= -.39671452E+02 F= -.43747481E+02 E0= -.43690576E+02  EK= 0.32614E+01 SP= 0.64E+00 SK= 0.18E+00 mag=      0.114
       N       E                     dE             d eps       ncg     rms          rms(c)
DAV:   1    -0.437194476540E+02    0.26286E-01   -0.27567E-02  3760   0.109E+00    0.904E-02
RMM:   2    -0.437212501379E+02   -0.18025E-02   -0.78606E-03  2028   0.291E-01    0.764E-02
RMM:   3    -0.437221556222E+02   -0.90548E-03   -0.25186E-03  1959   0.115E-01
   1114 T=   753. E= -.39666844E+02 F= -.43722156E+02 E0= -.43667557E+02  EK= 0.34080E+01 SP= 0.46E+00 SK= 0.19E+00 mag=      0.609
       N       E                     dE             d eps       ncg     rms          rms(c)
DAV:   1    -0.436874660829E+02    0.33784E-01   -0.18550E-02  3328   0.108E+00    0.147E-01
RMM:   2    -0.436897765015E+02   -0.23104E-02   -0.60234E-03  1882   0.274E-01    0.118E-01
RMM:   3    -0.436914353929E+02   -0.16589E-02   -0.18903E-03  1830   0.109E-01
   1115 T=   787. E= -.39661303E+02 F= -.43691435E+02 E0= -.43637311E+02  EK= 0.35627E+01 SP= 0.27E+00 SK= 0.20E+00 mag=      0.526
       N       E                     dE             d eps       ncg     rms          rms(c)
DAV:   1    -0.436602870587E+02    0.29489E-01   -0.36864E-02  3656   0.117E+00    0.850E-02
RMM:   2    -0.436614311389E+02   -0.11441E-02   -0.69728E-03  2053   0.301E-01
   1116 T=   823. E= -.39658796E+02 F= -.43661431E+02 E0= -.43603809E+02  EK= 0.37246E+01 SP= 0.82E-01 SK= 0.20E+00 mag=     -0.117
       N       E                     dE             d eps       ncg     rms          rms(c)
DAV:   1    -0.436154346227E+02    0.44852E-01   -0.65178E-02  3712   0.110E+00    0.137E-01
RMM:   2    -0.436179912390E+02   -0.25566E-02   -0.90302E-03  2024   0.302E-01    0.111E-01
RMM:   3    -0.436200434186E+02   -0.20522E-02   -0.34581E-03  1920   0.124E-01    0.901E-02
RMM:   4    -0.436218365521E+02   -0.17931E-02   -0.23741E-03  1881   0.900E-02
   1117 T=   859. E= -.39654564E+02 F= -.43621837E+02 E0= -.43566758E+02  EK= 0.38842E+01 SP= -.10E+00 SK= 0.19E+00 mag=     -0.493
       N       E                     dE             d eps       ncg     rms          rms(c)
DAV:   1    -0.435780004422E+02    0.42043E-01   -0.26227E-02  3352   0.115E+00    0.113E-01
RMM:   2    -0.435790373532E+02   -0.10369E-02   -0.59126E-03  1970   0.299E-01
   1118 T=   893. E= -.39649727E+02 F= -.43579037E+02 E0= -.43523271E+02  EK= 0.40422E+01 SP= -.28E+00 SK= 0.17E+00 mag=     -0.499
       N       E                     dE             d eps       ncg     rms          rms(c)
DAV:   1    -0.435293922433E+02    0.48608E-01   -0.37929E-02  4208   0.123E+00    0.919E-02
RMM:   2    -0.435307584576E+02   -0.13662E-02   -0.61148E-03  2031   0.284E-01
   1119 T=   926. E= -.39644629E+02 F= -.43530758E+02 E0= -.43473205E+02  EK= 0.41908E+01 SP= -.45E+00 SK= 0.15E+00 mag=     -0.119
       N       E                     dE             d eps       ncg     rms          rms(c)
DAV:   1    -0.434733004885E+02    0.56092E-01   -0.20452E-02  3048   0.118E+00    0.113E-01
RMM:   2    -0.434748765923E+02   -0.15761E-02   -0.73135E-03  2054   0.332E-01
   1120 T=   955. E= -.39641215E+02 F= -.43474877E+02 E0= -.43418923E+02  EK= 0.43199E+01 SP= -.61E+00 SK= 0.12E+00 mag=      0.558
       N       E                     dE             d eps       ncg     rms          rms(c)
DAV:   1    -0.434048268443E+02    0.68474E-01   -0.30772E-02  3784   0.127E+00    0.162E-01
RMM:   2    -0.434084838463E+02   -0.36570E-02   -0.92056E-03  1993   0.313E-01    0.132E-01
RMM:   3    -0.434109905635E+02   -0.25067E-02   -0.46883E-03  1834   0.135E-01    0.107E-01
RMM:   4    -0.434137484533E+02   -0.27579E-02   -0.45125E-03  1922   0.111E-01    0.700E-02
RMM:   5    -0.434153794506E+02   -0.16310E-02   -0.33868E-03  1942   0.904E-02
   1121 T=   979. E= -.39639946E+02 F= -.43415379E+02 E0= -.43359092E+02  EK= 0.44275E+01 SP= -.74E+00 SK= 0.91E-01 mag=      0.252
       N       E                     dE             d eps       ncg     rms          rms(c)
DAV:   1    -0.433408073476E+02    0.72941E-01   -0.44280E-02  3400   0.122E+00    0.163E-01
RMM:   2    -0.433440848762E+02   -0.32775E-02   -0.88786E-03  1963   0.354E-01    0.131E-01
RMM:   3    -0.433456622598E+02   -0.15774E-02   -0.27754E-03  1825   0.128E-01
   1122 T=   997. E= -.39632447E+02 F= -.43345662E+02 E0= -.43291712E+02  EK= 0.45101E+01 SP= -.86E+00 SK= 0.64E-01 mag=     -0.636
       N       E                     dE             d eps       ncg     rms          rms(c)
DAV:   1    -0.432537525054E+02    0.90332E-01   -0.80404E-02  4048   0.141E+00    0.274E-01
RMM:   2    -0.432625673867E+02   -0.88149E-02   -0.14875E-02  2060   0.377E-01    0.210E-01
RMM:   3    -0.432698531590E+02   -0.72858E-02   -0.10701E-02  1836   0.186E-01    0.140E-01
RMM:   4    -0.432742788655E+02   -0.44257E-02   -0.64070E-03  1849   0.150E-01    0.795E-02
RMM:   5    -0.432757035908E+02   -0.14247E-02   -0.20167E-03  1847   0.970E-02
   1123 T=  1008. E= -.39630255E+02 F= -.43275704E+02 E0= -.43220544E+02  EK= 0.45619E+01 SP= -.96E+00 SK= 0.39E-01 mag=     -0.315
       N       E                     dE             d eps       ncg     rms          rms(c)
DAV:   1    -0.431888842090E+02    0.85395E-01   -0.43004E-02  3848   0.124E+00    0.188E-01
RMM:   2    -0.431926711138E+02   -0.37869E-02   -0.84820E-03  1932   0.284E-01    0.149E-01
RMM:   3    -0.431957788139E+02   -0.31077E-02   -0.36055E-03  1824   0.130E-01    0.106E-01
RMM:   4    -0.431977394189E+02   -0.19606E-02   -0.15582E-03  1817   0.941E-02    0.709E-02
RMM:   5    -0.431989421093E+02   -0.12027E-02   -0.12550E-03  1777   0.687E-02
   1124 T=  1012. E= -.39629347E+02 F= -.43198942E+02 E0= -.43143095E+02  EK= 0.45771E+01 SP= -.10E+01 SK= 0.20E-01 mag=      0.361
       N       E                     dE             d eps       ncg     rms          rms(c)
DAV:   1    -0.431075227394E+02    0.90217E-01   -0.64410E-02  4008   0.132E+00    0.163E-01
RMM:   2    -0.431109253801E+02   -0.34026E-02   -0.10772E-02  1979   0.321E-01    0.127E-01
RMM:   3    -0.431137255011E+02   -0.28001E-02   -0.56108E-03  1830   0.147E-01    0.103E-01
RMM:   4    -0.431158012773E+02   -0.20758E-02   -0.32279E-03  1840   0.109E-01    0.743E-02
RMM:   5    -0.431169423356E+02   -0.11411E-02   -0.12995E-03  1800   0.759E-02
   1125 T=  1008. E= -.39626820E+02 F= -.43116942E+02 E0= -.43062175E+02  EK= 0.45590E+01 SP= -.11E+01 SK= 0.77E-02 mag=      0.373
       N       E                     dE             d eps       ncg     rms          rms(c)
DAV:   1    -0.430324098626E+02    0.83391E-01   -0.28707E-02  3896   0.119E+00    0.682E-02
RMM:   2    -0.430334925691E+02   -0.10827E-02   -0.49220E-03  1939   0.265E-01
   1126 T=   997. E= -.39622807E+02 F= -.43033493E+02 E0= -.42977089E+02  EK= 0.45115E+01 SP= -.11E+01 SK= 0.12E-02 mag=     -0.266
       N       E                     dE             d eps       ncg     rms          rms(c)
DAV:   1    -0.429351385579E+02    0.97271E-01   -0.53598E-02  4184   0.132E+00    0.158E-01
RMM:   2    -0.429393148214E+02   -0.41763E-02   -0.11176E-02  1979   0.303E-01    0.132E-01
RMM:   3    -0.429420000715E+02   -0.26853E-02   -0.46948E-03  1842   0.132E-01    0.108E-01
RMM:   4    -0.429451824361E+02   -0.31824E-02   -0.62129E-03  1988   0.117E-01    0.696E-02
RMM:   5    -0.429467452843E+02   -0.15628E-02   -0.36107E-03  1925   0.960E-02
   1127 T=   980. E= -.39617666E+02 F= -.42946745E+02 E0= -.42891069E+02  EK= 0.44341E+01 SP= -.11E+01 SK= 0.25E-03 mag=     -0.149
       N       E                     dE             d eps       ncg     rms          rms(c)
DAV:   1    -0.428569689673E+02    0.88213E-01   -0.36178E-02  3560   0.123E+00    0.993E-02
RMM:   2    -0.428589613545E+02   -0.19924E-02   -0.68320E-03  1969   0.309E-01    0.752E-02
RMM:   3    -0.428594823695E+02   -0.52102E-03   -0.19047E-03  1807   0.111E-01
   1128 T=   957. E= -.39612755E+02 F= -.42859482E+02 E0= -.42805225E+02  EK= 0.43317E+01 SP= -.11E+01 SK= 0.36E-02 mag=      0.539
       N       E                     dE             d eps       ncg     rms          rms(c)
DAV:   1    -0.427602203571E+02    0.98741E-01   -0.68400E-02  3984   0.128E+00    0.202E-01
RMM:   2    -0.427655788148E+02   -0.53585E-02   -0.10497E-02  2026   0.325E-01    0.163E-01
RMM:   3    -0.427698441558E+02   -0.42653E-02   -0.59161E-03  1856   0.148E-01    0.124E-01
RMM:   4    -0.427739124354E+02   -0.40683E-02   -0.72290E-03  1961   0.135E-01    0.654E-02
RMM:   5    -0.427751980994E+02   -0.12857E-02   -0.25763E-03  1896   0.952E-02
   1129 T=   931. E= -.39609180E+02 F= -.42775198E+02 E0= -.42720044E+02  EK= 0.42107E+01 SP= -.11E+01 SK= 0.97E-02 mag=      0.222
       N       E                     dE             d eps       ncg     rms          rms(c)
DAV:   1    -0.426875292685E+02    0.86383E-01   -0.29836E-02  3688   0.118E+00    0.118E-01
RMM:   2    -0.426897366480E+02   -0.22074E-02   -0.53325E-03  1965   0.259E-01    0.959E-02
RMM:   3    -0.426907427389E+02   -0.10061E-02   -0.16766E-03  1799   0.107E-01
   1130 T=   901. E= -.39603496E+02 F= -.42690743E+02 E0= -.42638037E+02  EK= 0.40761E+01 SP= -.10E+01 SK= 0.17E-01 mag=     -0.696
       N       E                     dE             d eps       ncg     rms          rms(c)
DAV:   1    -0.425884816611E+02    0.10125E+00   -0.55605E-02  3848   0.123E+00    0.291E-01
RMM:   2    -0.425983392510E+02   -0.98576E-02   -0.16192E-02  1938   0.347E-01    0.221E-01
RMM:   3    -0.426069728625E+02   -0.86336E-02   -0.12890E-02  1855   0.196E-01    0.155E-01
RMM:   4    -0.426125208218E+02   -0.55480E-02   -0.10659E-02  1970   0.163E-01    0.790E-02
RMM:   5    -0.426143069932E+02   -0.17862E-02   -0.35065E-03  1948   0.118E-01
   1131 T=   870. E= -.39601457E+02 F= -.42614307E+02 E0= -.42559335E+02  EK= 0.39352E+01 SP= -.95E+00 SK= 0.23E-01 mag=     -0.199
       N       E                     dE             d eps       ncg     rms          rms(c)
DAV:   1    -0.425282803735E+02    0.84240E-01   -0.43516E-02  3472   0.117E+00    0.206E-01
RMM:   2    -0.425328260635E+02   -0.45457E-02   -0.70356E-03  1884   0.255E-01    0.163E-01
RMM:   3    -0.425366804387E+02   -0.38544E-02   -0.44627E-03  1824   0.123E-01    0.120E-01
RMM:   4    -0.425390081195E+02   -0.23277E-02   -0.21739E-03  1830   0.847E-02    0.892E-02
RMM:   5    -0.425412284899E+02   -0.22204E-02   -0.32563E-03  1926   0.822E-02    0.545E-02
RMM:   6    -0.425423377037E+02   -0.11092E-02   -0.31059E-03  1900   0.843E-02
   1132 T=   838. E= -.39600126E+02 F= -.42542338E+02 E0= -.42486884E+02  EK= 0.37922E+01 SP= -.88E+00 SK= 0.27E-01 mag=      0.154
       N       E                     dE             d eps       ncg     rms          rms(c)
DAV:   1    -0.424743126534E+02    0.66916E-01   -0.43028E-02  3656   0.114E+00    0.964E-02
RMM:   2    -0.424756963120E+02   -0.13837E-02   -0.60261E-03  2001   0.282E-01
   1133 T=   808. E= -.39594959E+02 F= -.42475696E+02 E0= -.42420752E+02  EK= 0.36564E+01 SP= -.81E+00 SK= 0.30E-01 mag=      0.314
       N       E                     dE             d eps       ncg     rms          rms(c)
DAV:   1    -0.424165844806E+02    0.57728E-01   -0.31493E-02  3776   0.104E+00    0.987E-02
RMM:   2    -0.424182861146E+02   -0.17016E-02   -0.60066E-03  2007   0.287E-01
   1134 T=   780. E= -.39591296E+02 F= -.42418286E+02 E0= -.42363214E+02  EK= 0.35301E+01 SP= -.73E+00 SK= 0.29E-01 mag=      0.253
       N       E                     dE             d eps       ncg     rms          rms(c)
DAV:   1    -0.423695528870E+02    0.47032E-01   -0.17167E-02  3520   0.104E+00    0.821E-02
RMM:   2    -0.423708738960E+02   -0.13210E-02   -0.49771E-03  2005   0.264E-01
   1135 T=   755. E= -.39588805E+02 F= -.42370874E+02 E0= -.42315353E+02  EK= 0.34171E+01 SP= -.66E+00 SK= 0.26E-01 mag=     -0.003
       N       E                     dE             d eps       ncg     rms          rms(c)
DAV:   1    -0.423310841851E+02    0.38469E-01   -0.21171E-02  3160   0.104E+00    0.606E-02
RMM:   2    -0.423321023127E+02   -0.10181E-02   -0.53087E-03  2019   0.268E-01
   1136 T=   734. E= -.39583795E+02 F= -.42332102E+02 E0= -.42277448E+02  EK= 0.33220E+01 SP= -.60E+00 SK= 0.22E-01 mag=     -0.389
       N       E                     dE             d eps       ncg     rms          rms(c)
DAV:   1    -0.422971779354E+02    0.33906E-01   -0.21008E-02  3440   0.993E-01    0.111E-01
RMM:   2    -0.422991633286E+02   -0.19854E-02   -0.60201E-03  1968   0.269E-01    0.938E-02
RMM:   3    -0.423003086253E+02   -0.11453E-02   -0.22817E-03  1826   0.104E-01
   1137 T=   717. E= -.39577251E+02 F= -.42300309E+02 E0= -.42248019E+02  EK= 0.32436E+01 SP= -.54E+00 SK= 0.16E-01 mag=     -0.487
       N       E                     dE             d eps       ncg     rms          rms(c)
DAV:   1    -0.422816774656E+02    0.17486E-01   -0.40240E-02  3264   0.975E-01    0.801E-02
RMM:   2    -0.422829788866E+02   -0.13014E-02   -0.60373E-03  1974   0.285E-01
   1138 T=   704. E= -.39573756E+02 F= -.42282979E+02 E0= -.42228094E+02  EK= 0.31859E+01 SP= -.49E+00 SK= 0.11E-01 mag=     -0.242
       N       E                     dE             d eps       ncg     rms          rms(c)
DAV:   1    -0.422707570192E+02    0.10920E-01   -0.61947E-02  3680   0.103E+00    0.599E-02
RMM:   2    -0.422718431927E+02   -0.10862E-02   -0.58015E-03  1997   0.259E-01
   1139 T=   695. E= -.39568402E+02 F= -.42271843E+02 E0= -.42217031E+02  EK= 0.31463E+01 SP= -.45E+00 SK= 0.60E-02 mag=      0.286
       N       E                     dE             d eps       ncg     rms          rms(c)
DAV:   1    -0.422632853799E+02    0.74716E-02   -0.25303E-02  3392   0.935E-01    0.131E-01
RMM:   2    -0.422654864658E+02   -0.22011E-02   -0.62351E-03  1998   0.278E-01    0.109E-01
RMM:   3    -0.422675066672E+02   -0.20202E-02   -0.30406E-03  1897   0.125E-01    0.813E-02
RMM:   4    -0.422692758530E+02   -0.17692E-02   -0.24566E-03  1891   0.936E-02
   1140 T=   690. E= -.39566100E+02 F= -.42269276E+02 E0= -.42215689E+02  EK= 0.31227E+01 SP= -.42E+00 SK= 0.24E-02 mag=      0.375
       N       E                     dE             d eps       ncg     rms          rms(c)
DAV:   1    -0.422751441226E+02   -0.76375E-02   -0.27937E-02  3656   0.104E+00    0.845E-02
RMM:   2    -0.422761860335E+02   -0.10419E-02   -0.54136E-03  1895   0.237E-01
   1141 T=   690. E= -.39562337E+02 F= -.42276186E+02 E0= -.42221026E+02  EK= 0.31207E+01 SP= -.41E+00 SK= 0.40E-03 mag=      0.030
       N       E                     dE             d eps       ncg     rms          rms(c)
DAV:   1    -0.422842087983E+02   -0.90647E-02   -0.33895E-02  3744   0.963E-01    0.119E-01
RMM:   2    -0.422864762872E+02   -0.22675E-02   -0.64177E-03  1975   0.259E-01    0.100E-01
RMM:   3    -0.422877880928E+02   -0.13118E-02   -0.19587E-03  1885   0.994E-02
   1142 T=   693. E= -.39556671E+02 F= -.42287788E+02 E0= -.42234364E+02  EK= 0.31360E+01 SP= -.40E+00 SK= 0.73E-04 mag=     -0.402
       N       E                     dE             d eps       ncg     rms          rms(c)
DAV:   1    -0.423049817071E+02   -0.18505E-01   -0.28953E-02  3272   0.975E-01    0.124E-01
RMM:   2    -0.423069283781E+02   -0.19467E-02   -0.67198E-03  1935   0.263E-01    0.913E-02
RMM:   3    -0.423077560026E+02   -0.82762E-03   -0.19931E-03  1838   0.107E-01
   1143 T=   700. E= -.39555243E+02 F= -.42307756E+02 E0= -.42255363E+02  EK= 0.31657E+01 SP= -.41E+00 SK= 0.13E-02 mag=     -0.544
       N       E                     dE             d eps       ncg     rms          rms(c)
DAV:   1    -0.423325260783E+02   -0.25598E-01   -0.41209E-02  3432   0.102E+00    0.114E-01
RMM:   2    -0.423338971746E+02   -0.13711E-02   -0.60621E-03  2015   0.277E-01
   1144 T=   710. E= -.39552156E+02 F= -.42333897E+02 E0= -.42278991E+02  EK= 0.32133E+01 SP= -.44E+00 SK= 0.37E-02 mag=     -0.306
       N       E                     dE             d eps       ncg     rms          rms(c)
DAV:   1    -0.423597698762E+02   -0.27244E-01   -0.51855E-02  3552   0.104E+00    0.103E-01
RMM:   2    -0.423616695273E+02   -0.18997E-02   -0.68507E-03  2006   0.274E-01    0.825E-02
RMM:   3    -0.423625829376E+02   -0.91341E-03   -0.20459E-03  1934   0.109E-01
   1145 T=   724. E= -.39548416E+02 F= -.42362583E+02 E0= -.42307824E+02  EK= 0.32734E+01 SP= -.47E+00 SK= 0.69E-02 mag=      0.209
       N       E                     dE             d eps       ncg     rms          rms(c)
DAV:   1    -0.423902722551E+02   -0.28603E-01   -0.24730E-02  3352   0.999E-01    0.141E-01
RMM:   2    -0.423922597996E+02   -0.19875E-02   -0.43923E-03  1879   0.244E-01    0.109E-01
RMM:   3    -0.423931385489E+02   -0.87875E-03   -0.11694E-03  1582   0.900E-02
   1146 T=   739. E= -.39544872E+02 F= -.42393139E+02 E0= -.42340181E+02  EK= 0.33434E+01 SP= -.51E+00 SK= 0.10E-01 mag=      0.491
       N       E                     dE             d eps       ncg     rms          rms(c)
DAV:   1    -0.424253887671E+02   -0.33129E-01   -0.30206E-02  3472   0.104E+00    0.116E-01
RMM:   2    -0.424271187632E+02   -0.17300E-02   -0.62019E-03  2014   0.271E-01
   1147 T=   757. E= -.39540471E+02 F= -.42427119E+02 E0= -.42372920E+02  EK= 0.34250E+01 SP= -.55E+00 SK= 0.13E-01 mag=      0.437
       N       E                     dE             d eps       ncg     rms          rms(c)
DAV:   1    -0.424603280452E+02   -0.34939E-01   -0.28694E-02  3616   0.105E+00    0.110E-01
RMM:   2    -0.424620013681E+02   -0.16733E-02   -0.62380E-03  2034   0.268E-01
   1148 T=   776. E= -.39537345E+02 F= -.42462001E+02 E0= -.42406836E+02  EK= 0.35118E+01 SP= -.60E+00 SK= 0.15E-01 mag=      0.039
       N       E                     dE             d eps       ncg     rms          rms(c)
DAV:   1    -0.424932852272E+02   -0.32957E-01   -0.19429E-02  3456   0.106E+00    0.979E-02
RMM:   2    -0.424950647194E+02   -0.17795E-02   -0.71829E-03  2001   0.299E-01
   1149 T=   796. E= -.39532375E+02 F= -.42495065E+02 E0= -.42441536E+02  EK= 0.36025E+01 SP= -.66E+00 SK= 0.16E-01 mag=     -0.530
       N       E                     dE             d eps       ncg     rms          rms(c)
DAV:   1    -0.425195252881E+02   -0.26240E-01   -0.27864E-02  3400   0.117E+00    0.159E-01
RMM:   2    -0.425229727064E+02   -0.34474E-02   -0.92051E-03  1981   0.294E-01    0.132E-01
RMM:   3    -0.425247533648E+02   -0.17807E-02   -0.32654E-03  1864   0.118E-01
   1150 T=   816. E= -.39525403E+02 F= -.42524753E+02 E0= -.42473177E+02  EK= 0.36936E+01 SP= -.71E+00 SK= 0.16E-01 mag=     -0.515
       N       E                     dE             d eps       ncg     rms          rms(c)
DAV:   1    -0.425561178239E+02   -0.33145E-01   -0.61510E-02  3328   0.116E+00    0.121E-01
RMM:   2    -0.425581589988E+02   -0.20412E-02   -0.80403E-03  1964   0.319E-01    0.795E-02
RMM:   3    -0.425587158165E+02   -0.55682E-03   -0.20031E-03  1829   0.107E-01
   1151 T=   836. E= -.39525762E+02 F= -.42558716E+02 E0= -.42503769E+02  EK= 0.37811E+01 SP= -.76E+00 SK= 0.14E-01 mag=      0.090
       N       E                     dE             d eps       ncg     rms          rms(c)
DAV:   1    -0.425760555193E+02   -0.17897E-01   -0.10608E-01  3560   0.126E+00    0.173E-01
RMM:   2    -0.425796232250E+02   -0.35677E-02   -0.89056E-03  2025   0.327E-01    0.136E-01
RMM:   3    -0.425823051951E+02   -0.26820E-02   -0.31945E-03  1932   0.135E-01    0.106E-01
RMM:   4    -0.425844785805E+02   -0.21734E-02   -0.18572E-03  1829   0.957E-02    0.671E-02
RMM:   5    -0.425857328662E+02   -0.12543E-02   -0.18965E-03  1872   0.773E-02
   1152 T=   854. E= -.39522746E+02 F= -.42585733E+02 E0= -.42531102E+02  EK= 0.38619E+01 SP= -.81E+00 SK= 0.11E-01 mag=      0.129
       N       E                     dE             d eps       ncg     rms          rms(c)
DAV:   1    -0.426049156812E+02   -0.20437E-01   -0.28424E-02  3360   0.112E+00    0.102E-01
RMM:   2    -0.426068126035E+02   -0.18969E-02   -0.61167E-03  1986   0.261E-01    0.811E-02
RMM:   3    -0.426079579553E+02   -0.11454E-02   -0.21897E-03  1832   0.116E-01
   1153 T=   869. E= -.39518692E+02 F= -.42607958E+02 E0= -.42553362E+02  EK= 0.39336E+01 SP= -.85E+00 SK= 0.82E-02 mag=     -0.172
       N       E                     dE             d eps       ncg     rms          rms(c)
DAV:   1    -0.426220544649E+02   -0.15242E-01   -0.32733E-02  3736   0.117E+00    0.122E-01
RMM:   2    -0.426238953771E+02   -0.18409E-02   -0.66582E-03  1998   0.301E-01    0.941E-02
RMM:   3    -0.426252932709E+02   -0.13979E-02   -0.25058E-03  1857   0.124E-01
   1154 T=   883. E= -.39513222E+02 F= -.42625293E+02 E0= -.42571677E+02  EK= 0.39941E+01 SP= -.89E+00 SK= 0.50E-02 mag=     -0.389
       N       E                     dE             d eps       ncg     rms          rms(c)
DAV:   1    -0.426379938696E+02   -0.14098E-01   -0.19571E-02  3392   0.113E+00    0.106E-01
RMM:   2    -0.426391825234E+02   -0.11887E-02   -0.49204E-03  1964   0.276E-01
   1155 T=   893. E= -.39507678E+02 F= -.42639183E+02 E0= -.42585271E+02  EK= 0.40415E+01 SP= -.91E+00 SK= 0.22E-02 mag=     -0.355
       N       E                     dE             d eps       ncg     rms          rms(c)
DAV:   1    -0.426453265496E+02   -0.73327E-02   -0.33217E-02  4168   0.121E+00    0.866E-02
RMM:   2    -0.426468184680E+02   -0.14919E-02   -0.60926E-03  2000   0.256E-01
   1156 T=   900. E= -.39502013E+02 F= -.42646818E+02 E0= -.42592649E+02  EK= 0.40713E+01 SP= -.93E+00 SK= 0.48E-03 mag=     -0.058
       N       E                     dE             d eps       ncg     rms          rms(c)
DAV:   1    -0.426455330081E+02   -0.20646E-03   -0.16030E-02  2832   0.112E+00    0.127E-01
RMM:   2    -0.426480056443E+02   -0.24726E-02   -0.72888E-03  2000   0.316E-01    0.101E-01
RMM:   3    -0.426491856279E+02   -0.11800E-02   -0.24851E-03  1966   0.122E-01
   1157 T=   902. E= -.39498361E+02 F= -.42649186E+02 E0= -.42595605E+02  EK= 0.40814E+01 SP= -.93E+00 SK= 0.24E-04 mag=      0.187
       N       E                     dE             d eps       ncg     rms          rms(c)
DAV:   1    -0.426454475431E+02    0.25581E-02   -0.38790E-02  3720   0.116E+00    0.104E-01
RMM:   2    -0.426473742907E+02   -0.19267E-02   -0.63365E-03  1914   0.283E-01    0.774E-02
RMM:   3    -0.426481040767E+02   -0.72979E-03   -0.17079E-03  1816   0.105E-01
   1158 T=   901. E= -.39494016E+02 F= -.42648104E+02 E0= -.42594721E+02  EK= 0.40759E+01 SP= -.92E+00 SK= 0.10E-02 mag=      0.192
       N       E                     dE             d eps       ncg     rms          rms(c)
DAV:   1    -0.426372380420E+02    0.10136E-01   -0.39200E-02  3592   0.113E+00    0.122E-01
RMM:   2    -0.426390478646E+02   -0.18098E-02   -0.64408E-03  2014   0.280E-01    0.913E-02
RMM:   3    -0.426400766714E+02   -0.10288E-02   -0.19060E-03  1919   0.112E-01
   1159 T=   896. E= -.39488606E+02 F= -.42640077E+02 E0= -.42586786E+02  EK= 0.40519E+01 SP= -.90E+00 SK= 0.33E-02 mag=     -0.016
       N       E                     dE             d eps       ncg     rms          rms(c)
DAV:   1    -0.426271073274E+02    0.11941E-01   -0.23855E-02  3672   0.112E+00    0.995E-02
RMM:   2    -0.426283288645E+02   -0.12215E-02   -0.57913E-03  1987   0.267E-01
   1160 T=   887. E= -.39483607E+02 F= -.42628329E+02 E0= -.42575764E+02  EK= 0.40121E+01 SP= -.87E+00 SK= 0.67E-02 mag=     -0.305
       N       E                     dE             d eps       ncg     rms          rms(c)
DAV:   1    -0.426076121113E+02    0.19495E-01   -0.32671E-02  3984   0.115E+00    0.114E-01
RMM:   2    -0.426097023025E+02   -0.20902E-02   -0.73188E-03  2045   0.281E-01    0.922E-02
RMM:   3    -0.426106069766E+02   -0.90467E-03   -0.22431E-03  1955   0.111E-01
   1161 T=   875. E= -.39478263E+02 F= -.42610607E+02 E0= -.42558700E+02  EK= 0.39564E+01 SP= -.83E+00 SK= 0.11E-01 mag=     -0.205
       N       E                     dE             d eps       ncg     rms          rms(c)
DAV:   1    -0.425902521591E+02    0.19450E-01   -0.32674E-02  3360   0.117E+00    0.108E-01
RMM:   2    -0.425916031546E+02   -0.13510E-02   -0.57891E-03  2014   0.294E-01
   1162 T=   860. E= -.39473093E+02 F= -.42591603E+02 E0= -.42539300E+02  EK= 0.38909E+01 SP= -.79E+00 SK= 0.15E-01 mag=      0.215
       N       E                     dE             d eps       ncg     rms          rms(c)
DAV:   1    -0.425613542765E+02    0.28898E-01   -0.56595E-02  3872   0.119E+00    0.134E-01
RMM:   2    -0.425637784796E+02   -0.24242E-02   -0.75350E-03  2019   0.287E-01    0.105E-01
RMM:   3    -0.425653071136E+02   -0.15286E-02   -0.21476E-03  1989   0.116E-01
   1163 T=   843. E= -.39464151E+02 F= -.42565307E+02 E0= -.42514282E+02  EK= 0.38157E+01 SP= -.73E+00 SK= 0.18E-01 mag=      0.331
       N       E                     dE             d eps       ncg     rms          rms(c)
DAV:   1    -0.425375744382E+02    0.26204E-01   -0.22671E-02  3376   0.106E+00    0.124E-01
RMM:   2    -0.425390243991E+02   -0.14500E-02   -0.61624E-03  1951   0.313E-01
   1164 T=   825. E= -.39459735E+02 F= -.42539024E+02 E0= -.42487299E+02  EK= 0.37320E+01 SP= -.67E+00 SK= 0.21E-01 mag=      0.124
       N       E                     dE             d eps       ncg     rms          rms(c)
DAV:   1    -0.425066239953E+02    0.30950E-01   -0.40872E-02  4056   0.120E+00    0.995E-02
RMM:   2    -0.425083695310E+02   -0.17455E-02   -0.65785E-03  2015   0.269E-01
   1165 T=   805. E= -.39454006E+02 F= -.42508370E+02 E0= -.42456863E+02  EK= 0.36439E+01 SP= -.61E+00 SK= 0.22E-01 mag=     -0.281
       N       E                     dE             d eps       ncg     rms          rms(c)
DAV:   1    -0.424726399556E+02    0.33984E-01   -0.18667E-02  3288   0.105E+00    0.133E-01
RMM:   2    -0.424749566555E+02   -0.23167E-02   -0.72807E-03  2057   0.315E-01    0.106E-01
RMM:   3    -0.424769174791E+02   -0.19608E-02   -0.32074E-03  1882   0.143E-01    0.725E-02
RMM:   4    -0.424780255875E+02   -0.11081E-02   -0.15291E-03  1816   0.976E-02
   1166 T=   785. E= -.39453513E+02 F= -.42478026E+02 E0= -.42426806E+02  EK= 0.35518E+01 SP= -.55E+00 SK= 0.21E-01 mag=     -0.187
       N       E                     dE             d eps       ncg     rms          rms(c)
DAV:   1    -0.424412035513E+02    0.35714E-01   -0.31462E-02  3568   0.113E+00    0.125E-01
RMM:   2    -0.424432933925E+02   -0.20898E-02   -0.60982E-03  1901   0.262E-01    0.971E-02
RMM:   3    -0.424444041612E+02   -0.11108E-02   -0.18923E-03  1809   0.102E-01
   1167 T=   766. E= -.39447688E+02 F= -.42444404E+02 E0= -.42393050E+02  EK= 0.34649E+01 SP= -.49E+00 SK= 0.20E-01 mag=      0.136
       N       E                     dE             d eps       ncg     rms          rms(c)
DAV:   1    -0.424080419774E+02    0.35251E-01   -0.34272E-02  3520   0.104E+00    0.130E-01
RMM:   2    -0.424096771153E+02   -0.16351E-02   -0.65457E-03  2027   0.291E-01
   1168 T=   748. E= -.39440340E+02 F= -.42409677E+02 E0= -.42359365E+02  EK= 0.33834E+01 SP= -.43E+00 SK= 0.16E-01 mag=      0.520
       N       E                     dE             d eps       ncg     rms          rms(c)
DAV:   1    -0.423723620021E+02    0.35680E-01   -0.31102E-02  3656   0.109E+00    0.131E-01
RMM:   2    -0.423746125239E+02   -0.22505E-02   -0.58802E-03  2020   0.273E-01    0.107E-01
RMM:   3    -0.423757605765E+02   -0.11481E-02   -0.17196E-03  1905   0.110E-01
   1169 T=   731. E= -.39437247E+02 F= -.42375761E+02 E0= -.42326041E+02  EK= 0.33051E+01 SP= -.38E+00 SK= 0.13E-01 mag=      0.329
       N       E                     dE             d eps       ncg     rms          rms(c)
DAV:   1    -0.423409846726E+02    0.33628E-01   -0.35371E-02  3296   0.108E+00    0.156E-01
RMM:   2    -0.423427896163E+02   -0.18049E-02   -0.67144E-03  1897   0.285E-01    0.109E-01
RMM:   3    -0.423433911729E+02   -0.60156E-03   -0.16030E-03  1755   0.104E-01
   1170 T=   715. E= -.39434887E+02 F= -.42343391E+02 E0= -.42292424E+02  EK= 0.32357E+01 SP= -.34E+00 SK= 0.84E-02 mag=     -0.235
       N       E                     dE             d eps       ncg     rms          rms(c)
DAV:   1    -0.423019122062E+02    0.40877E-01   -0.61480E-02  3640   0.111E+00    0.179E-01
RMM:   2    -0.423054934375E+02   -0.35812E-02   -0.82046E-03  2057   0.301E-01    0.144E-01
RMM:   3    -0.423078897100E+02   -0.23963E-02   -0.26532E-03  1894   0.120E-01    0.112E-01
RMM:   4    -0.423105920515E+02   -0.27023E-02   -0.29649E-03  1863   0.102E-01    0.604E-02
RMM:   5    -0.423112561687E+02   -0.66412E-03   -0.84835E-04  1645   0.635E-02
   1171 T=   702. E= -.39431826E+02 F= -.42311256E+02 E0= -.42260223E+02  EK= 0.31763E+01 SP= -.30E+00 SK= 0.46E-02 mag=     -0.130
       N       E                     dE             d eps       ncg     rms          rms(c)
DAV:   1    -0.422737548011E+02    0.36837E-01   -0.17780E-02  3192   0.986E-01    0.133E-01
RMM:   2    -0.422761496539E+02   -0.23949E-02   -0.60475E-03  1948   0.240E-01    0.108E-01
RMM:   3    -0.422778194429E+02   -0.16698E-02   -0.20030E-03  1825   0.111E-01
   1172 T=   691. E= -.39427382E+02 F= -.42277819E+02 E0= -.42227055E+02  EK= 0.31271E+01 SP= -.28E+00 SK= 0.16E-02 mag=      0.226
       N       E                     dE             d eps       ncg     rms          rms(c)
DAV:   1    -0.422444149930E+02    0.31735E-01   -0.40896E-02  3568   0.102E+00    0.130E-01
RMM:   2    -0.422460324775E+02   -0.16175E-02   -0.65889E-03  2026   0.304E-01
   1173 T=   683. E= -.39421579E+02 F= -.42246032E+02 E0= -.42196612E+02  EK= 0.30916E+01 SP= -.27E+00 SK= 0.11E-03 mag=      0.639
       N       E                     dE             d eps       ncg     rms          rms(c)
DAV:   1    -0.422128356548E+02    0.31579E-01   -0.26802E-02  3472   0.991E-01    0.140E-01
RMM:   2    -0.422153118564E+02   -0.24762E-02   -0.59843E-03  1995   0.268E-01    0.117E-01
RMM:   3    -0.422175366965E+02   -0.22248E-02   -0.28901E-03  1826   0.118E-01    0.862E-02
RMM:   4    -0.422198863790E+02   -0.23497E-02   -0.44897E-03  1997   0.107E-01    0.406E-02
RMM:   5    -0.422203761753E+02   -0.48980E-03   -0.13574E-03  1780   0.662E-02
   1174 T=   678. E= -.39422289E+02 F= -.42220376E+02 E0= -.42169082E+02  EK= 0.30669E+01 SP= -.27E+00 SK= 0.43E-03 mag=      0.020
       N       E                     dE             d eps       ncg     rms          rms(c)
DAV:   1    -0.421768403866E+02    0.43046E-01   -0.31835E-02  3328   0.102E+00    0.238E-01
RMM:   2    -0.421819708016E+02   -0.51304E-02   -0.73293E-03  1918   0.253E-01    0.189E-01
RMM:   3    -0.421867340540E+02   -0.47633E-02   -0.46672E-03  1824   0.125E-01    0.145E-01
RMM:   4    -0.421907537583E+02   -0.40197E-02   -0.42821E-03  1893   0.108E-01    0.880E-02
RMM:   5    -0.421930354827E+02   -0.22817E-02   -0.41033E-03  1963   0.996E-02    0.415E-02
RMM:   6    -0.421934157692E+02   -0.38029E-03   -0.10779E-03  1699   0.722E-02
   1175 T=   675. E= -.39421488E+02 F= -.42193416E+02 E0= -.42142115E+02  EK= 0.30540E+01 SP= -.28E+00 SK= 0.29E-02 mag=     -0.038
       N       E                     dE             d eps       ncg     rms          rms(c)
DAV:   1    -0.421663838425E+02    0.26652E-01   -0.10380E-02  3080   0.986E-01    0.912E-02
RMM:   2    -0.421675307460E+02   -0.11469E-02   -0.40831E-03  1999   0.254E-01
   1176 T=   676. E= -.39416063E+02 F= -.42167531E+02 E0= -.42116806E+02  EK= 0.30585E+01 SP= -.31E+00 SK= 0.74E-02 mag=      0.334
       N       E                     dE             d eps       ncg     rms          rms(c)
DAV:   1    -0.421378553135E+02    0.28529E-01   -0.18469E-02  3976   0.106E+00    0.160E-01
RMM:   2    -0.421406811783E+02   -0.28259E-02   -0.55658E-03  1988   0.250E-01    0.132E-01
RMM:   3    -0.421426993380E+02   -0.20182E-02   -0.19607E-03  1856   0.108E-01    0.108E-01
RMM:   4    -0.421463295066E+02   -0.36302E-02   -0.73132E-03  2112   0.130E-01    0.332E-02
RMM:   5    -0.421465426487E+02   -0.21314E-03   -0.51585E-04  1655   0.632E-02
   1177 T=   680. E= -.39413852E+02 F= -.42146543E+02 E0= -.42095413E+02  EK= 0.30766E+01 SP= -.36E+00 SK= 0.14E-01 mag=      0.076
       N       E                     dE             d eps       ncg     rms          rms(c)
DAV:   1    -0.421194257518E+02    0.26904E-01   -0.19519E-02  3392   0.107E+00    0.160E-01
RMM:   2    -0.421219534974E+02   -0.25277E-02   -0.51887E-03  1887   0.240E-01    0.126E-01
RMM:   3    -0.421238083566E+02   -0.18549E-02   -0.18504E-03  1824   0.946E-02    0.993E-02
RMM:   4    -0.421260360687E+02   -0.22277E-02   -0.26159E-03  1847   0.802E-02    0.498E-02
RMM:   5    -0.421266341257E+02   -0.59806E-03   -0.83728E-04  1658   0.574E-02
   1178 T=   686. E= -.39413365E+02 F= -.42126634E+02 E0= -.42075633E+02  EK= 0.31057E+01 SP= -.41E+00 SK= 0.22E-01 mag=     -0.109
       N       E                     dE             d eps       ncg     rms          rms(c)
DAV:   1    -0.421077228358E+02    0.18313E-01   -0.16006E-02  3592   0.104E+00    0.800E-02
RMM:   2    -0.421086761114E+02   -0.95328E-03   -0.40753E-03  1958   0.235E-01
   1179 T=   697. E= -.39409267E+02 F= -.42108676E+02 E0= -.42057892E+02  EK= 0.31520E+01 SP= -.48E+00 SK= 0.32E-01 mag=     -0.167
       N       E                     dE             d eps       ncg     rms          rms(c)
DAV:   1    -0.420917471405E+02    0.15976E-01   -0.17592E-02  3800   0.104E+00    0.991E-02
RMM:   2    -0.420932672024E+02   -0.15201E-02   -0.52077E-03  2010   0.251E-01
   1180 T=   710. E= -.39405567E+02 F= -.42093267E+02 E0= -.42042508E+02  EK= 0.32116E+01 SP= -.57E+00 SK= 0.41E-01 mag=     -0.091
       N       E                     dE             d eps       ncg     rms          rms(c)
DAV:   1    -0.420800393895E+02    0.11708E-01   -0.12452E-02  2872   0.101E+00    0.964E-02
RMM:   2    -0.420816681158E+02   -0.16287E-02   -0.53385E-03  2013   0.280E-01
   1181 T=   726. E= -.39403281E+02 F= -.42081668E+02 E0= -.42030972E+02  EK= 0.32840E+01 SP= -.66E+00 SK= 0.51E-01 mag=      0.076
       N       E                     dE             d eps       ncg     rms          rms(c)
DAV:   1    -0.420732357899E+02    0.68036E-02   -0.21221E-02  3616   0.115E+00    0.815E-02
RMM:   2    -0.420742794410E+02   -0.10437E-02   -0.61165E-03  1990   0.287E-01
   1182 T=   745. E= -.39399696E+02 F= -.42074279E+02 E0= -.42024048E+02  EK= 0.33716E+01 SP= -.76E+00 SK= 0.59E-01 mag=      0.270
       N       E                     dE             d eps       ncg     rms          rms(c)
DAV:   1    -0.420648960008E+02    0.83398E-02   -0.19054E-02  3240   0.103E+00    0.103E-01
RMM:   2    -0.420667138822E+02   -0.18179E-02   -0.69972E-03  1977   0.291E-01    0.828E-02
RMM:   3    -0.420675402865E+02   -0.82640E-03   -0.21383E-03  1888   0.108E-01
   1183 T=   767. E= -.39394247E+02 F= -.42067540E+02 E0= -.42017890E+02  EK= 0.34701E+01 SP= -.86E+00 SK= 0.64E-01 mag=      0.231
       N       E                     dE             d eps       ncg     rms          rms(c)
DAV:   1    -0.420642453058E+02    0.24686E-02   -0.33302E-02  3184   0.109E+00    0.861E-02
RMM:   2    -0.420656989124E+02   -0.14536E-02   -0.55365E-03  1995   0.297E-01
   1184 T=   791. E= -.39388972E+02 F= -.42065699E+02 E0= -.42015626E+02  EK= 0.35798E+01 SP= -.97E+00 SK= 0.67E-01 mag=     -0.045
       N       E                     dE             d eps       ncg     rms          rms(c)
DAV:   1    -0.420626674843E+02    0.15778E-02   -0.59901E-02  3696   0.116E+00    0.846E-02
RMM:   2    -0.420643549091E+02   -0.16874E-02   -0.69492E-03  2025   0.284E-01
   1185 T=   817. E= -.39383124E+02 F= -.42064355E+02 E0= -.42015401E+02  EK= 0.36950E+01 SP= -.11E+01 SK= 0.67E-01 mag=     -0.397
       N       E                     dE             d eps       ncg     rms          rms(c)
DAV:   1    -0.420629746268E+02   -0.30714E-03   -0.23060E-02  3392   0.106E+00    0.123E-01
RMM:   2    -0.420649930334E+02   -0.20184E-02   -0.69096E-03  2014   0.313E-01    0.992E-02
RMM:   3    -0.420664404793E+02   -0.14474E-02   -0.23722E-03  1952   0.132E-01
   1186 T=   842. E= -.39381030E+02 F= -.42066440E+02 E0= -.42017868E+02  EK= 0.38114E+01 SP= -.12E+01 SK= 0.63E-01 mag=     -0.281
       N       E                     dE             d eps       ncg     rms          rms(c)
DAV:   1    -0.420716023342E+02   -0.66093E-02   -0.36202E-02  3424   0.123E+00    0.826E-02
RMM:   2    -0.420729442946E+02   -0.13420E-02   -0.65018E-03  1913   0.306E-01
   1187 T=   870. E= -.39375916E+02 F= -.42072944E+02 E0= -.42023803E+02  EK= 0.39338E+01 SP= -.13E+01 SK= 0.56E-01 mag=      0.227
       N       E                     dE             d eps       ncg     rms          rms(c)
DAV:   1    -0.420727994780E+02   -0.11971E-02   -0.39289E-02  3776   0.119E+00    0.146E-01
RMM:   2    -0.420757313958E+02   -0.29319E-02   -0.74805E-03  2007   0.271E-01    0.122E-01
RMM:   3    -0.420784066249E+02   -0.26752E-02   -0.34808E-03  1847   0.123E-01    0.905E-02
RMM:   4    -0.420805817938E+02   -0.21752E-02   -0.35212E-03  1883   0.103E-01    0.417E-02
RMM:   5    -0.420810897387E+02   -0.50794E-03   -0.13310E-03  1799   0.697E-02
   1188 T=   896. E= -.39371496E+02 F= -.42081090E+02 E0= -.42032083E+02  EK= 0.40519E+01 SP= -.14E+01 SK= 0.46E-01 mag=      0.038
       N       E                     dE             d eps       ncg     rms          rms(c)
DAV:   1    -0.420848722230E+02   -0.42904E-02   -0.22083E-02  3304   0.111E+00    0.136E-01
RMM:   2    -0.420873193846E+02   -0.24472E-02   -0.63645E-03  1913   0.251E-01    0.107E-01
RMM:   3    -0.420888033775E+02   -0.14840E-02   -0.20918E-03  1850   0.991E-02
   1189 T=   919. E= -.39367888E+02 F= -.42088803E+02 E0= -.42041185E+02  EK= 0.41597E+01 SP= -.15E+01 SK= 0.35E-01 mag=     -0.309
       N       E                     dE             d eps       ncg     rms          rms(c)
DAV:   1    -0.420962979893E+02   -0.89786E-02   -0.49205E-02  3632   0.119E+00    0.136E-01
RMM:   2    -0.420989844331E+02   -0.26864E-02   -0.85702E-03  2000   0.316E-01    0.997E-02
RMM:   3    -0.421005041811E+02   -0.15197E-02   -0.31791E-03  1829   0.127E-01
   1190 T=   941. E= -.39364752E+02 F= -.42100504E+02 E0= -.42053214E+02  EK= 0.42579E+01 SP= -.15E+01 SK= 0.23E-01 mag=     -0.397
       N       E                     dE             d eps       ncg     rms          rms(c)
DAV:   1    -0.421127997688E+02   -0.13815E-01   -0.46515E-02  3424   0.119E+00    0.980E-02
RMM:   2    -0.421144644441E+02   -0.16647E-02   -0.64642E-03  2054   0.296E-01
   1191 T=   960. E= -.39361986E+02 F= -.42114464E+02 E0= -.42066467E+02  EK= 0.43411E+01 SP= -.16E+01 SK= 0.12E-01 mag=     -0.158
       N       E                     dE             d eps       ncg     rms          rms(c)
DAV:   1    -0.421257503525E+02   -0.12951E-01   -0.51248E-02  3792   0.123E+00    0.800E-02
RMM:   2    -0.421272419305E+02   -0.14916E-02   -0.69203E-03  2063   0.286E-01
   1192 T=   973. E= -.39359198E+02 F= -.42127242E+02 E0= -.42079854E+02  EK= 0.44028E+01 SP= -.16E+01 SK= 0.46E-02 mag=      0.309
       N       E                     dE             d eps       ncg     rms          rms(c)
DAV:   1    -0.421343511406E+02   -0.86008E-02   -0.29425E-02  3344   0.124E+00    0.140E-01
RMM:   2    -0.421373929143E+02   -0.30418E-02   -0.82497E-03  2037   0.319E-01    0.116E-01
RMM:   3    -0.421392285565E+02   -0.18356E-02   -0.28957E-03  1904   0.130E-01    0.893E-02
RMM:   4    -0.421413655367E+02   -0.21370E-02   -0.33685E-03  1959   0.105E-01    0.430E-02
RMM:   5    -0.421418280967E+02   -0.46256E-03   -0.94885E-04  1672   0.627E-02
   1193 T=   981. E= -.39359501E+02 F= -.42141828E+02 E0= -.42094495E+02  EK= 0.44402E+01 SP= -.17E+01 SK= 0.43E-03 mag=      0.044
       N       E                     dE             d eps       ncg     rms          rms(c)
DAV:   1    -0.421475003898E+02   -0.61349E-02   -0.33446E-02  3440   0.122E+00    0.146E-01
RMM:   2    -0.421505963718E+02   -0.30960E-02   -0.67757E-03  1922   0.287E-01    0.121E-01
RMM:   3    -0.421536189585E+02   -0.30226E-02   -0.41095E-03  1824   0.124E-01    0.693E-02
RMM:   4    -0.421547866071E+02   -0.11676E-02   -0.17624E-03  1823   0.931E-02
   1194 T=   985. E= -.39355436E+02 F= -.42154787E+02 E0= -.42107995E+02  EK= 0.44555E+01 SP= -.17E+01 SK= 0.76E-03 mag=     -0.146
       N       E                     dE             d eps       ncg     rms          rms(c)
DAV:   1    -0.421651408741E+02   -0.11522E-01   -0.32156E-02  3864   0.123E+00    0.718E-02
RMM:   2    -0.421665044159E+02   -0.13635E-02   -0.58522E-03  2014   0.272E-01
   1195 T=   983. E= -.39350287E+02 F= -.42166504E+02 E0= -.42119983E+02  EK= 0.44454E+01 SP= -.16E+01 SK= 0.58E-02 mag=     -0.191
       N       E                     dE             d eps       ncg     rms          rms(c)
DAV:   1    -0.421754520975E+02   -0.10311E-01   -0.27677E-02  3848   0.121E+00    0.605E-02
RMM:   2    -0.421768348246E+02   -0.13827E-02   -0.64944E-03  2069   0.296E-01
   1196 T=   974. E= -.39349534E+02 F= -.42176835E+02 E0= -.42130398E+02  EK= 0.44048E+01 SP= -.16E+01 SK= 0.15E-01 mag=     -0.079
       N       E                     dE             d eps       ncg     rms          rms(c)
DAV:   1    -0.421832163667E+02   -0.77643E-02   -0.21504E-02  3472   0.123E+00    0.672E-02
RMM:   2    -0.421846652028E+02   -0.14488E-02   -0.60459E-03  2030   0.289E-01
   1197 T=   959. E= -.39347149E+02 F= -.42184665E+02 E0= -.42138517E+02  EK= 0.43406E+01 SP= -.15E+01 SK= 0.28E-01 mag=      0.124
       N       E                     dE             d eps       ncg     rms          rms(c)
DAV:   1    -0.421882628677E+02   -0.50465E-02   -0.26716E-02  3600   0.124E+00    0.678E-02
RMM:   2    -0.421897765194E+02   -0.15137E-02   -0.68612E-03  2047   0.312E-01
   1198 T=   941. E= -.39340580E+02 F= -.42189777E+02 E0= -.42144302E+02  EK= 0.42579E+01 SP= -.15E+01 SK= 0.43E-01 mag=      0.322
       N       E                     dE             d eps       ncg     rms          rms(c)
DAV:   1    -0.421897226183E+02   -0.14598E-02   -0.20826E-02  3576   0.119E+00    0.786E-02
RMM:   2    -0.421914430561E+02   -0.17204E-02   -0.67890E-03  2017   0.311E-01
   1199 T=   918. E= -.39334224E+02 F= -.42191443E+02 E0= -.42146502E+02  EK= 0.41554E+01 SP= -.14E+01 SK= 0.58E-01 mag=      0.362
       N       E                     dE             d eps       ncg     rms          rms(c)
DAV:   1    -0.421893636769E+02    0.35894E-03   -0.21896E-02  3632   0.122E+00    0.826E-02
RMM:   2    -0.421908917482E+02   -0.15281E-02   -0.63421E-03  2023   0.299E-01
   1200 T=   892. E= -.39329585E+02 F= -.42190892E+02 E0= -.42145580E+02  EK= 0.40368E+01 SP= -.12E+01 SK= 0.72E-01 mag=      0.194
       N       E                     dE             d eps       ncg     rms          rms(c)
DAV:   1    -0.421845975003E+02    0.47662E-02   -0.22246E-02  3600   0.116E+00    0.744E-02
RMM:   2    -0.421862471965E+02   -0.16497E-02   -0.66524E-03  2030   0.313E-01
   1201 T=   864. E= -.39324564E+02 F= -.42186247E+02 E0= -.42140985E+02  EK= 0.39070E+01 SP= -.11E+01 SK= 0.84E-01 mag=     -0.124
       N       E                     dE             d eps       ncg     rms          rms(c)
DAV:   1    -0.421760316085E+02    0.85659E-02   -0.19341E-02  3496   0.117E+00    0.881E-02
RMM:   2    -0.421776055131E+02   -0.15739E-02   -0.68834E-03  2032   0.301E-01
   1202 T=   834. E= -.39318619E+02 F= -.42177606E+02 E0= -.42133327E+02  EK= 0.37709E+01 SP= -.10E+01 SK= 0.91E-01 mag=     -0.450
       N       E                     dE             d eps       ncg     rms          rms(c)
DAV:   1    -0.421617962814E+02    0.14235E-01   -0.21864E-02  3632   0.114E+00    0.124E-01
RMM:   2    -0.421643151204E+02   -0.25188E-02   -0.73735E-03  2020   0.302E-01    0.104E-01
RMM:   3    -0.421665609765E+02   -0.22459E-02   -0.40092E-03  1832   0.125E-01    0.737E-02
RMM:   4    -0.421682938944E+02   -0.17329E-02   -0.40415E-03  1864   0.105E-01
   1203 T=   803. E= -.39316088E+02 F= -.42168294E+02 E0= -.42123350E+02  EK= 0.36317E+01 SP= -.87E+00 SK= 0.94E-01 mag=     -0.080
       N       E                     dE             d eps       ncg     rms          rms(c)
DAV:   1    -0.421476104079E+02    0.18951E-01   -0.22266E-02  3632   0.110E+00    0.150E-01
RMM:   2    -0.421503744811E+02   -0.27641E-02   -0.59149E-03  1896   0.249E-01    0.121E-01
RMM:   3    -0.421524700464E+02   -0.20956E-02   -0.27991E-03  1824   0.102E-01    0.909E-02
RMM:   4    -0.421544136847E+02   -0.19436E-02   -0.27647E-03  1847   0.868E-02    0.507E-02
RMM:   5    -0.421549821694E+02   -0.56848E-03   -0.88323E-04  1649   0.565E-02
   1204 T=   772. E= -.39313400E+02 F= -.42154982E+02 E0= -.42110181E+02  EK= 0.34932E+01 SP= -.74E+00 SK= 0.92E-01 mag=      0.053
       N       E                     dE             d eps       ncg     rms          rms(c)
DAV:   1    -0.421390466921E+02    0.15367E-01   -0.21226E-02  3672   0.105E+00    0.622E-02
RMM:   2    -0.421398160203E+02   -0.76933E-03   -0.41419E-03  1927   0.238E-01
   1205 T=   743. E= -.39309132E+02 F= -.42139816E+02 E0= -.42094957E+02  EK= 0.33623E+01 SP= -.62E+00 SK= 0.85E-01 mag=     -0.031
       N       E                     dE             d eps       ncg     rms          rms(c)
DAV:   1    -0.421221447143E+02    0.16902E-01   -0.21314E-02  4024   0.111E+00    0.606E-02
RMM:   2    -0.421230587833E+02   -0.91407E-03   -0.45959E-03  2000   0.240E-01
   1206 T=   716. E= -.39306195E+02 F= -.42123059E+02 E0= -.42078532E+02  EK= 0.32386E+01 SP= -.50E+00 SK= 0.75E-01 mag=     -0.248
       N       E                     dE             d eps       ncg     rms          rms(c)
DAV:   1    -0.421042048891E+02    0.17940E-01   -0.93150E-03  2624   0.102E+00    0.870E-02
RMM:   2    -0.421054630786E+02   -0.12582E-02   -0.46298E-03  2011   0.277E-01
   1207 T=   691. E= -.39301505E+02 F= -.42105463E+02 E0= -.42061641E+02  EK= 0.31280E+01 SP= -.39E+00 SK= 0.62E-01 mag=     -0.429
       N       E                     dE             d eps       ncg     rms          rms(c)
DAV:   1    -0.420881763227E+02    0.16029E-01   -0.21159E-02  3728   0.109E+00    0.856E-02
RMM:   2    -0.420895089315E+02   -0.13326E-02   -0.52716E-03  1968   0.261E-01
   1208 T=   671. E= -.39295507E+02 F= -.42089509E+02 E0= -.42045723E+02  EK= 0.30337E+01 SP= -.29E+00 SK= 0.47E-01 mag=     -0.446
       N       E                     dE             d eps       ncg     rms          rms(c)
DAV:   1    -0.420750858853E+02    0.13090E-01   -0.10393E-02  2936   0.967E-01    0.514E-02
RMM:   2    -0.420759869394E+02   -0.90105E-03   -0.47610E-03  1983   0.273E-01
   1209 T=   653. E= -.39290818E+02 F= -.42075987E+02 E0= -.42031524E+02  EK= 0.29549E+01 SP= -.20E+00 SK= 0.32E-01 mag=     -0.231
       N       E                     dE             d eps       ncg     rms          rms(c)
DAV:   1    -0.420630214987E+02    0.12064E-01   -0.14305E-02  3288   0.102E+00    0.441E-02
RMM:   2    -0.420637653087E+02   -0.74381E-03   -0.45738E-03  1990   0.250E-01
   1210 T=   640. E= -.39285061E+02 F= -.42063765E+02 E0= -.42019114E+02  EK= 0.28934E+01 SP= -.13E+00 SK= 0.19E-01 mag=      0.169
       N       E                     dE             d eps       ncg     rms          rms(c)
DAV:   1    -0.420498434557E+02    0.13178E-01   -0.13841E-02  3304   0.968E-01    0.100E-01
RMM:   2    -0.420515667575E+02   -0.17233E-02   -0.58239E-03  1995   0.277E-01
   1211 T=   630. E= -.39277218E+02 F= -.42051567E+02 E0= -.42008368E+02  EK= 0.28492E+01 SP= -.84E-01 SK= 0.92E-02 mag=      0.510
       N       E                     dE             d eps       ncg     rms          rms(c)
DAV:   1    -0.420437663601E+02    0.60771E-02   -0.18826E-02  3688   0.102E+00    0.117E-01
RMM:   2    -0.420454333641E+02   -0.16670E-02   -0.55205E-03  2003   0.280E-01
   1212 T=   624. E= -.39272049E+02 F= -.42045433E+02 E0= -.42002235E+02  EK= 0.28238E+01 SP= -.53E-01 SK= 0.25E-02 mag=      0.601
       N       E                     dE             d eps       ncg     rms          rms(c)
DAV:   1    -0.420449406292E+02   -0.11743E-02   -0.13431E-02  3024   0.942E-01    0.647E-02
RMM:   2    -0.420459962767E+02   -0.10556E-02   -0.53844E-03  2014   0.282E-01
   1213 T=   623. E= -.39269072E+02 F= -.42045996E+02 E0= -.42001503E+02  EK= 0.28184E+01 SP= -.42E-01 SK= 0.14E-04 mag=      0.322
       N       E                     dE             d eps       ncg     rms          rms(c)
DAV:   1    -0.420491038626E+02   -0.41632E-02   -0.12689E-02  3128   0.978E-01    0.617E-02
RMM:   2    -0.420500231683E+02   -0.91931E-03   -0.53083E-03  2002   0.270E-01
   1214 T=   627. E= -.39263617E+02 F= -.42050023E+02 E0= -.42005245E+02  EK= 0.28344E+01 SP= -.50E-01 SK= 0.18E-02 mag=     -0.264
       N       E                     dE             d eps       ncg     rms          rms(c)
DAV:   1    -0.420507254036E+02   -0.16215E-02   -0.14912E-02  3280   0.965E-01    0.160E-01
RMM:   2    -0.420537807953E+02   -0.30554E-02   -0.64545E-03  1984   0.278E-01    0.133E-01
RMM:   3    -0.420567567636E+02   -0.29760E-02   -0.41083E-03  1824   0.122E-01    0.101E-01
RMM:   4    -0.420597611768E+02   -0.30044E-02   -0.69354E-03  2038   0.119E-01    0.368E-02
RMM:   5    -0.420601147745E+02   -0.35360E-03   -0.12136E-03  1737   0.679E-02
   1215 T=   634. E= -.39261030E+02 F= -.42060115E+02 E0= -.42014924E+02  EK= 0.28690E+01 SP= -.77E-01 SK= 0.76E-02 mag=     -0.009
       N       E                     dE             d eps       ncg     rms          rms(c)
DAV:   1    -0.420663779512E+02   -0.66168E-02   -0.19506E-02  3176   0.958E-01    0.154E-01
RMM:   2    -0.420695057079E+02   -0.31278E-02   -0.63924E-03  1870   0.229E-01    0.128E-01
RMM:   3    -0.420737963821E+02   -0.42907E-02   -0.84455E-03  1827   0.123E-01    0.707E-02
RMM:   4    -0.420751401487E+02   -0.13438E-02   -0.33027E-03  1827   0.982E-02
   1216 T=   646. E= -.39258920E+02 F= -.42075140E+02 E0= -.42029936E+02  EK= 0.29232E+01 SP= -.12E+00 SK= 0.17E-01 mag=      0.084
       N       E                     dE             d eps       ncg     rms          rms(c)
DAV:   1    -0.420955935190E+02   -0.21797E-01   -0.20564E-02  3416   0.101E+00    0.668E-02
RMM:   2    -0.420966435240E+02   -0.10500E-02   -0.47472E-03  1972   0.243E-01
   1217 T=   663. E= -.39255113E+02 F= -.42096644E+02 E0= -.42051184E+02  EK= 0.30004E+01 SP= -.19E+00 SK= 0.28E-01 mag=     -0.010
       N       E                     dE             d eps       ncg     rms          rms(c)
DAV:   1    -0.421238026217E+02   -0.28209E-01   -0.25996E-02  3544   0.962E-01    0.514E-02
RMM:   2    -0.421246891803E+02   -0.88656E-03   -0.45758E-03  2006   0.257E-01
   1218 T=   685. E= -.39253001E+02 F= -.42124689E+02 E0= -.42079311E+02  EK= 0.30970E+01 SP= -.27E+00 SK= 0.41E-01 mag=     -0.227
       N       E                     dE             d eps       ncg     rms          rms(c)
DAV:   1    -0.421573927710E+02   -0.33590E-01   -0.14682E-02  3328   0.104E+00    0.854E-02
RMM:   2    -0.421586049727E+02   -0.12122E-02   -0.48284E-03  2004   0.261E-01
   1219 T=   710. E= -.39250115E+02 F= -.42158605E+02 E0= -.42113538E+02  EK= 0.32137E+01 SP= -.36E+00 SK= 0.52E-01 mag=     -0.374
       N       E                     dE             d eps       ncg     rms          rms(c)
DAV:   1    -0.421995431439E+02   -0.42150E-01   -0.17231E-02  3072   0.107E+00    0.817E-02
RMM:   2    -0.422007492109E+02   -0.12061E-02   -0.58958E-03  2023   0.297E-01
   1220 T=   741. E= -.39245663E+02 F= -.42200749E+02 E0= -.42155285E+02  EK= 0.33525E+01 SP= -.46E+00 SK= 0.62E-01 mag=     -0.340
       N       E                     dE             d eps       ncg     rms          rms(c)
DAV:   1    -0.422483914020E+02   -0.48848E-01   -0.14955E-02  3160   0.107E+00    0.517E-02
RMM:   2    -0.422493867489E+02   -0.99535E-03   -0.57023E-03  2046   0.302E-01
   1221 T=   775. E= -.39241831E+02 F= -.42249387E+02 E0= -.42203381E+02  EK= 0.35075E+01 SP= -.57E+00 SK= 0.67E-01 mag=     -0.096
       N       E                     dE             d eps       ncg     rms          rms(c)
DAV:   1    -0.423010641152E+02   -0.52673E-01   -0.17113E-02  3224   0.110E+00    0.581E-02
RMM:   2    -0.423022282641E+02   -0.11641E-02   -0.59675E-03  2047   0.290E-01
   1222 T=   812. E= -.39237198E+02 F= -.42302228E+02 E0= -.42256331E+02  EK= 0.36750E+01 SP= -.68E+00 SK= 0.68E-01 mag=      0.268
       N       E                     dE             d eps       ncg     rms          rms(c)
DAV:   1    -0.423568287621E+02   -0.55765E-01   -0.21774E-02  3400   0.117E+00    0.109E-01
RMM:   2    -0.423588500803E+02   -0.20213E-02   -0.72090E-03  2059   0.317E-01    0.896E-02
RMM:   3    -0.423605366778E+02   -0.16866E-02   -0.33215E-03  1843   0.133E-01
   1223 T=   851. E= -.39233532E+02 F= -.42360537E+02 E0= -.42314858E+02  EK= 0.38508E+01 SP= -.79E+00 SK= 0.64E-01 mag=      0.185
       N       E                     dE             d eps       ncg     rms          rms(c)
DAV:   1    -0.424221593164E+02   -0.63309E-01   -0.30952E-02  3400   0.116E+00    0.923E-02
RMM:   2    -0.424238367939E+02   -0.16775E-02   -0.62498E-03  1991   0.300E-01
   1224 T=   892. E= -.39227279E+02 F= -.42423837E+02 E0= -.42377688E+02  EK= 0.40333E+01 SP= -.89E+00 SK= 0.55E-01 mag=     -0.230
       N       E                     dE             d eps       ncg     rms          rms(c)
DAV:   1    -0.424827398350E+02   -0.60581E-01   -0.55331E-02  3992   0.130E+00    0.149E-01
RMM:   2    -0.424857537830E+02   -0.30139E-02   -0.76298E-03  2049   0.293E-01    0.125E-01
RMM:   3    -0.424879478196E+02   -0.21940E-02   -0.25591E-03  1898   0.115E-01    0.985E-02
RMM:   4    -0.424907677686E+02   -0.28199E-02   -0.53492E-03  1989   0.112E-01    0.288E-02
RMM:   5    -0.424909145267E+02   -0.14676E-03   -0.51566E-04  1624   0.607E-02
   1225 T=   931. E= -.39223322E+02 F= -.42490915E+02 E0= -.42444459E+02  EK= 0.42109E+01 SP= -.99E+00 SK= 0.42E-01 mag=     -0.027
       N       E                     dE             d eps       ncg     rms          rms(c)
DAV:   1    -0.425523427062E+02   -0.61575E-01   -0.29101E-02  3312   0.116E+00    0.143E-01
RMM:   2    -0.425551121940E+02   -0.27695E-02   -0.70004E-03  1955   0.278E-01    0.117E-01
RMM:   3    -0.425567847171E+02   -0.16725E-02   -0.25315E-03  1824   0.109E-01
   1226 T=   967. E= -.39218655E+02 F= -.42556785E+02 E0= -.42511049E+02  EK= 0.43750E+01 SP= -.11E+01 SK= 0.27E-01 mag=      0.247
       N       E                     dE             d eps       ncg     rms          rms(c)
DAV:   1    -0.426246607359E+02   -0.69549E-01   -0.51944E-02  3928   0.131E+00    0.122E-01
RMM:   2    -0.426264922504E+02   -0.18315E-02   -0.69711E-03  2068   0.329E-01    0.855E-02
RMM:   3    -0.426276141499E+02   -0.11219E-02   -0.21626E-03  1873   0.121E-01
   1227 T=   999. E= -.39216825E+02 F= -.42627614E+02 E0= -.42581499E+02  EK= 0.45217E+01 SP= -.11E+01 SK= 0.14E-01 mag=      0.259
       N       E                     dE             d eps       ncg     rms          rms(c)
DAV:   1    -0.426968778429E+02   -0.70386E-01   -0.38646E-02  3528   0.123E+00    0.914E-02
RMM:   2    -0.426982402713E+02   -0.13624E-02   -0.66834E-03  2087   0.301E-01
   1228 T=  1026. E= -.39215575E+02 F= -.42698240E+02 E0= -.42651519E+02  EK= 0.46417E+01 SP= -.12E+01 SK= 0.37E-02 mag=     -0.002
       N       E                     dE             d eps       ncg     rms          rms(c)
DAV:   1    -0.427623715736E+02   -0.65494E-01   -0.45775E-02  3952   0.132E+00    0.103E-01
RMM:   2    -0.427643312288E+02   -0.19597E-02   -0.75185E-03  2077   0.292E-01    0.813E-02
RMM:   3    -0.427652186127E+02   -0.88738E-03   -0.23249E-03  1957   0.114E-01
   1229 T=  1045. E= -.39212855E+02 F= -.42765219E+02 E0= -.42718913E+02  EK= 0.47280E+01 SP= -.12E+01 SK= 0.28E-05 mag=     -0.168
       N       E                     dE             d eps       ncg     rms          rms(c)
DAV:   1    -0.428304212266E+02   -0.66090E-01   -0.35704E-02  3392   0.132E+00    0.994E-02
RMM:   2    -0.428317902049E+02   -0.13690E-02   -0.62367E-03  2049   0.319E-01
   1230 T=  1057. E= -.39206663E+02 F= -.42831790E+02 E0= -.42785086E+02  EK= 0.47818E+01 SP= -.12E+01 SK= 0.46E-02 mag=     -0.172
       N       E                     dE             d eps       ncg     rms          rms(c)
DAV:   1    -0.428920984214E+02   -0.61677E-01   -0.56112E-02  4152   0.139E+00    0.751E-02
RMM:   2    -0.428935071977E+02   -0.14088E-02   -0.68780E-03  2088   0.285E-01
   1231 T=  1060. E= -.39198846E+02 F= -.42893507E+02 E0= -.42846574E+02  EK= 0.47943E+01 SP= -.11E+01 SK= 0.19E-01 mag=     -0.007
       N       E                     dE             d eps       ncg     rms          rms(c)
DAV:   1    -0.429484040317E+02   -0.56306E-01   -0.18923E-02  2840   0.119E+00    0.963E-02
RMM:   2    -0.429502583940E+02   -0.18544E-02   -0.75769E-03  2104   0.341E-01    0.726E-02
RMM:   3    -0.429510473650E+02   -0.78897E-03   -0.25443E-03  1977   0.139E-01
   1232 T=  1052. E= -.39196985E+02 F= -.42951047E+02 E0= -.42904091E+02  EK= 0.47587E+01 SP= -.10E+01 SK= 0.42E-01 mag=      0.127
       N       E                     dE             d eps       ncg     rms          rms(c)
DAV:   1    -0.430033989055E+02   -0.53141E-01   -0.39901E-02  3632   0.133E+00    0.627E-02
RMM:   2    -0.430045952754E+02   -0.11964E-02   -0.50059E-03  1942   0.286E-01
   1233 T=  1036. E= -.39190836E+02 F= -.43004595E+02 E0= -.42957470E+02  EK= 0.46878E+01 SP= -.95E+00 SK= 0.72E-01 mag=      0.159
       N       E                     dE             d eps       ncg     rms          rms(c)
DAV:   1    -0.430494486065E+02   -0.46050E-01   -0.34250E-02  3440   0.132E+00    0.771E-02
RMM:   2    -0.430511167320E+02   -0.16681E-02   -0.72753E-03  2084   0.276E-01
   1234 T=  1012. E= -.39184825E+02 F= -.43051117E+02 E0= -.43003694E+02  EK= 0.45786E+01 SP= -.82E+00 SK= 0.11E+00 mag=      0.069
       N       E                     dE             d eps       ncg     rms          rms(c)
DAV:   1    -0.430904018564E+02   -0.40953E-01   -0.20871E-02  3360   0.117E+00    0.107E-01
RMM:   2    -0.430924155443E+02   -0.20137E-02   -0.60845E-03  2060   0.299E-01    0.866E-02
RMM:   3    -0.430938117768E+02   -0.13962E-02   -0.24784E-03  1820   0.127E-01
   1235 T=   981. E= -.39182281E+02 F= -.43093812E+02 E0= -.43046143E+02  EK= 0.44371E+01 SP= -.67E+00 SK= 0.14E+00 mag=     -0.034
       N       E                     dE             d eps       ncg     rms          rms(c)
DAV:   1    -0.431290685104E+02   -0.36653E-01   -0.44671E-02  3592   0.121E+00    0.102E-01
RMM:   2    -0.431311836017E+02   -0.21151E-02   -0.65592E-03  2090   0.317E-01    0.805E-02
RMM:   3    -0.431319861122E+02   -0.80251E-03   -0.20917E-03  1775   0.116E-01
   1236 T=   945. E= -.39176320E+02 F= -.43131986E+02 E0= -.43084072E+02  EK= 0.42765E+01 SP= -.50E+00 SK= 0.18E+00 mag=     -0.070
       N       E                     dE             d eps       ncg     rms          rms(c)
DAV:   1    -0.431623976919E+02   -0.31214E-01   -0.39804E-02  3680   0.119E+00    0.122E-01
RMM:   2    -0.431639422285E+02   -0.15445E-02   -0.60057E-03  2042   0.284E-01
   1237 T=   906. E= -.39168878E+02 F= -.43163942E+02 E0= -.43115715E+02  EK= 0.41003E+01 SP= -.31E+00 SK= 0.21E+00 mag=     -0.020
       N       E                     dE             d eps       ncg     rms          rms(c)
DAV:   1    -0.431917625312E+02   -0.29365E-01   -0.28020E-02  3952   0.116E+00    0.891E-02
RMM:   2    -0.431931931486E+02   -0.14306E-02   -0.58544E-03  2061   0.257E-01
   1238 T=   865. E= -.39166546E+02 F= -.43193193E+02 E0= -.43144725E+02  EK= 0.39126E+01 SP= -.11E+00 SK= 0.23E+00 mag=      0.086
       N       E                     dE             d eps       ncg     rms          rms(c)
DAV:   1    -0.432181866891E+02   -0.26424E-01   -0.24252E-02  3632   0.115E+00    0.666E-02
RMM:   2    -0.432193583114E+02   -0.11716E-02   -0.62620E-03  2048   0.307E-01
   1239 T=   823. E= -.39163365E+02 F= -.43219358E+02 E0= -.43170659E+02  EK= 0.37252E+01 SP= 0.91E-01 SK= 0.24E+00 mag=      0.179
       N       E                     dE             d eps       ncg     rms          rms(c)
DAV:   1    -0.432386492128E+02   -0.20463E-01   -0.29497E-02  3152   0.114E+00    0.904E-02
RMM:   2    -0.432402868784E+02   -0.16377E-02   -0.62095E-03  2036   0.287E-01
   1240 T=   783. E= -.39156131E+02 F= -.43240287E+02 E0= -.43191386E+02  EK= 0.35445E+01 SP= 0.30E+00 SK= 0.24E+00 mag=      0.191
       N       E                     dE             d eps       ncg     rms          rms(c)
DAV:   1    -0.432551185396E+02   -0.16469E-01   -0.18981E-02  3264   0.103E+00    0.137E-01
RMM:   2    -0.432576067591E+02   -0.24882E-02   -0.60940E-03  2005   0.282E-01    0.113E-01
RMM:   3    -0.432604641423E+02   -0.28574E-02   -0.38250E-03  1824   0.128E-01    0.659E-02
RMM:   4    -0.432617663492E+02   -0.13022E-02   -0.20663E-03  1824   0.979E-02
   1241 T=   745. E= -.39154317E+02 F= -.43261766E+02 E0= -.43212460E+02  EK= 0.33707E+01 SP= 0.51E+00 SK= 0.23E+00 mag=      0.018
       N       E                     dE             d eps       ncg     rms          rms(c)
DAV:   1    -0.432715901474E+02   -0.11126E-01   -0.35062E-02  3384   0.104E+00    0.168E-01
RMM:   2    -0.432746995982E+02   -0.31095E-02   -0.59074E-03  1913   0.241E-01    0.135E-01
RMM:   3    -0.432773035402E+02   -0.26039E-02   -0.22816E-03  1824   0.101E-01    0.101E-01
RMM:   4    -0.432800760968E+02   -0.27726E-02   -0.33932E-03  1848   0.949E-02    0.411E-02
RMM:   5    -0.432803127704E+02   -0.23667E-03   -0.44269E-04  1583   0.525E-02
   1242 T=   710. E= -.39151394E+02 F= -.43280313E+02 E0= -.43230806E+02  EK= 0.32102E+01 SP= 0.71E+00 SK= 0.21E+00 mag=     -0.030
       N       E                     dE             d eps       ncg     rms          rms(c)
DAV:   1    -0.432970113396E+02   -0.16935E-01   -0.13877E-02  3184   0.967E-01    0.643E-02
RMM:   2    -0.432978207605E+02   -0.80942E-03   -0.43094E-03  2008   0.246E-01
   1243 T=   678. E= -.39146072E+02 F= -.43297821E+02 E0= -.43248122E+02  EK= 0.30681E+01 SP= 0.90E+00 SK= 0.19E+00 mag=      0.027
       N       E                     dE             d eps       ncg     rms          rms(c)
DAV:   1    -0.433128611835E+02   -0.15850E-01   -0.18689E-02  3760   0.101E+00    0.863E-02
RMM:   2    -0.433140969223E+02   -0.12357E-02   -0.45382E-03  2007   0.230E-01
   1244 T=   650. E= -.39141188E+02 F= -.43314097E+02 E0= -.43264323E+02  EK= 0.29426E+01 SP= 0.11E+01 SK= 0.16E+00 mag=      0.117
       N       E                     dE             d eps       ncg     rms          rms(c)
DAV:   1    -0.433305845851E+02   -0.17723E-01   -0.18453E-02  3184   0.929E-01    0.895E-02
RMM:   2    -0.433317347933E+02   -0.11502E-02   -0.44673E-03  1998   0.254E-01
   1245 T=   627. E= -.39137973E+02 F= -.43331735E+02 E0= -.43281935E+02  EK= 0.28358E+01 SP= 0.12E+01 SK= 0.13E+00 mag=      0.176
       N       E                     dE             d eps       ncg     rms          rms(c)
DAV:   1    -0.433496765667E+02   -0.19092E-01   -0.19471E-02  3520   0.992E-01    0.527E-02
RMM:   2    -0.433506469115E+02   -0.97034E-03   -0.52301E-03  2023   0.247E-01
   1246 T=   608. E= -.39133915E+02 F= -.43350647E+02 E0= -.43300746E+02  EK= 0.27503E+01 SP= 0.14E+01 SK= 0.94E-01 mag=      0.154
       N       E                     dE             d eps       ncg     rms          rms(c)
DAV:   1    -0.433686182705E+02   -0.18942E-01   -0.10718E-02  2920   0.890E-01    0.604E-02
RMM:   2    -0.433694969119E+02   -0.87864E-03   -0.50116E-03  2014   0.258E-01
   1247 T=   593. E= -.39129135E+02 F= -.43369497E+02 E0= -.43319409E+02  EK= 0.26844E+01 SP= 0.15E+01 SK= 0.64E-01 mag=      0.047
       N       E                     dE             d eps       ncg     rms          rms(c)
DAV:   1    -0.433862797420E+02   -0.17661E-01   -0.16313E-02  3512   0.936E-01    0.104E-01
RMM:   2    -0.433879066818E+02   -0.16269E-02   -0.49250E-03  1975   0.235E-01
   1248 T=   583. E= -.39122772E+02 F= -.43387907E+02 E0= -.43337863E+02  EK= 0.26386E+01 SP= 0.16E+01 SK= 0.39E-01 mag=     -0.078
       N       E                     dE             d eps       ncg     rms          rms(c)
DAV:   1    -0.434101920935E+02   -0.23912E-01   -0.17852E-02  3288   0.917E-01    0.967E-02
RMM:   2    -0.434112596121E+02   -0.10675E-02   -0.50787E-03  1990   0.267E-01
   1249 T=   578. E= -.39119668E+02 F= -.43411260E+02 E0= -.43361292E+02  EK= 0.26129E+01 SP= 0.17E+01 SK= 0.20E-01 mag=     -0.178
       N       E                     dE             d eps       ncg     rms          rms(c)
DAV:   1    -0.434340992046E+02   -0.23907E-01   -0.22417E-02  3456   0.899E-01    0.843E-02
RMM:   2    -0.434351665079E+02   -0.10673E-02   -0.58896E-03  2031   0.268E-01
   1250 T=   576. E= -.39115121E+02 F= -.43435167E+02 E0= -.43385271E+02  EK= 0.26076E+01 SP= 0.17E+01 SK= 0.66E-02 mag=     -0.207
       N       E                     dE             d eps       ncg     rms          rms(c)
DAV:   1    -0.434569389649E+02   -0.22840E-01   -0.14807E-02  3112   0.887E-01    0.107E-01
RMM:   2    -0.434586971951E+02   -0.17582E-02   -0.51327E-03  2006   0.255E-01
   1251 T=   579. E= -.39109364E+02 F= -.43458697E+02 E0= -.43408788E+02  EK= 0.26211E+01 SP= 0.17E+01 SK= 0.50E-03 mag=     -0.122
       N       E                     dE             d eps       ncg     rms          rms(c)
DAV:   1    -0.434851736284E+02   -0.28235E-01   -0.17194E-02  3392   0.994E-01    0.937E-02
RMM:   2    -0.434865027953E+02   -0.13292E-02   -0.58102E-03  2006   0.286E-01
   1252 T=   587. E= -.39105411E+02 F= -.43486503E+02 E0= -.43436541E+02  EK= 0.26550E+01 SP= 0.17E+01 SK= 0.12E-02 mag=      0.054
       N       E                     dE             d eps       ncg     rms          rms(c)
DAV:   1    -0.435139122601E+02   -0.28739E-01   -0.18382E-02  3376   0.894E-01    0.788E-02
RMM:   2    -0.435151787470E+02   -0.12665E-02   -0.57917E-03  2004   0.268E-01
   1253 T=   599. E= -.39100668E+02 F= -.43515179E+02 E0= -.43465544E+02  EK= 0.27082E+01 SP= 0.17E+01 SK= 0.80E-02 mag=      0.235
       N       E                     dE             d eps       ncg     rms          rms(c)
DAV:   1    -0.435419374240E+02   -0.28025E-01   -0.17182E-02  3168   0.928E-01    0.119E-01
RMM:   2    -0.435437199751E+02   -0.17826E-02   -0.61230E-03  1993   0.260E-01
   1254 T=   614. E= -.39095086E+02 F= -.43543720E+02 E0= -.43494437E+02  EK= 0.27797E+01 SP= 0.16E+01 SK= 0.20E-01 mag=      0.333
       N       E                     dE             d eps       ncg     rms          rms(c)
DAV:   1    -0.435692384117E+02   -0.27301E-01   -0.18417E-02  3520   0.947E-01    0.148E-01
RMM:   2    -0.435722906241E+02   -0.30522E-02   -0.74524E-03  2002   0.271E-01    0.125E-01
RMM:   3    -0.435762056497E+02   -0.39150E-02   -0.55553E-03  1826   0.130E-01    0.784E-02
RMM:   4    -0.435779026533E+02   -0.16970E-02   -0.41621E-03  1824   0.104E-01
   1255 T=   634. E= -.39095476E+02 F= -.43577903E+02 E0= -.43528138E+02  EK= 0.28682E+01 SP= 0.16E+01 SK= 0.35E-01 mag=      0.085
       N       E                     dE             d eps       ncg     rms          rms(c)
DAV:   1    -0.435947091019E+02   -0.18503E-01   -0.34995E-02  3144   0.964E-01    0.208E-01
RMM:   2    -0.435997964762E+02   -0.50874E-02   -0.97951E-03  1892   0.266E-01    0.173E-01
RMM:   3    -0.436060344352E+02   -0.62380E-02   -0.70548E-03  1824   0.124E-01    0.121E-01
RMM:   4    -0.436099761474E+02   -0.39417E-02   -0.66547E-03  1825   0.119E-01    0.421E-02
RMM:   5    -0.436102535706E+02   -0.27742E-03   -0.72168E-04  1646   0.633E-02
   1256 T=   657. E= -.39094563E+02 F= -.43610254E+02 E0= -.43560650E+02  EK= 0.29729E+01 SP= 0.15E+01 SK= 0.52E-01 mag=     -0.092
       N       E                     dE             d eps       ncg     rms          rms(c)
DAV:   1    -0.436408881032E+02   -0.30912E-01   -0.15077E-02  3088   0.937E-01    0.819E-02
RMM:   2    -0.436419331337E+02   -0.10450E-02   -0.44726E-03  1950   0.239E-01
   1257 T=   684. E= -.39090304E+02 F= -.43641933E+02 E0= -.43592545E+02  EK= 0.30965E+01 SP= 0.14E+01 SK= 0.69E-01 mag=     -0.142
       N       E                     dE             d eps       ncg     rms          rms(c)
DAV:   1    -0.436698258646E+02   -0.28938E-01   -0.21029E-02  3744   0.105E+00    0.128E-01
RMM:   2    -0.436721713458E+02   -0.23455E-02   -0.60044E-03  1950   0.247E-01    0.106E-01
RMM:   3    -0.436735387757E+02   -0.13674E-02   -0.16157E-03  1807   0.999E-02
   1258 T=   715. E= -.39086963E+02 F= -.43673539E+02 E0= -.43624219E+02  EK= 0.32341E+01 SP= 0.13E+01 SK= 0.83E-01 mag=      0.004
       N       E                     dE             d eps       ncg     rms          rms(c)
DAV:   1    -0.437008162542E+02   -0.28645E-01   -0.69795E-02  3264   0.107E+00    0.142E-01
RMM:   2    -0.437049027369E+02   -0.40865E-02   -0.89127E-03  1965   0.316E-01    0.115E-01
RMM:   3    -0.437059313188E+02   -0.10286E-02   -0.20608E-03  1837   0.107E-01
   1259 T=   748. E= -.39085366E+02 F= -.43705931E+02 E0= -.43656954E+02  EK= 0.33840E+01 SP= 0.11E+01 SK= 0.94E-01 mag=      0.164
       N       E                     dE             d eps       ncg     rms          rms(c)
DAV:   1    -0.437357634457E+02   -0.30861E-01   -0.12458E-01  3336   0.114E+00    0.137E-01
RMM:   2    -0.437379936598E+02   -0.22302E-02   -0.10124E-02  2024   0.354E-01    0.908E-02
RMM:   3    -0.437387663846E+02   -0.77272E-03   -0.18340E-03  1983   0.112E-01
   1260 T=   784. E= -.39083213E+02 F= -.43738766E+02 E0= -.43689814E+02  EK= 0.35459E+01 SP= 0.10E+01 SK= 0.10E+00 mag=      0.132
       N       E                     dE             d eps       ncg     rms          rms(c)
DAV:   1    -0.437686890838E+02   -0.30695E-01   -0.76457E-02  3288   0.120E+00    0.954E-02
RMM:   2    -0.437702777214E+02   -0.15886E-02   -0.80873E-03  2057   0.331E-01
   1261 T=   821. E= -.39079885E+02 F= -.43770278E+02 E0= -.43721248E+02  EK= 0.37156E+01 SP= 0.88E+00 SK= 0.99E-01 mag=     -0.068
       N       E                     dE             d eps       ncg     rms          rms(c)
DAV:   1    -0.437930367937E+02   -0.24348E-01   -0.56042E-02  3808   0.119E+00    0.125E-01
RMM:   2    -0.437953356086E+02   -0.22988E-02   -0.82525E-03  2034   0.293E-01    0.993E-02
RMM:   3    -0.437972400282E+02   -0.19044E-02   -0.32328E-03  1899   0.123E-01    0.743E-02
RMM:   4    -0.437986431070E+02   -0.14031E-02   -0.20183E-03  1824   0.859E-02
   1262 T=   859. E= -.39076809E+02 F= -.43798643E+02 E0= -.43749835E+02  EK= 0.38855E+01 SP= 0.74E+00 SK= 0.93E-01 mag=     -0.060
       N       E                     dE             d eps       ncg     rms          rms(c)
DAV:   1    -0.438218113521E+02   -0.24571E-01   -0.26458E-02  3360   0.113E+00    0.114E-01
RMM:   2    -0.438232016591E+02   -0.13903E-02   -0.64481E-03  1974   0.309E-01
   1263 T=   896. E= -.39071412E+02 F= -.43823202E+02 E0= -.43774523E+02  EK= 0.40529E+01 SP= 0.62E+00 SK= 0.81E-01 mag=      0.099
       N       E                     dE             d eps       ncg     rms          rms(c)
DAV:   1    -0.438390282771E+02   -0.17217E-01   -0.41490E-02  4008   0.121E+00    0.145E-01
RMM:   2    -0.438419020157E+02   -0.28737E-02   -0.79478E-03  2064   0.291E-01    0.118E-01
RMM:   3    -0.438433393344E+02   -0.14373E-02   -0.22827E-03  1913   0.111E-01
   1264 T=   931. E= -.39064700E+02 F= -.43843339E+02 E0= -.43794981E+02  EK= 0.42106E+01 SP= 0.50E+00 SK= 0.65E-01 mag=      0.081
       N       E                     dE             d eps       ncg     rms          rms(c)
DAV:   1    -0.438600066916E+02   -0.18105E-01   -0.44832E-02  3272   0.122E+00    0.140E-01
RMM:   2    -0.438628144116E+02   -0.28077E-02   -0.11063E-02  2034   0.370E-01    0.997E-02
RMM:   3    -0.438634532480E+02   -0.63884E-03   -0.28319E-03  1831   0.141E-01
   1265 T=   962. E= -.39063435E+02 F= -.43863453E+02 E0= -.43814893E+02  EK= 0.43504E+01 SP= 0.40E+00 SK= 0.47E-01 mag=     -0.022
       N       E                     dE             d eps       ncg     rms          rms(c)
DAV:   1    -0.438725321591E+02   -0.97177E-02   -0.77440E-02  3840   0.128E+00    0.134E-01
RMM:   2    -0.438750670846E+02   -0.25349E-02   -0.92022E-03  2040   0.347E-01    0.993E-02
RMM:   3    -0.438765659612E+02   -0.14989E-02   -0.29132E-03  1900   0.124E-01
   1266 T=   988. E= -.39058584E+02 F= -.43876566E+02 E0= -.43828171E+02  EK= 0.44683E+01 SP= 0.32E+00 SK= 0.29E-01 mag=     -0.086
       N       E                     dE             d eps       ncg     rms          rms(c)
DAV:   1    -0.438857944891E+02   -0.10727E-01   -0.45090E-02  3632   0.122E+00    0.828E-02
RMM:   2    -0.438871359964E+02   -0.13415E-02   -0.68930E-03  2053   0.303E-01
   1267 T=  1007. E= -.39056487E+02 F= -.43887136E+02 E0= -.43838665E+02  EK= 0.45571E+01 SP= 0.26E+00 SK= 0.14E-01 mag=     -0.081
       N       E                     dE             d eps       ncg     rms          rms(c)
DAV:   1    -0.438882283311E+02   -0.24338E-02   -0.58976E-02  3936   0.127E+00    0.887E-02
RMM:   2    -0.438899854134E+02   -0.17571E-02   -0.80216E-03  2056   0.300E-01
   1268 T=  1019. E= -.39052779E+02 F= -.43889985E+02 E0= -.43841525E+02  EK= 0.46119E+01 SP= 0.22E+00 SK= 0.38E-02 mag=     -0.015
       N       E                     dE             d eps       ncg     rms          rms(c)
DAV:   1    -0.438846462918E+02    0.35820E-02   -0.29936E-02  3680   0.118E+00    0.135E-01
RMM:   2    -0.438874686067E+02   -0.28223E-02   -0.83174E-03  2038   0.323E-01    0.110E-01
RMM:   3    -0.438903369275E+02   -0.28683E-02   -0.42681E-03  1908   0.156E-01    0.577E-02
RMM:   4    -0.438911931076E+02   -0.85618E-03   -0.15961E-03  1810   0.972E-02
   1269 T=  1023. E= -.39053175E+02 F= -.43891193E+02 E0= -.43842651E+02  EK= 0.46301E+01 SP= 0.21E+00 SK= 0.76E-05 mag=     -0.001
       N       E                     dE             d eps       ncg     rms          rms(c)
DAV:   1    -0.438796442640E+02    0.10693E-01   -0.40137E-02  3896   0.127E+00    0.141E-01
RMM:   2    -0.438823124014E+02   -0.26681E-02   -0.80228E-03  1935   0.297E-01    0.111E-01
RMM:   3    -0.438841904641E+02   -0.18781E-02   -0.28305E-03  1824   0.115E-01    0.789E-02
RMM:   4    -0.438856854402E+02   -0.14950E-02   -0.15956E-03  1808   0.854E-02
   1270 T=  1020. E= -.39048918E+02 F= -.43885685E+02 E0= -.43837074E+02  EK= 0.46144E+01 SP= 0.22E+00 SK= 0.31E-02 mag=      0.019
       N       E                     dE             d eps       ncg     rms          rms(c)
DAV:   1    -0.438747056393E+02    0.94848E-02   -0.27624E-02  3696   0.118E+00    0.854E-02
RMM:   2    -0.438757944827E+02   -0.10888E-02   -0.53730E-03  1983   0.261E-01
   1271 T=  1009. E= -.39043383E+02 F= -.43875794E+02 E0= -.43827119E+02  EK= 0.45647E+01 SP= 0.26E+00 SK= 0.13E-01 mag=      0.030
       N       E                     dE             d eps       ncg     rms          rms(c)
DAV:   1    -0.438601989191E+02    0.14507E-01   -0.25118E-02  3816   0.118E+00    0.397E-02
RMM:   2    -0.438615607016E+02   -0.13618E-02   -0.81120E-03  2048   0.302E-01
   1272 T=   990. E= -.39040820E+02 F= -.43861561E+02 E0= -.43812773E+02  EK= 0.44792E+01 SP= 0.31E+00 SK= 0.27E-01 mag=      0.023
       N       E                     dE             d eps       ncg     rms          rms(c)
DAV:   1    -0.438421665577E+02    0.18032E-01   -0.28439E-02  3304   0.123E+00    0.725E-02
RMM:   2    -0.438435077068E+02   -0.13411E-02   -0.63572E-03  2041   0.302E-01
   1273 T=   965. E= -.39037055E+02 F= -.43843508E+02 E0= -.43794631E+02  EK= 0.43669E+01 SP= 0.39E+00 SK= 0.45E-01 mag=     -0.006
       N       E                     dE             d eps       ncg     rms          rms(c)
DAV:   1    -0.438199244292E+02    0.22242E-01   -0.35220E-02  3976   0.118E+00    0.761E-02
RMM:   2    -0.438217442853E+02   -0.18199E-02   -0.81164E-03  2059   0.313E-01    0.614E-02
RMM:   3    -0.438223731537E+02   -0.62887E-03   -0.19431E-03  1950   0.114E-01
   1274 T=   936. E= -.39031029E+02 F= -.43822373E+02 E0= -.43773459E+02  EK= 0.42345E+01 SP= 0.49E+00 SK= 0.63E-01 mag=     -0.027
       N       E                     dE             d eps       ncg     rms          rms(c)
DAV:   1    -0.437976154314E+02    0.24129E-01   -0.31877E-02  3432   0.110E+00    0.780E-02
RMM:   2    -0.437994008580E+02   -0.17854E-02   -0.51179E-03  1955   0.278E-01
   1275 T=   904. E= -.39023680E+02 F= -.43799401E+02 E0= -.43750382E+02  EK= 0.40880E+01 SP= 0.61E+00 SK= 0.80E-01 mag=     -0.029
       N       E                     dE             d eps       ncg     rms          rms(c)
DAV:   1    -0.437694994556E+02    0.28116E-01   -0.51829E-02  4000   0.119E+00    0.122E-01
RMM:   2    -0.437715270020E+02   -0.20275E-02   -0.63321E-03  2043   0.252E-01    0.947E-02
RMM:   3    -0.437735465473E+02   -0.20195E-02   -0.26350E-03  1898   0.110E-01    0.687E-02
RMM:   4    -0.437746309038E+02   -0.10844E-02   -0.13238E-03  1780   0.748E-02
   1276 T=   869. E= -.39017640E+02 F= -.43774631E+02 E0= -.43725537E+02  EK= 0.39304E+01 SP= 0.73E+00 SK= 0.94E-01 mag=      0.020
       N       E                     dE             d eps       ncg     rms          rms(c)
DAV:   1    -0.437441209043E+02    0.29426E-01   -0.22443E-02  3336   0.106E+00    0.119E-01
RMM:   2    -0.437460471682E+02   -0.19263E-02   -0.60567E-03  1875   0.268E-01    0.909E-02
RMM:   3    -0.437474424337E+02   -0.13953E-02   -0.26414E-03  1824   0.109E-01
   1277 T=   832. E= -.39013136E+02 F= -.43747442E+02 E0= -.43698352E+02  EK= 0.37662E+01 SP= 0.87E+00 SK= 0.10E+00 mag=      0.043
       N       E                     dE             d eps       ncg     rms          rms(c)
DAV:   1    -0.437183230778E+02    0.27724E-01   -0.31845E-02  3856   0.111E+00    0.124E-01
RMM:   2    -0.437197514688E+02   -0.14284E-02   -0.52381E-03  1985   0.259E-01
   1278 T=   797. E= -.39006705E+02 F= -.43719751E+02 E0= -.43670717E+02  EK= 0.36057E+01 SP= 0.10E+01 SK= 0.10E+00 mag=      0.013
       N       E                     dE             d eps       ncg     rms          rms(c)
DAV:   1    -0.436925176090E+02    0.25805E-01   -0.24353E-02  3680   0.108E+00    0.710E-02
RMM:   2    -0.436937273719E+02   -0.12098E-02   -0.50944E-03  2021   0.253E-01
   1279 T=   762. E= -.39004593E+02 F= -.43693727E+02 E0= -.43644689E+02  EK= 0.34488E+01 SP= 0.11E+01 SK= 0.10E+00 mag=     -0.058
       N       E                     dE             d eps       ncg     rms          rms(c)
DAV:   1    -0.436667864419E+02    0.25731E-01   -0.21054E-02  3520   0.104E+00    0.662E-02
RMM:   2    -0.436677071926E+02   -0.92075E-03   -0.56071E-03  2019   0.289E-01
   1280 T=   730. E= -.39000412E+02 F= -.43667707E+02 E0= -.43618731E+02  EK= 0.33036E+01 SP= 0.13E+01 SK= 0.92E-01 mag=     -0.133
       N       E                     dE             d eps       ncg     rms          rms(c)
DAV:   1    -0.436389346219E+02    0.27852E-01   -0.22453E-02  3112   0.109E+00    0.899E-02
RMM:   2    -0.436405755510E+02   -0.16409E-02   -0.70192E-03  2045   0.285E-01
   1281 T=   701. E= -.38992814E+02 F= -.43640576E+02 E0= -.43591748E+02  EK= 0.31726E+01 SP= 0.14E+01 SK= 0.79E-01 mag=     -0.139
       N       E                     dE             d eps       ncg     rms          rms(c)
DAV:   1    -0.436135221889E+02    0.25412E-01   -0.16392E-02  3600   0.995E-01    0.104E-01
RMM:   2    -0.436153980457E+02   -0.18759E-02   -0.69245E-03  2061   0.297E-01    0.843E-02
RMM:   3    -0.436168758066E+02   -0.14778E-02   -0.26612E-03  1893   0.118E-01
   1282 T=   675. E= -.38989719E+02 F= -.43616876E+02 E0= -.43568111E+02  EK= 0.30543E+01 SP= 0.15E+01 SK= 0.63E-01 mag=     -0.006
       N       E                     dE             d eps       ncg     rms          rms(c)
DAV:   1    -0.435914911555E+02    0.23907E-01   -0.26926E-02  3384   0.995E-01    0.102E-01
RMM:   2    -0.435932745804E+02   -0.17834E-02   -0.53087E-03  1909   0.257E-01
   1283 T=   653. E= -.38982711E+02 F= -.43593275E+02 E0= -.43544769E+02  EK= 0.29550E+01 SP= 0.16E+01 SK= 0.47E-01 mag=      0.191
       N       E                     dE             d eps       ncg     rms          rms(c)
DAV:   1    -0.435607640675E+02    0.30727E-01   -0.38643E-02  3848   0.105E+00    0.193E-01
RMM:   2    -0.435648364133E+02   -0.40723E-02   -0.80479E-03  1977   0.245E-01    0.160E-01
RMM:   3    -0.435716706394E+02   -0.68342E-02   -0.78723E-03  1824   0.137E-01    0.895E-02
RMM:   4    -0.435734360792E+02   -0.17654E-02   -0.33545E-03  1824   0.106E-01
   1284 T=   635. E= -.38979296E+02 F= -.43573436E+02 E0= -.43524975E+02  EK= 0.28716E+01 SP= 0.17E+01 SK= 0.30E-01 mag=      0.015
       N       E                     dE             d eps       ncg     rms          rms(c)
DAV:   1    -0.435400297929E+02    0.31641E-01   -0.32146E-02  3344   0.948E-01    0.207E-01
RMM:   2    -0.435445346980E+02   -0.45049E-02   -0.10144E-02  1868   0.244E-01    0.168E-01
RMM:   3    -0.435500046547E+02   -0.54700E-02   -0.69512E-03  1824   0.119E-01    0.112E-01
RMM:   4    -0.435528968678E+02   -0.28922E-02   -0.36966E-03  1824   0.972E-02    0.547E-02
RMM:   5    -0.435532909794E+02   -0.39411E-03   -0.62725E-04  1582   0.514E-02
   1285 T=   619. E= -.38977931E+02 F= -.43553291E+02 E0= -.43505065E+02  EK= 0.28020E+01 SP= 0.18E+01 SK= 0.17E-01 mag=     -0.033
       N       E                     dE             d eps       ncg     rms          rms(c)
DAV:   1    -0.435340291427E+02    0.18868E-01   -0.18433E-02  3544   0.951E-01    0.715E-02
RMM:   2    -0.435346548465E+02   -0.62570E-03   -0.33376E-03  1934   0.215E-01
   1286 T=   608. E= -.38974475E+02 F= -.43534655E+02 E0= -.43486644E+02  EK= 0.27526E+01 SP= 0.18E+01 SK= 0.64E-02 mag=      0.018
       N       E                     dE             d eps       ncg     rms          rms(c)
DAV:   1    -0.435146320555E+02    0.19397E-01   -0.14332E-02  3552   0.972E-01    0.823E-02
RMM:   2    -0.435161563417E+02   -0.15243E-02   -0.61315E-03  1985   0.247E-01
   1287 T=   601. E= -.38970028E+02 F= -.43516156E+02 E0= -.43468505E+02  EK= 0.27211E+01 SP= 0.18E+01 SK= 0.80E-03 mag=      0.121
       N       E                     dE             d eps       ncg     rms          rms(c)
DAV:   1    -0.434972037126E+02    0.17428E-01   -0.13131E-02  3248   0.956E-01    0.112E-01
RMM:   2    -0.434988280636E+02   -0.16244E-02   -0.49708E-03  1994   0.261E-01
   1288 T=   599. E= -.38965252E+02 F= -.43498828E+02 E0= -.43451595E+02  EK= 0.27079E+01 SP= 0.18E+01 SK= 0.60E-03 mag=      0.183
       N       E                     dE             d eps       ncg     rms          rms(c)
DAV:   1    -0.434843028804E+02    0.12901E-01   -0.17617E-02  3560   0.101E+00    0.872E-02
RMM:   2    -0.434853000068E+02   -0.99713E-03   -0.56131E-03  1988   0.272E-01
   1289 T=   600. E= -.38961850E+02 F= -.43485300E+02 E0= -.43438277E+02  EK= 0.27140E+01 SP= 0.18E+01 SK= 0.60E-02 mag=      0.161
       N       E                     dE             d eps       ncg     rms          rms(c)
DAV:   1    -0.434703740798E+02    0.13929E-01   -0.13064E-02  3072   0.920E-01    0.591E-02
RMM:   2    -0.434711978981E+02   -0.82382E-03   -0.59572E-03  1997   0.284E-01
   1290 T=   605. E= -.38957276E+02 F= -.43471198E+02 E0= -.43424408E+02  EK= 0.27376E+01 SP= 0.18E+01 SK= 0.17E-01 mag=      0.048
       N       E                     dE             d eps       ncg     rms          rms(c)
DAV:   1    -0.434528080715E+02    0.17566E-01   -0.15671E-02  3152   0.101E+00    0.105E-01
RMM:   2    -0.434546427957E+02   -0.18347E-02   -0.63602E-03  1970   0.262E-01    0.899E-02
RMM:   3    -0.434566337649E+02   -0.19910E-02   -0.37030E-03  1828   0.126E-01    0.522E-02
RMM:   4    -0.434575174021E+02   -0.88364E-03   -0.21119E-03  1822   0.870E-02
   1291 T=   614. E= -.38953935E+02 F= -.43457517E+02 E0= -.43411089E+02  EK= 0.27775E+01 SP= 0.17E+01 SK= 0.32E-01 mag=      0.001
       N       E                     dE             d eps       ncg     rms          rms(c)
DAV:   1    -0.434402851851E+02    0.16349E-01   -0.14543E-02  3120   0.956E-01    0.960E-02
RMM:   2    -0.434417797503E+02   -0.14946E-02   -0.55095E-03  1834   0.240E-01
   1292 T=   627. E= -.38947139E+02 F= -.43441780E+02 E0= -.43395799E+02  EK= 0.28357E+01 SP= 0.16E+01 SK= 0.52E-01 mag=     -0.005
       N       E                     dE             d eps       ncg     rms          rms(c)
DAV:   1    -0.434228163084E+02    0.17469E-01   -0.33557E-02  3816   0.103E+00    0.145E-01
RMM:   2    -0.434251998978E+02   -0.23836E-02   -0.53545E-03  1992   0.237E-01    0.118E-01
RMM:   3    -0.434276886563E+02   -0.24888E-02   -0.24624E-03  1839   0.107E-01    0.881E-02
RMM:   4    -0.434298304596E+02   -0.21418E-02   -0.29443E-03  1832   0.907E-02    0.239E-02
RMM:   5    -0.434299363291E+02   -0.10587E-03   -0.42360E-04  1604   0.521E-02
   1293 T=   643. E= -.38945250E+02 F= -.43429936E+02 E0= -.43384269E+02  EK= 0.29099E+01 SP= 0.15E+01 SK= 0.73E-01 mag=     -0.018
       N       E                     dE             d eps       ncg     rms          rms(c)
DAV:   1    -0.434065156162E+02    0.23315E-01   -0.32215E-02  3160   0.933E-01    0.157E-01
RMM:   2    -0.434094969512E+02   -0.29813E-02   -0.87092E-03  1859   0.232E-01    0.129E-01
RMM:   3    -0.434136582518E+02   -0.41613E-02   -0.56527E-03  1824   0.123E-01    0.824E-02
RMM:   4    -0.434152217250E+02   -0.15635E-02   -0.29458E-03  1824   0.898E-02
   1294 T=   662. E= -.38944638E+02 F= -.43415222E+02 E0= -.43369966E+02  EK= 0.29966E+01 SP= 0.14E+01 SK= 0.96E-01 mag=      0.028
       N       E                     dE             d eps       ncg     rms          rms(c)
DAV:   1    -0.433981530438E+02    0.15505E-01   -0.15342E-02  3472   0.103E+00    0.682E-02
RMM:   2    -0.433990219379E+02   -0.86889E-03   -0.43423E-03  1905   0.231E-01
   1295 T=   685. E= -.38941089E+02 F= -.43399022E+02 E0= -.43354197E+02  EK= 0.31010E+01 SP= 0.12E+01 SK= 0.12E+00 mag=      0.077
       N       E                     dE             d eps       ncg     rms          rms(c)
DAV:   1    -0.433796521425E+02    0.18501E-01   -0.18307E-02  3800   0.100E+00    0.807E-02
RMM:   2    -0.433807376995E+02   -0.10856E-02   -0.45667E-03  1993   0.239E-01
   1296 T=   711. E= -.38938197E+02 F= -.43380738E+02 E0= -.43336325E+02  EK= 0.32180E+01 SP= 0.11E+01 SK= 0.14E+00 mag=      0.083
       N       E                     dE             d eps       ncg     rms          rms(c)
DAV:   1    -0.433592046729E+02    0.20447E-01   -0.14142E-02  3216   0.102E+00    0.889E-02
RMM:   2    -0.433607337115E+02   -0.15290E-02   -0.50714E-03  2007   0.261E-01
   1297 T=   740. E= -.38935830E+02 F= -.43360734E+02 E0= -.43316729E+02  EK= 0.33468E+01 SP= 0.93E+00 SK= 0.15E+00 mag=      0.026
       N       E                     dE             d eps       ncg     rms          rms(c)
DAV:   1    -0.433396756849E+02    0.19529E-01   -0.22716E-02  3840   0.116E+00    0.549E-02
RMM:   2    -0.433405547845E+02   -0.87910E-03   -0.56828E-03  2033   0.293E-01
   1298 T=   771. E= -.38932998E+02 F= -.43340555E+02 E0= -.43296928E+02  EK= 0.34883E+01 SP= 0.76E+00 SK= 0.16E+00 mag=     -0.070
       N       E                     dE             d eps       ncg     rms          rms(c)
DAV:   1    -0.433139411819E+02    0.25735E-01   -0.21313E-02  3544   0.106E+00    0.711E-02
RMM:   2    -0.433152521637E+02   -0.13110E-02   -0.67452E-03  2037   0.292E-01
   1299 T=   804. E= -.38928650E+02 F= -.43315252E+02 E0= -.43272071E+02  EK= 0.36360E+01 SP= 0.59E+00 SK= 0.16E+00 mag=     -0.138
       N       E                     dE             d eps       ncg     rms          rms(c)
DAV:   1    -0.432834495860E+02    0.30492E-01   -0.21202E-02  3280   0.114E+00    0.112E-01
RMM:   2    -0.432854988051E+02   -0.20492E-02   -0.72336E-03  2039   0.293E-01    0.901E-02
RMM:   3    -0.432867286588E+02   -0.12299E-02   -0.23874E-03  1925   0.122E-01
   1300 T=   837. E= -.38925425E+02 F= -.43286729E+02 E0= -.43243932E+02  EK= 0.37859E+01 SP= 0.42E+00 SK= 0.16E+00 mag=     -0.028
       N       E                     dE             d eps       ncg     rms          rms(c)
DAV:   1    -0.432516504737E+02    0.33848E-01   -0.42281E-02  3320   0.114E+00    0.107E-01
RMM:   2    -0.432545403810E+02   -0.28899E-02   -0.68856E-03  1930   0.305E-01    0.894E-02
RMM:   3    -0.432551299776E+02   -0.58960E-03   -0.13290E-03  1690   0.101E-01
   1301 T=   870. E= -.38921357E+02 F= -.43255130E+02 E0= -.43212737E+02  EK= 0.39363E+01 SP= 0.25E+00 SK= 0.15E+00 mag=      0.092
       N       E                     dE             d eps       ncg     rms          rms(c)
DAV:   1    -0.432178856391E+02    0.36655E-01   -0.84498E-02  3704   0.121E+00    0.124E-01
RMM:   2    -0.432198342826E+02   -0.19486E-02   -0.89623E-03  2019   0.323E-01    0.785E-02
RMM:   3    -0.432205450700E+02   -0.71079E-03   -0.16511E-03  1966   0.112E-01
   1302 T=   902. E= -.38917861E+02 F= -.43220545E+02 E0= -.43178453E+02  EK= 0.40813E+01 SP= 0.89E-01 SK= 0.13E+00 mag=      0.079
       N       E                     dE             d eps       ncg     rms          rms(c)
DAV:   1    -0.431809250838E+02    0.38909E-01   -0.45673E-02  3616   0.128E+00    0.865E-02
RMM:   2    -0.431824766633E+02   -0.15516E-02   -0.76212E-03  2095   0.323E-01
   1303 T=   932. E= -.38914452E+02 F= -.43182477E+02 E0= -.43140650E+02  EK= 0.42158E+01 SP= -.58E-01 SK= 0.11E+00 mag=     -0.051
       N       E                     dE             d eps       ncg     rms          rms(c)
DAV:   1    -0.431365328865E+02    0.44392E-01   -0.42843E-02  3904   0.125E+00    0.894E-02
RMM:   2    -0.431381286794E+02   -0.15958E-02   -0.69848E-03  2061   0.293E-01
   1304 T=   958. E= -.38910563E+02 F= -.43138129E+02 E0= -.43096761E+02  EK= 0.43323E+01 SP= -.19E+00 SK= 0.87E-01 mag=     -0.175
       N       E                     dE             d eps       ncg     rms          rms(c)
DAV:   1    -0.430889419986E+02    0.47591E-01   -0.24136E-02  3672   0.121E+00    0.108E-01
RMM:   2    -0.430911043680E+02   -0.21624E-02   -0.80636E-03  2037   0.317E-01    0.839E-02
RMM:   3    -0.430923506630E+02   -0.12463E-02   -0.24416E-03  1959   0.125E-01
   1305 T=   979. E= -.38909677E+02 F= -.43092351E+02 E0= -.43051266E+02  EK= 0.44270E+01 SP= -.31E+00 SK= 0.62E-01 mag=     -0.088
       N       E                     dE             d eps       ncg     rms          rms(c)
DAV:   1    -0.430425534838E+02    0.48551E-01   -0.37097E-02  3672   0.126E+00    0.854E-02
RMM:   2    -0.430440264114E+02   -0.14729E-02   -0.48180E-03  1977   0.280E-01
   1306 T=   995. E= -.38903805E+02 F= -.43044026E+02 E0= -.43003185E+02  EK= 0.45022E+01 SP= -.40E+00 SK= 0.40E-01 mag=      0.141
       N       E                     dE             d eps       ncg     rms          rms(c)
DAV:   1    -0.429865689111E+02    0.55985E-01   -0.44210E-02  4032   0.134E+00    0.150E-01
RMM:   2    -0.429895857909E+02   -0.30169E-02   -0.79600E-03  2046   0.280E-01    0.121E-01
RMM:   3    -0.429919449521E+02   -0.23592E-02   -0.24938E-03  1844   0.118E-01    0.943E-02
RMM:   4    -0.429942866927E+02   -0.23417E-02   -0.39088E-03  1891   0.980E-02    0.225E-02
RMM:   5    -0.429943597122E+02   -0.73020E-04   -0.39220E-04  1583   0.520E-02
   1307 T=  1005. E= -.38900420E+02 F= -.42994360E+02 E0= -.42953759E+02  EK= 0.45481E+01 SP= -.48E+00 SK= 0.22E-01 mag=      0.011
       N       E                     dE             d eps       ncg     rms          rms(c)
DAV:   1    -0.429357869022E+02    0.58500E-01   -0.27671E-02  3400   0.118E+00    0.152E-01
RMM:   2    -0.429387333688E+02   -0.29465E-02   -0.82565E-03  1993   0.305E-01    0.120E-01
RMM:   3    -0.429405648750E+02   -0.18315E-02   -0.23766E-03  1826   0.114E-01    0.950E-02
RMM:   4    -0.429429277589E+02   -0.23629E-02   -0.39382E-03  1844   0.960E-02    0.359E-02
RMM:   5    -0.429430860255E+02   -0.15827E-03   -0.35645E-04  1545   0.541E-02
   1308 T=  1008. E= -.38898838E+02 F= -.42943086E+02 E0= -.42902751E+02  EK= 0.45623E+01 SP= -.53E+00 SK= 0.86E-02 mag=     -0.024
       N       E                     dE             d eps       ncg     rms          rms(c)
DAV:   1    -0.428908659953E+02    0.52062E-01   -0.25469E-02  3768   0.122E+00    0.515E-02
RMM:   2    -0.428918954230E+02   -0.10294E-02   -0.42992E-03  2032   0.268E-01
   1309 T=  1006. E= -.38894692E+02 F= -.42891895E+02 E0= -.42851791E+02  EK= 0.45500E+01 SP= -.55E+00 SK= 0.15E-02 mag=      0.021
       N       E                     dE             d eps       ncg     rms          rms(c)
DAV:   1    -0.428406082552E+02    0.50258E-01   -0.25992E-02  3720   0.127E+00    0.635E-02
RMM:   2    -0.428420977095E+02   -0.14895E-02   -0.60895E-03  2046   0.274E-01
   1310 T=   996. E= -.38892945E+02 F= -.42842098E+02 E0= -.42802232E+02  EK= 0.45078E+01 SP= -.56E+00 SK= 0.23E-03 mag=      0.089
       N       E                     dE             d eps       ncg     rms          rms(c)
DAV:   1    -0.427938018930E+02    0.46806E-01   -0.18623E-02  3256   0.119E+00    0.710E-02
RMM:   2    -0.427953829700E+02   -0.15811E-02   -0.61578E-03  2094   0.315E-01
   1311 T=   982. E= -.38887984E+02 F= -.42795383E+02 E0= -.42755743E+02  EK= 0.44448E+01 SP= -.54E+00 SK= 0.42E-02 mag=      0.118
       N       E                     dE             d eps       ncg     rms          rms(c)
DAV:   1    -0.427515667296E+02    0.42235E-01   -0.36241E-02  3904   0.129E+00    0.423E-02
RMM:   2    -0.427529805051E+02   -0.14138E-02   -0.71371E-03  2066   0.315E-01
   1312 T=   964. E= -.38881208E+02 F= -.42752981E+02 E0= -.42713501E+02  EK= 0.43634E+01 SP= -.50E+00 SK= 0.12E-01 mag=      0.078
       N       E                     dE             d eps       ncg     rms          rms(c)
DAV:   1    -0.427138839120E+02    0.37683E-01   -0.20297E-02  3208   0.115E+00    0.392E-02
RMM:   2    -0.427152100515E+02   -0.13261E-02   -0.65479E-03  2028   0.299E-01
   1313 T=   942. E= -.38877255E+02 F= -.42715210E+02 E0= -.42675849E+02  EK= 0.42630E+01 SP= -.45E+00 SK= 0.23E-01 mag=     -0.013
       N       E                     dE             d eps       ncg     rms          rms(c)
DAV:   1    -0.426804579987E+02    0.33426E-01   -0.33482E-02  3896   0.122E+00    0.759E-02
RMM:   2    -0.426822222908E+02   -0.17643E-02   -0.63907E-03  2003   0.287E-01
   1314 T=   918. E= -.38871338E+02 F= -.42682222E+02 E0= -.42643012E+02  EK= 0.41525E+01 SP= -.38E+00 SK= 0.35E-01 mag=     -0.078
       N       E                     dE             d eps       ncg     rms          rms(c)
DAV:   1    -0.426566322502E+02    0.23826E-01   -0.24354E-02  3808   0.120E+00    0.692E-02
RMM:   2    -0.426579970310E+02   -0.13648E-02   -0.65578E-03  2056   0.322E-01
   1315 T=   892. E= -.38867018E+02 F= -.42657997E+02 E0= -.42618911E+02  EK= 0.40365E+01 SP= -.29E+00 SK= 0.46E-01 mag=     -0.089
       N       E                     dE             d eps       ncg     rms          rms(c)
DAV:   1    -0.426396326526E+02    0.17000E-01   -0.28195E-02  3608   0.112E+00    0.337E-02
RMM:   2    -0.426408980988E+02   -0.12654E-02   -0.65094E-03  2058   0.299E-01
   1316 T=   866. E= -.38862208E+02 F= -.42640898E+02 E0= -.42601853E+02  EK= 0.39195E+01 SP= -.20E+00 SK= 0.55E-01 mag=     -0.042
       N       E                     dE             d eps       ncg     rms          rms(c)
DAV:   1    -0.426287166080E+02    0.10916E-01   -0.20325E-02  3240   0.111E+00    0.673E-02
RMM:   2    -0.426302116100E+02   -0.14950E-02   -0.59723E-03  2032   0.282E-01
   1317 T=   841. E= -.38856451E+02 F= -.42630212E+02 E0= -.42591186E+02  EK= 0.38050E+01 SP= -.93E-01 SK= 0.62E-01 mag=      0.038
       N       E                     dE             d eps       ncg     rms          rms(c)
DAV:   1    -0.426257217154E+02    0.29949E-02   -0.20237E-02  3480   0.113E+00    0.887E-02
RMM:   2    -0.426274832035E+02   -0.17615E-02   -0.62310E-03  2026   0.298E-01
   1318 T=   817. E= -.38849955E+02 F= -.42627483E+02 E0= -.42588507E+02  EK= 0.36976E+01 SP= 0.14E-01 SK= 0.66E-01 mag=      0.095
       N       E                     dE             d eps       ncg     rms          rms(c)
DAV:   1    -0.426341798098E+02   -0.84581E-02   -0.21742E-02  3496   0.110E+00    0.461E-02
RMM:   2    -0.426353050236E+02   -0.11252E-02   -0.58943E-03  2032   0.298E-01
   1319 T=   796. E= -.38845833E+02 F= -.42635305E+02 E0= -.42596295E+02  EK= 0.35995E+01 SP= 0.12E+00 SK= 0.67E-01 mag=      0.097
       N       E                     dE             d eps       ncg     rms          rms(c)
DAV:   1    -0.426483376783E+02   -0.14158E-01   -0.19883E-02  3456   0.105E+00    0.572E-02
RMM:   2    -0.426496587328E+02   -0.13211E-02   -0.72201E-03  2094   0.288E-01
   1320 T=   776. E= -.38840522E+02 F= -.42649659E+02 E0= -.42610562E+02  EK= 0.35123E+01 SP= 0.23E+00 SK= 0.65E-01 mag=      0.033
       N       E                     dE             d eps       ncg     rms          rms(c)
DAV:   1    -0.426676119807E+02   -0.19274E-01   -0.20686E-02  3408   0.104E+00    0.108E-01
RMM:   2    -0.426698677466E+02   -0.22558E-02   -0.70604E-03  2063   0.284E-01    0.901E-02
RMM:   3    -0.426716953372E+02   -0.18276E-02   -0.31930E-03  1839   0.120E-01    0.604E-02
RMM:   4    -0.426727273382E+02   -0.10320E-02   -0.25101E-03  1826   0.878E-02
   1321 T=   760. E= -.38837629E+02 F= -.42672727E+02 E0= -.42633535E+02  EK= 0.34364E+01 SP= 0.34E+00 SK= 0.60E-01 mag=      0.001
       N       E                     dE             d eps       ncg     rms          rms(c)
DAV:   1    -0.426971471840E+02   -0.25452E-01   -0.19934E-02  3296   0.103E+00    0.117E-01
RMM:   2    -0.426993414566E+02   -0.21943E-02   -0.60452E-03  1923   0.247E-01    0.940E-02
RMM:   3    -0.427012322130E+02   -0.18908E-02   -0.28804E-03  1820   0.966E-02    0.669E-02
RMM:   4    -0.427024077786E+02   -0.11756E-02   -0.19806E-03  1817   0.777E-02
   1322 T=   746. E= -.38834274E+02 F= -.42702408E+02 E0= -.42663074E+02  EK= 0.33739E+01 SP= 0.44E+00 SK= 0.54E-01 mag=     -0.002
       N       E                     dE             d eps       ncg     rms          rms(c)
DAV:   1    -0.427381784713E+02   -0.36946E-01   -0.15061E-02  3344   0.997E-01    0.524E-02
RMM:   2    -0.427390613991E+02   -0.88293E-03   -0.45309E-03  2028   0.249E-01
   1323 T=   735. E= -.38828974E+02 F= -.42739061E+02 E0= -.42699568E+02  EK= 0.33274E+01 SP= 0.54E+00 SK= 0.47E-01 mag=      0.006
       N       E                     dE             d eps       ncg     rms          rms(c)
DAV:   1    -0.427813040817E+02   -0.43126E-01   -0.18243E-02  3608   0.985E-01    0.504E-02
RMM:   2    -0.427822850115E+02   -0.98093E-03   -0.50049E-03  2008   0.247E-01
   1324 T=   728. E= -.38826201E+02 F= -.42782285E+02 E0= -.42742598E+02  EK= 0.32926E+01 SP= 0.62E+00 SK= 0.40E-01 mag=      0.014
       N       E                     dE             d eps       ncg     rms          rms(c)
DAV:   1    -0.428303424012E+02   -0.49038E-01   -0.14818E-02  3400   0.103E+00    0.621E-02
RMM:   2    -0.428315403697E+02   -0.11980E-02   -0.46299E-03  2006   0.249E-01
   1325 T=   723. E= -.38823528E+02 F= -.42831540E+02 E0= -.42791621E+02  EK= 0.32717E+01 SP= 0.70E+00 SK= 0.32E-01 mag=      0.023
       N       E                     dE             d eps       ncg     rms          rms(c)
DAV:   1    -0.428855698468E+02   -0.55227E-01   -0.16942E-02  3168   0.103E+00    0.529E-02
RMM:   2    -0.428865342174E+02   -0.96437E-03   -0.48432E-03  2011   0.260E-01
   1326 T=   722. E= -.38819477E+02 F= -.42886534E+02 E0= -.42846341E+02  EK= 0.32660E+01 SP= 0.78E+00 SK= 0.25E-01 mag=      0.030
       N       E                     dE             d eps       ncg     rms          rms(c)
DAV:   1    -0.429447339258E+02   -0.59164E-01   -0.11064E-02  2872   0.991E-01    0.320E-02
RMM:   2    -0.429455896776E+02   -0.85575E-03   -0.46090E-03  1990   0.262E-01
   1327 T=   723. E= -.38815580E+02 F= -.42945590E+02 E0= -.42905080E+02  EK= 0.32721E+01 SP= 0.84E+00 SK= 0.19E-01 mag=      0.029
       N       E                     dE             d eps       ncg     rms          rms(c)
DAV:   1    -0.430061227351E+02   -0.61389E-01   -0.14944E-02  3136   0.104E+00    0.575E-02
RMM:   2    -0.430072340290E+02   -0.11113E-02   -0.48360E-03  2000   0.255E-01
   1328 T=   727. E= -.38810522E+02 F= -.43007234E+02 E0= -.42966361E+02  EK= 0.32895E+01 SP= 0.89E+00 SK= 0.14E-01 mag=      0.010
       N       E                     dE             d eps       ncg     rms          rms(c)
DAV:   1    -0.430708048636E+02   -0.64682E-01   -0.17304E-02  3352   0.107E+00    0.703E-02
RMM:   2    -0.430720340606E+02   -0.12292E-02   -0.50856E-03  2036   0.274E-01
   1329 T=   733. E= -.38805720E+02 F= -.43072034E+02 E0= -.43030772E+02  EK= 0.33169E+01 SP= 0.94E+00 SK= 0.10E-01 mag=     -0.027
       N       E                     dE             d eps       ncg     rms          rms(c)
DAV:   1    -0.431387428200E+02   -0.67938E-01   -0.19179E-02  3536   0.104E+00    0.332E-02
RMM:   2    -0.431397602611E+02   -0.10174E-02   -0.59890E-03  2071   0.280E-01
   1330 T=   741. E= -.38802108E+02 F= -.43139760E+02 E0= -.43098050E+02  EK= 0.33525E+01 SP= 0.98E+00 SK= 0.70E-02 mag=     -0.059
       N       E                     dE             d eps       ncg     rms          rms(c)
DAV:   1    -0.432063603409E+02   -0.67618E-01   -0.17392E-02  3440   0.101E+00    0.528E-02
RMM:   2    -0.432074758968E+02   -0.11156E-02   -0.58669E-03  2043   0.278E-01
   1331 T=   750. E= -.38797911E+02 F= -.43207476E+02 E0= -.43165263E+02  EK= 0.33944E+01 SP= 0.10E+01 SK= 0.48E-02 mag=     -0.055
       N       E                     dE             d eps       ncg     rms          rms(c)
DAV:   1    -0.432729577866E+02   -0.66597E-01   -0.17098E-02  3256   0.106E+00    0.888E-02
RMM:   2    -0.432745979293E+02   -0.16401E-02   -0.61865E-03  2042   0.279E-01
   1332 T=   761. E= -.38792030E+02 F= -.43274598E+02 E0= -.43231863E+02  EK= 0.34423E+01 SP= 0.10E+01 SK= 0.34E-02 mag=     -0.006
       N       E                     dE             d eps       ncg     rms          rms(c)
DAV:   1    -0.433416190570E+02   -0.68661E-01   -0.16925E-02  3480   0.105E+00    0.736E-02
RMM:   2    -0.433430562960E+02   -0.14372E-02   -0.58632E-03  2040   0.288E-01
   1333 T=   772. E= -.38787590E+02 F= -.43343056E+02 E0= -.43299763E+02  EK= 0.34938E+01 SP= 0.11E+01 SK= 0.24E-02 mag=      0.060
       N       E                     dE             d eps       ncg     rms          rms(c)
DAV:   1    -0.434096886193E+02   -0.68070E-01   -0.15887E-02  3256   0.105E+00    0.305E-02
RMM:   2    -0.434107567882E+02   -0.10682E-02   -0.60554E-03  2027   0.281E-01
   1334 T=   784. E= -.38784106E+02 F= -.43410757E+02 E0= -.43366819E+02  EK= 0.35463E+01 SP= 0.11E+01 SK= 0.19E-02 mag=      0.102
       N       E                     dE             d eps       ncg     rms          rms(c)
DAV:   1    -0.434719003196E+02   -0.62212E-01   -0.19946E-02  3520   0.107E+00    0.920E-02
RMM:   2    -0.434737221102E+02   -0.18218E-02   -0.69575E-03  2015   0.279E-01    0.747E-02
RMM:   3    -0.434747900527E+02   -0.10679E-02   -0.24046E-03  1879   0.112E-01
   1335 T=   795. E= -.38780007E+02 F= -.43474790E+02 E0= -.43430175E+02  EK= 0.35973E+01 SP= 0.11E+01 SK= 0.16E-02 mag=      0.020
       N       E                     dE             d eps       ncg     rms          rms(c)
DAV:   1    -0.435360187374E+02   -0.62297E-01   -0.24412E-02  3304   0.106E+00    0.673E-02
RMM:   2    -0.435375542556E+02   -0.15355E-02   -0.55617E-03  1981   0.282E-01
   1336 T=   807. E= -.38773580E+02 F= -.43537554E+02 E0= -.43492278E+02  EK= 0.36496E+01 SP= 0.11E+01 SK= 0.17E-02 mag=     -0.130
       N       E                     dE             d eps       ncg     rms          rms(c)
DAV:   1    -0.435939281881E+02   -0.57909E-01   -0.43173E-02  3880   0.115E+00    0.975E-02
RMM:   2    -0.435955641888E+02   -0.16360E-02   -0.60924E-03  2030   0.259E-01
   1337 T=   817. E= -.38766518E+02 F= -.43595564E+02 E0= -.43549680E+02  EK= 0.36969E+01 SP= 0.11E+01 SK= 0.19E-02 mag=     -0.207
       N       E                     dE             d eps       ncg     rms          rms(c)
DAV:   1    -0.436511812725E+02   -0.57253E-01   -0.17136E-02  3176   0.104E+00    0.941E-02
RMM:   2    -0.436525757390E+02   -0.13945E-02   -0.57888E-03  2035   0.291E-01
   1338 T=   826. E= -.38763709E+02 F= -.43652576E+02 E0= -.43605875E+02  EK= 0.37366E+01 SP= 0.11E+01 SK= 0.25E-02 mag=     -0.152
       N       E                     dE             d eps       ncg     rms          rms(c)
DAV:   1    -0.437052406956E+02   -0.54059E-01   -0.30913E-02  3728   0.119E+00    0.446E-02
RMM:   2    -0.437066046286E+02   -0.13639E-02   -0.63498E-03  2011   0.283E-01
   1339 T=   834. E= -.38760097E+02 F= -.43706605E+02 E0= -.43659099E+02  EK= 0.37710E+01 SP= 0.12E+01 SK= 0.33E-02 mag=      0.020
       N       E                     dE             d eps       ncg     rms          rms(c)
DAV:   1    -0.437539738798E+02   -0.48733E-01   -0.13459E-02  3040   0.105E+00    0.658E-02
RMM:   2    -0.437554755325E+02   -0.15017E-02   -0.71972E-03  2061   0.306E-01
   1340 T=   840. E= -.38754352E+02 F= -.43755476E+02 E0= -.43707379E+02  EK= 0.37983E+01 SP= 0.12E+01 SK= 0.45E-02 mag=      0.230
       N       E                     dE             d eps       ncg     rms          rms(c)
DAV:   1    -0.437977170000E+02   -0.43743E-01   -0.21867E-02  3688   0.113E+00    0.112E-01
RMM:   2    -0.437999383500E+02   -0.22213E-02   -0.68795E-03  2048   0.290E-01    0.927E-02
RMM:   3    -0.438015602066E+02   -0.16219E-02   -0.28378E-03  1859   0.122E-01
   1341 T=   844. E= -.38748876E+02 F= -.43801560E+02 E0= -.43752831E+02  EK= 0.38177E+01 SP= 0.12E+01 SK= 0.61E-02 mag=      0.139
       N       E                     dE             d eps       ncg     rms          rms(c)
DAV:   1    -0.438434281297E+02   -0.43490E-01   -0.29386E-02  3312   0.108E+00    0.105E-01
RMM:   2    -0.438451413243E+02   -0.17132E-02   -0.51119E-03  1879   0.274E-01
   1342 T=   847. E= -.38742522E+02 F= -.43845141E+02 E0= -.43795644E+02  EK= 0.38302E+01 SP= 0.13E+01 SK= 0.81E-02 mag=     -0.188
       N       E                     dE             d eps       ncg     rms          rms(c)
DAV:   1    -0.438763018028E+02   -0.32874E-01   -0.41468E-02  3992   0.117E+00    0.168E-01
RMM:   2    -0.438800598119E+02   -0.37580E-02   -0.77014E-03  1996   0.255E-01    0.139E-01
RMM:   3    -0.438841347644E+02   -0.40750E-02   -0.43198E-03  1829   0.120E-01    0.971E-02
RMM:   4    -0.438864558466E+02   -0.23211E-02   -0.41722E-03  1833   0.109E-01    0.280E-02
RMM:   5    -0.438866129087E+02   -0.15706E-03   -0.58038E-04  1599   0.554E-02
   1343 T=   847. E= -.38738349E+02 F= -.43886613E+02 E0= -.43836401E+02  EK= 0.38328E+01 SP= 0.13E+01 SK= 0.11E-01 mag=     -0.071
       N       E                     dE             d eps       ncg     rms          rms(c)
DAV:   1    -0.439144413698E+02   -0.27986E-01   -0.25455E-02  3304   0.103E+00    0.177E-01
RMM:   2    -0.439183095940E+02   -0.38682E-02   -0.86403E-03  1844   0.256E-01    0.140E-01
RMM:   3    -0.439214107483E+02   -0.31012E-02   -0.31643E-03  1824   0.109E-01    0.103E-01
RMM:   4    -0.439239576641E+02   -0.25469E-02   -0.41776E-03  1848   0.986E-02    0.463E-02
RMM:   5    -0.439243294350E+02   -0.37177E-03   -0.57126E-04  1619   0.569E-02
   1344 T=   845. E= -.38737166E+02 F= -.43924329E+02 E0= -.43873568E+02  EK= 0.38231E+01 SP= 0.14E+01 SK= 0.13E-01 mag=      0.060
       N       E                     dE             d eps       ncg     rms          rms(c)
DAV:   1    -0.439581989716E+02   -0.34241E-01   -0.19580E-02  3472   0.107E+00    0.736E-02
RMM:   2    -0.439595769262E+02   -0.13780E-02   -0.57421E-03  2003   0.261E-01
   1345 T=   842. E= -.38732043E+02 F= -.43959577E+02 E0= -.43908563E+02  EK= 0.38097E+01 SP= 0.14E+01 SK= 0.16E-01 mag=      0.159
       N       E                     dE             d eps       ncg     rms          rms(c)
DAV:   1    -0.439906045667E+02   -0.32406E-01   -0.23249E-02  3864   0.113E+00    0.881E-02
RMM:   2    -0.439927550981E+02   -0.21505E-02   -0.72225E-03  1992   0.262E-01    0.700E-02
RMM:   3    -0.439938146174E+02   -0.10595E-02   -0.26593E-03  1855   0.108E-01
   1346 T=   837. E= -.38728732E+02 F= -.43993815E+02 E0= -.43942420E+02  EK= 0.37889E+01 SP= 0.15E+01 SK= 0.19E-01 mag=      0.115
       N       E                     dE             d eps       ncg     rms          rms(c)
DAV:   1    -0.440239658299E+02   -0.31211E-01   -0.41584E-02  3296   0.107E+00    0.908E-02
RMM:   2    -0.440262270462E+02   -0.22612E-02   -0.50020E-03  1908   0.250E-01    0.583E-02
RMM:   3    -0.440268555167E+02   -0.62847E-03   -0.17440E-03  1814   0.959E-02
   1347 T=   832. E= -.38726425E+02 F= -.44026856E+02 E0= -.43975100E+02  EK= 0.37618E+01 SP= 0.15E+01 SK= 0.21E-01 mag=     -0.067
       N       E                     dE             d eps       ncg     rms          rms(c)
DAV:   1    -0.440560428390E+02   -0.29816E-01   -0.59350E-02  3560   0.109E+00    0.816E-02
RMM:   2    -0.440573561142E+02   -0.13133E-02   -0.55358E-03  2011   0.266E-01
   1348 T=   825. E= -.38719260E+02 F= -.44057356E+02 E0= -.44005730E+02  EK= 0.37339E+01 SP= 0.16E+01 SK= 0.23E-01 mag=     -0.288
       N       E                     dE             d eps       ncg     rms          rms(c)
DAV:   1    -0.440853743763E+02   -0.29332E-01   -0.34813E-02  3472   0.107E+00    0.985E-02
RMM:   2    -0.440871216996E+02   -0.17473E-02   -0.63404E-03  2016   0.274E-01
   1349 T=   818. E= -.38713558E+02 F= -.44087122E+02 E0= -.44035723E+02  EK= 0.37014E+01 SP= 0.16E+01 SK= 0.25E-01 mag=     -0.380
       N       E                     dE             d eps       ncg     rms          rms(c)
DAV:   1    -0.441175700175E+02   -0.32196E-01   -0.16754E-02  3360   0.106E+00    0.680E-02
RMM:   2    -0.441188882119E+02   -0.13182E-02   -0.60429E-03  2009   0.288E-01
   1350 T=   811. E= -.38709100E+02 F= -.44118888E+02 E0= -.44067133E+02  EK= 0.36682E+01 SP= 0.17E+01 SK= 0.27E-01 mag=     -0.256
       N       E                     dE             d eps       ncg     rms          rms(c)
DAV:   1    -0.441486788333E+02   -0.31109E-01   -0.21187E-02  3648   0.115E+00    0.465E-02
RMM:   2    -0.441497527657E+02   -0.10739E-02   -0.60747E-03  2014   0.273E-01
   1351 T=   804. E= -.38702352E+02 F= -.44149753E+02 E0= -.44097837E+02  EK= 0.36358E+01 SP= 0.18E+01 SK= 0.27E-01 mag=      0.059
       N       E                     dE             d eps       ncg     rms          rms(c)
DAV:   1    -0.441753944565E+02   -0.26716E-01   -0.12665E-02  3072   0.102E+00    0.101E-01
RMM:   2    -0.441772448024E+02   -0.18503E-02   -0.71857E-03  2019   0.305E-01    0.838E-02
RMM:   3    -0.441782489891E+02   -0.10042E-02   -0.25173E-03  1909   0.117E-01
   1352 T=   796. E= -.38695478E+02 F= -.44178249E+02 E0= -.44127050E+02  EK= 0.36013E+01 SP= 0.19E+01 SK= 0.27E-01 mag=      0.175
       N       E                     dE             d eps       ncg     rms          rms(c)
DAV:   1    -0.442065058159E+02   -0.29261E-01   -0.30570E-02  3328   0.105E+00    0.693E-02
RMM:   2    -0.442082118033E+02   -0.17060E-02   -0.60621E-03  1909   0.277E-01
   1353 T=   789. E= -.38688727E+02 F= -.44208212E+02 E0= -.44156838E+02  EK= 0.35693E+01 SP= 0.19E+01 SK= 0.26E-01 mag=      0.079
       N       E                     dE             d eps       ncg     rms          rms(c)
DAV:   1    -0.442336890084E+02   -0.27183E-01   -0.47579E-02  3552   0.110E+00    0.977E-02
RMM:   2    -0.442352880118E+02   -0.15990E-02   -0.63354E-03  2006   0.266E-01
   1354 T=   782. E= -.38680883E+02 F= -.44235288E+02 E0= -.44184240E+02  EK= 0.35374E+01 SP= 0.20E+01 SK= 0.25E-01 mag=     -0.151
       N       E                     dE             d eps       ncg     rms          rms(c)
DAV:   1    -0.442604618298E+02   -0.26773E-01   -0.18182E-02  3312   0.101E+00    0.112E-01
RMM:   2    -0.442622478453E+02   -0.17860E-02   -0.64519E-03  2042   0.294E-01
   1355 T=   775. E= -.38674200E+02 F= -.44262248E+02 E0= -.44212051E+02  EK= 0.35067E+01 SP= 0.21E+01 SK= 0.23E-01 mag=     -0.369
       N       E                     dE             d eps       ncg     rms          rms(c)
DAV:   1    -0.442879354255E+02   -0.27474E-01   -0.29264E-02  3744   0.116E+00    0.844E-02
RMM:   2    -0.442899287357E+02   -0.19933E-02   -0.83427E-03  2060   0.299E-01    0.704E-02
RMM:   3    -0.442907570999E+02   -0.82836E-03   -0.23708E-03  1963   0.118E-01
   1356 T=   769. E= -.38669788E+02 F= -.44290757E+02 E0= -.44240814E+02  EK= 0.34784E+01 SP= 0.21E+01 SK= 0.21E-01 mag=     -0.246
       N       E                     dE             d eps       ncg     rms          rms(c)
DAV:   1    -0.443136862113E+02   -0.23757E-01   -0.23711E-02  3328   0.104E+00    0.115E-01
RMM:   2    -0.443155978999E+02   -0.19117E-02   -0.47683E-03  1853   0.248E-01    0.864E-02
RMM:   3    -0.443162470605E+02   -0.64916E-03   -0.12291E-03  1648   0.906E-02
   1357 T=   763. E= -.38665063E+02 F= -.44316247E+02 E0= -.44266226E+02  EK= 0.34513E+01 SP= 0.22E+01 SK= 0.19E-01 mag=      0.117
       N       E                     dE             d eps       ncg     rms          rms(c)
DAV:   1    -0.443359940165E+02   -0.20396E-01   -0.51443E-02  3416   0.115E+00    0.126E-01
RMM:   2    -0.443381822604E+02   -0.21882E-02   -0.65539E-03  2006   0.288E-01    0.972E-02
RMM:   3    -0.443394610502E+02   -0.12788E-02   -0.18837E-03  1934   0.116E-01
   1358 T=   758. E= -.38658923E+02 F= -.44339461E+02 E0= -.44290281E+02  EK= 0.34277E+01 SP= 0.22E+01 SK= 0.16E-01 mag=      0.251
       N       E                     dE             d eps       ncg     rms          rms(c)
DAV:   1    -0.443607117354E+02   -0.22529E-01   -0.39814E-02  3224   0.106E+00    0.843E-02
RMM:   2    -0.443621494598E+02   -0.14377E-02   -0.64986E-03  2021   0.277E-01
   1359 T=   753. E= -.38653113E+02 F= -.44362149E+02 E0= -.44312775E+02  EK= 0.34081E+01 SP= 0.23E+01 SK= 0.13E-01 mag=      0.127
       N       E                     dE             d eps       ncg     rms          rms(c)
DAV:   1    -0.443773095829E+02   -0.16598E-01   -0.41511E-02  3464   0.109E+00    0.114E-01
RMM:   2    -0.443792783954E+02   -0.19688E-02   -0.75771E-03  2002   0.289E-01    0.916E-02
RMM:   3    -0.443808076641E+02   -0.15293E-02   -0.27274E-03  1938   0.122E-01
   1360 T=   749. E= -.38646751E+02 F= -.44380808E+02 E0= -.44331773E+02  EK= 0.33901E+01 SP= 0.23E+01 SK= 0.10E-01 mag=     -0.060
       N       E                     dE             d eps       ncg     rms          rms(c)
DAV:   1    -0.443964310495E+02   -0.17153E-01   -0.27381E-02  3152   0.106E+00    0.103E-01
RMM:   2    -0.443979510563E+02   -0.15200E-02   -0.58564E-03  1930   0.271E-01
   1361 T=   746. E= -.38641006E+02 F= -.44397951E+02 E0= -.44349346E+02  EK= 0.33755E+01 SP= 0.24E+01 SK= 0.77E-02 mag=     -0.246
       N       E                     dE             d eps       ncg     rms          rms(c)
DAV:   1    -0.444062074913E+02   -0.97764E-02   -0.42635E-02  3560   0.108E+00    0.144E-01
RMM:   2    -0.444087838968E+02   -0.25764E-02   -0.68801E-03  2005   0.267E-01    0.114E-01
RMM:   3    -0.444115691694E+02   -0.27853E-02   -0.33800E-03  1874   0.120E-01    0.818E-02
RMM:   4    -0.444131958086E+02   -0.16266E-02   -0.23423E-03  1824   0.905E-02
   1362 T=   743. E= -.38636726E+02 F= -.44413196E+02 E0= -.44364653E+02  EK= 0.33633E+01 SP= 0.24E+01 SK= 0.54E-02 mag=     -0.071
       N       E                     dE             d eps       ncg     rms          rms(c)
DAV:   1    -0.444176841961E+02   -0.61150E-02   -0.17996E-02  3120   0.984E-01    0.153E-01
RMM:   2    -0.444205274267E+02   -0.28432E-02   -0.83729E-03  1884   0.260E-01    0.113E-01
RMM:   3    -0.444230042546E+02   -0.24768E-02   -0.51323E-03  1824   0.126E-01    0.785E-02
RMM:   4    -0.444240095592E+02   -0.10053E-02   -0.15434E-03  1814   0.817E-02
   1363 T=   741. E= -.38634204E+02 F= -.44424010E+02 E0= -.44375814E+02  EK= 0.33508E+01 SP= 0.24E+01 SK= 0.33E-02 mag=      0.178
       N       E                     dE             d eps       ncg     rms          rms(c)
DAV:   1    -0.444287501459E+02   -0.57459E-02   -0.17794E-02  3456   0.107E+00    0.136E-01
RMM:   2    -0.444305973630E+02   -0.18472E-02   -0.56719E-03  1907   0.246E-01    0.950E-02
RMM:   3    -0.444318074492E+02   -0.12101E-02   -0.22926E-03  1824   0.118E-01
   1364 T=   739. E= -.38630192E+02 F= -.44431807E+02 E0= -.44383817E+02  EK= 0.33431E+01 SP= 0.25E+01 SK= 0.18E-02 mag=      0.176
       N       E                     dE             d eps       ncg     rms          rms(c)
DAV:   1    -0.444364412073E+02   -0.58438E-02   -0.15003E-02  3280   0.983E-01    0.863E-02
RMM:   2    -0.444374159606E+02   -0.97475E-03   -0.44761E-03  1956   0.261E-01
   1365 T=   738. E= -.38625034E+02 F= -.44437416E+02 E0= -.44389482E+02  EK= 0.33406E+01 SP= 0.25E+01 SK= 0.66E-03 mag=     -0.039
       N       E                     dE             d eps       ncg     rms          rms(c)
DAV:   1    -0.444364748370E+02   -0.33630E-04   -0.19493E-02  3696   0.106E+00    0.103E-01
RMM:   2    -0.444378876254E+02   -0.14128E-02   -0.54225E-03  2003   0.242E-01
   1366 T=   738. E= -.38619106E+02 F= -.44437888E+02 E0= -.44390390E+02  EK= 0.33401E+01 SP= 0.25E+01 SK= 0.90E-04 mag=     -0.312
       N       E                     dE             d eps       ncg     rms          rms(c)
DAV:   1    -0.444336173480E+02    0.28575E-02   -0.11681E-02  2984   0.102E+00    0.133E-01
RMM:   2    -0.444356226077E+02   -0.20053E-02   -0.59916E-03  2030   0.280E-01    0.105E-01
RMM:   3    -0.444375976797E+02   -0.19751E-02   -0.29363E-03  1834   0.120E-01    0.738E-02
RMM:   4    -0.444389549182E+02   -0.13572E-02   -0.19242E-03  1822   0.904E-02
   1367 T=   739. E= -.38618325E+02 F= -.44438955E+02 E0= -.44391336E+02  EK= 0.33414E+01 SP= 0.25E+01 SK= 0.46E-04 mag=     -0.115
       N       E                     dE             d eps       ncg     rms          rms(c)
DAV:   1    -0.444303666384E+02    0.72310E-02   -0.22177E-02  3488   0.107E+00    0.141E-01
RMM:   2    -0.444322422273E+02   -0.18756E-02   -0.44631E-03  1957   0.233E-01    0.110E-01
RMM:   3    -0.444339326629E+02   -0.16904E-02   -0.20372E-03  1816   0.909E-02
   1368 T=   740. E= -.38612866E+02 F= -.44433933E+02 E0= -.44386563E+02  EK= 0.33477E+01 SP= 0.25E+01 SK= 0.52E-03 mag=      0.176
       N       E                     dE             d eps       ncg     rms          rms(c)
DAV:   1    -0.444253960913E+02    0.68461E-02   -0.29663E-02  3392   0.104E+00    0.140E-01
RMM:   2    -0.444268544556E+02   -0.14584E-02   -0.52692E-03  1983   0.271E-01
   1369 T=   742. E= -.38607346E+02 F= -.44426854E+02 E0= -.44379836E+02  EK= 0.33581E+01 SP= 0.25E+01 SK= 0.15E-02 mag=      0.362
       N       E                     dE             d eps       ncg     rms          rms(c)
DAV:   1    -0.444177300354E+02    0.76661E-02   -0.26689E-02  3768   0.109E+00    0.977E-02
RMM:   2    -0.444188972313E+02   -0.11672E-02   -0.52045E-03  2033   0.251E-01
   1370 T=   745. E= -.38606410E+02 F= -.44418897E+02 E0= -.44371537E+02  EK= 0.33692E+01 SP= 0.24E+01 SK= 0.28E-02 mag=      0.339
       N       E                     dE             d eps       ncg     rms          rms(c)
DAV:   1    -0.444067285176E+02    0.11002E-01   -0.21390E-02  3568   0.103E+00    0.970E-02
RMM:   2    -0.444076724339E+02   -0.94392E-03   -0.64917E-03  2070   0.286E-01
   1371 T=   748. E= -.38604666E+02 F= -.44407672E+02 E0= -.44359926E+02  EK= 0.33836E+01 SP= 0.24E+01 SK= 0.45E-02 mag=      0.080
       N       E                     dE             d eps       ncg     rms          rms(c)
DAV:   1    -0.443894925962E+02    0.17236E-01   -0.23765E-02  2960   0.110E+00    0.106E-01
RMM:   2    -0.443915254811E+02   -0.20329E-02   -0.67893E-03  2019   0.276E-01    0.895E-02
RMM:   3    -0.443927540068E+02   -0.12285E-02   -0.24009E-03  1925   0.110E-01
   1372 T=   752. E= -.38599593E+02 F= -.44392754E+02 E0= -.44345085E+02  EK= 0.34032E+01 SP= 0.24E+01 SK= 0.65E-02 mag=     -0.080
       N       E                     dE             d eps       ncg     rms          rms(c)
DAV:   1    -0.443767958715E+02    0.14730E-01   -0.35628E-02  3248   0.106E+00    0.102E-01
RMM:   2    -0.443783709826E+02   -0.15751E-02   -0.57434E-03  1960   0.296E-01
   1373 T=   758. E= -.38594898E+02 F= -.44378371E+02 E0= -.44330337E+02  EK= 0.34282E+01 SP= 0.23E+01 SK= 0.86E-02 mag=     -0.108
       N       E                     dE             d eps       ncg     rms          rms(c)
DAV:   1    -0.443561762906E+02    0.20620E-01   -0.53256E-02  3808   0.111E+00    0.139E-01
RMM:   2    -0.443584022649E+02   -0.22260E-02   -0.71820E-03  2047   0.271E-01    0.108E-01
RMM:   3    -0.443609474507E+02   -0.25452E-02   -0.28791E-03  1926   0.118E-01    0.752E-02
RMM:   4    -0.443623514217E+02   -0.14040E-02   -0.17514E-03  1824   0.847E-02
   1374 T=   764. E= -.38591161E+02 F= -.44362351E+02 E0= -.44314043E+02  EK= 0.34554E+01 SP= 0.23E+01 SK= 0.11E-01 mag=     -0.020
       N       E                     dE             d eps       ncg     rms          rms(c)
DAV:   1    -0.443396581416E+02    0.21289E-01   -0.25478E-02  3440   0.104E+00    0.137E-01
RMM:   2    -0.443416159033E+02   -0.19578E-02   -0.65821E-03  1907   0.262E-01    0.103E-01
RMM:   3    -0.443432575945E+02   -0.16417E-02   -0.29854E-03  1824   0.114E-01
   1375 T=   770. E= -.38588813E+02 F= -.44343258E+02 E0= -.44294759E+02  EK= 0.34823E+01 SP= 0.23E+01 SK= 0.12E-01 mag=      0.090
       N       E                     dE             d eps       ncg     rms          rms(c)
DAV:   1    -0.443216020883E+02    0.20014E-01   -0.30513E-02  3640   0.112E+00    0.143E-01
RMM:   2    -0.443232288864E+02   -0.16268E-02   -0.55689E-03  1938   0.271E-01
   1376 T=   777. E= -.38584191E+02 F= -.44323229E+02 E0= -.44274525E+02  EK= 0.35142E+01 SP= 0.22E+01 SK= 0.14E-01 mag=      0.149
       N       E                     dE             d eps       ncg     rms          rms(c)
DAV:   1    -0.443035738682E+02    0.18028E-01   -0.28423E-02  3888   0.113E+00    0.976E-02
RMM:   2    -0.443048928631E+02   -0.13190E-02   -0.51118E-03  2012   0.256E-01
   1377 T=   784. E= -.38582991E+02 F= -.44304893E+02 E0= -.44255716E+02  EK= 0.35473E+01 SP= 0.22E+01 SK= 0.15E-01 mag=      0.123
       N       E                     dE             d eps       ncg     rms          rms(c)
DAV:   1    -0.442849042642E+02    0.18670E-01   -0.23431E-02  3592   0.105E+00    0.808E-02
RMM:   2    -0.442858210885E+02   -0.91682E-03   -0.57865E-03  2017   0.282E-01
   1378 T=   792. E= -.38581380E+02 F= -.44285821E+02 E0= -.44236140E+02  EK= 0.35823E+01 SP= 0.21E+01 SK= 0.16E-01 mag=      0.010
       N       E                     dE             d eps       ncg     rms          rms(c)
DAV:   1    -0.442616374000E+02    0.23267E-01   -0.29465E-02  3016   0.117E+00    0.102E-01
RMM:   2    -0.442636527534E+02   -0.20154E-02   -0.78630E-03  2030   0.284E-01    0.846E-02
RMM:   3    -0.442648939938E+02   -0.12412E-02   -0.30287E-03  1908   0.116E-01
   1379 T=   800. E= -.38576967E+02 F= -.44264894E+02 E0= -.44214873E+02  EK= 0.36197E+01 SP= 0.21E+01 SK= 0.16E-01 mag=     -0.076
       N       E                     dE             d eps       ncg     rms          rms(c)
DAV:   1    -0.442451910561E+02    0.18462E-01   -0.23505E-02  3496   0.115E+00    0.989E-02
RMM:   2    -0.442460759288E+02   -0.88487E-03   -0.40762E-03  1941   0.288E-01
   1380 T=   809. E= -.38571580E+02 F= -.44246076E+02 E0= -.44195564E+02  EK= 0.36607E+01 SP= 0.20E+01 SK= 0.16E-01 mag=     -0.106
       N       E                     dE             d eps       ncg     rms          rms(c)
DAV:   1    -0.442251229786E+02    0.20068E-01   -0.40097E-02  4016   0.120E+00    0.786E-02
RMM:   2    -0.442262261488E+02   -0.11032E-02   -0.53731E-03  2030   0.237E-01
   1381 T=   818. E= -.38565439E+02 F= -.44226226E+02 E0= -.44175170E+02  EK= 0.37011E+01 SP= 0.19E+01 SK= 0.15E-01 mag=     -0.062
       N       E                     dE             d eps       ncg     rms          rms(c)
DAV:   1    -0.442045656912E+02    0.20557E-01   -0.20836E-02  2776   0.105E+00    0.101E-01
RMM:   2    -0.442062262008E+02   -0.16605E-02   -0.65444E-03  2061   0.290E-01
   1382 T=   826. E= -.38562226E+02 F= -.44206226E+02 E0= -.44154646E+02  EK= 0.37368E+01 SP= 0.19E+01 SK= 0.14E-01 mag=      0.044
       N       E                     dE             d eps       ncg     rms          rms(c)
DAV:   1    -0.441880590372E+02    0.16507E-01   -0.36809E-02  3992   0.130E+00    0.822E-02
RMM:   2    -0.441893418866E+02   -0.12828E-02   -0.65047E-03  2020   0.305E-01
   1383 T=   834. E= -.38560111E+02 F= -.44189342E+02 E0= -.44137326E+02  EK= 0.37721E+01 SP= 0.18E+01 SK= 0.12E-01 mag=      0.167
       N       E                     dE             d eps       ncg     rms          rms(c)
DAV:   1    -0.441706078608E+02    0.17451E-01   -0.30228E-02  3640   0.110E+00    0.763E-02
RMM:   2    -0.441721656898E+02   -0.15578E-02   -0.75277E-03  2031   0.323E-01
   1384 T=   841. E= -.38555993E+02 F= -.44172166E+02 E0= -.44119750E+02  EK= 0.38056E+01 SP= 0.18E+01 SK= 0.10E-01 mag=      0.235
       N       E                     dE             d eps       ncg     rms          rms(c)
DAV:   1    -0.441533065530E+02    0.17301E-01   -0.33215E-02  3656   0.121E+00    0.110E-01
RMM:   2    -0.441552549006E+02   -0.19483E-02   -0.74388E-03  2038   0.301E-01    0.864E-02
RMM:   3    -0.441563318554E+02   -0.10770E-02   -0.21926E-03  1909   0.115E-01
   1385 T=   848. E= -.38552492E+02 F= -.44156332E+02 E0= -.44103195E+02  EK= 0.38353E+01 SP= 0.18E+01 SK= 0.78E-02 mag=      0.100
       N       E                     dE             d eps       ncg     rms          rms(c)
DAV:   1    -0.441404301867E+02    0.14825E-01   -0.35791E-02  3600   0.117E+00    0.889E-02
RMM:   2    -0.441420267473E+02   -0.15966E-02   -0.53844E-03  1904   0.292E-01
   1386 T=   854. E= -.38547712E+02 F= -.44142027E+02 E0= -.44088325E+02  EK= 0.38625E+01 SP= 0.17E+01 SK= 0.56E-02 mag=     -0.187
       N       E                     dE             d eps       ncg     rms          rms(c)
DAV:   1    -0.441202795783E+02    0.20151E-01   -0.53202E-02  4008   0.123E+00    0.158E-01
RMM:   2    -0.441234597651E+02   -0.31802E-02   -0.75067E-03  2033   0.260E-01    0.129E-01
RMM:   3    -0.441270327394E+02   -0.35730E-02   -0.37421E-03  1824   0.119E-01    0.916E-02
RMM:   4    -0.441292299767E+02   -0.21972E-02   -0.34071E-03  1825   0.994E-02    0.314E-02
RMM:   5    -0.441294197668E+02   -0.18979E-03   -0.58758E-04  1571   0.523E-02
   1387 T=   858. E= -.38544370E+02 F= -.44129420E+02 E0= -.44075024E+02  EK= 0.38838E+01 SP= 0.17E+01 SK= 0.36E-02 mag=     -0.093
       N       E                     dE             d eps       ncg     rms          rms(c)
DAV:   1    -0.441085129525E+02    0.20717E-01   -0.35627E-02  3368   0.112E+00    0.166E-01
RMM:   2    -0.441117199010E+02   -0.32069E-02   -0.86641E-03  1892   0.282E-01    0.133E-01
RMM:   3    -0.441145045486E+02   -0.27846E-02   -0.30361E-03  1829   0.111E-01    0.993E-02
RMM:   4    -0.441169813904E+02   -0.24768E-02   -0.34261E-03  1840   0.945E-02    0.459E-02
RMM:   5    -0.441172735653E+02   -0.29217E-03   -0.46072E-04  1579   0.522E-02
   1388 T=   861. E= -.38543417E+02 F= -.44117274E+02 E0= -.44062324E+02  EK= 0.38962E+01 SP= 0.17E+01 SK= 0.19E-02 mag=      0.073
       N       E                     dE             d eps       ncg     rms          rms(c)
DAV:   1    -0.441050293485E+02    0.11952E-01   -0.30784E-02  3728   0.115E+00    0.701E-02
RMM:   2    -0.441061277936E+02   -0.10984E-02   -0.48910E-03  2011   0.257E-01
   1389 T=   863. E= -.38539893E+02 F= -.44106128E+02 E0= -.44050895E+02  EK= 0.39050E+01 SP= 0.17E+01 SK= 0.76E-03 mag=      0.245
       N       E                     dE             d eps       ncg     rms          rms(c)
DAV:   1    -0.440930963434E+02    0.11933E-01   -0.31854E-02  3768   0.117E+00    0.878E-02
RMM:   2    -0.440950045818E+02   -0.19082E-02   -0.66999E-03  2039   0.267E-01    0.713E-02
RMM:   3    -0.440959151109E+02   -0.91053E-03   -0.21455E-03  1876   0.109E-01
   1390 T=   863. E= -.38537432E+02 F= -.44095915E+02 E0= -.44040281E+02  EK= 0.39060E+01 SP= 0.17E+01 SK= 0.12E-03 mag=      0.205
       N       E                     dE             d eps       ncg     rms          rms(c)
DAV:   1    -0.440866086497E+02    0.83959E-02   -0.35454E-02  3560   0.117E+00    0.724E-02
RMM:   2    -0.440878517555E+02   -0.12431E-02   -0.40336E-03  2004   0.257E-01
   1391 T=   863. E= -.38534470E+02 F= -.44087852E+02 E0= -.44031383E+02  EK= 0.39021E+01 SP= 0.17E+01 SK= 0.33E-04 mag=     -0.045
       N       E                     dE             d eps       ncg     rms          rms(c)
DAV:   1    -0.440774398462E+02    0.91688E-02   -0.50064E-02  3960   0.122E+00    0.833E-02
RMM:   2    -0.440788873462E+02   -0.14475E-02   -0.57190E-03  2035   0.251E-01
   1392 T=   860. E= -.38529016E+02 F= -.44078887E+02 E0= -.44022705E+02  EK= 0.38922E+01 SP= 0.17E+01 SK= 0.48E-03 mag=     -0.384
       N       E                     dE             d eps       ncg     rms          rms(c)
DAV:   1    -0.440687352337E+02    0.87046E-02   -0.24487E-02  3384   0.108E+00    0.114E-01
RMM:   2    -0.440707192197E+02   -0.19840E-02   -0.63290E-03  2047   0.300E-01    0.922E-02
RMM:   3    -0.440721434926E+02   -0.14243E-02   -0.23284E-03  1932   0.127E-01
   1393 T=   856. E= -.38527298E+02 F= -.44072143E+02 E0= -.44015992E+02  EK= 0.38736E+01 SP= 0.17E+01 SK= 0.14E-02 mag=     -0.315
       N       E                     dE             d eps       ncg     rms          rms(c)
DAV:   1    -0.440654464221E+02    0.52728E-02   -0.42633E-02  3824   0.120E+00    0.958E-02
RMM:   2    -0.440668121270E+02   -0.13657E-02   -0.54135E-03  1928   0.268E-01
   1394 T=   851. E= -.38523707E+02 F= -.44066812E+02 E0= -.44009237E+02  EK= 0.38517E+01 SP= 0.17E+01 SK= 0.27E-02 mag=      0.119
       N       E                     dE             d eps       ncg     rms          rms(c)
DAV:   1    -0.440524777882E+02    0.12969E-01   -0.46061E-02  3896   0.120E+00    0.155E-01
RMM:   2    -0.440556900064E+02   -0.32122E-02   -0.75995E-03  2002   0.259E-01    0.128E-01
RMM:   3    -0.440595919803E+02   -0.39020E-02   -0.47927E-03  1824   0.132E-01    0.840E-02
RMM:   4    -0.440612394698E+02   -0.16475E-02   -0.23751E-03  1824   0.964E-02
   1395 T=   845. E= -.38520764E+02 F= -.44061239E+02 E0= -.44003733E+02  EK= 0.38230E+01 SP= 0.17E+01 SK= 0.41E-02 mag=      0.190
       N       E                     dE             d eps       ncg     rms          rms(c)
DAV:   1    -0.440481942726E+02    0.11398E-01   -0.30830E-02  3416   0.110E+00    0.160E-01
RMM:   2    -0.440515198701E+02   -0.33256E-02   -0.88443E-03  1904   0.276E-01    0.121E-01
RMM:   3    -0.440545114399E+02   -0.29916E-02   -0.52325E-03  1824   0.125E-01    0.769E-02
RMM:   4    -0.440556391128E+02   -0.11277E-02   -0.17985E-03  1824   0.864E-02
   1396 T=   837. E= -.38519009E+02 F= -.44055639E+02 E0= -.43997465E+02  EK= 0.37879E+01 SP= 0.17E+01 SK= 0.56E-02 mag=     -0.017
       N       E                     dE             d eps       ncg     rms          rms(c)
DAV:   1    -0.440466455558E+02    0.78659E-02   -0.40553E-02  3808   0.118E+00    0.108E-01
RMM:   2    -0.440483245781E+02   -0.16790E-02   -0.61706E-03  1969   0.261E-01
   1397 T=   829. E= -.38514039E+02 F= -.44048325E+02 E0= -.43990902E+02  EK= 0.37504E+01 SP= 0.18E+01 SK= 0.70E-02 mag=     -0.392
       N       E                     dE             d eps       ncg     rms          rms(c)
DAV:   1    -0.440381807070E+02    0.84648E-02   -0.37600E-02  3792   0.112E+00    0.107E-01
RMM:   2    -0.440402053784E+02   -0.20247E-02   -0.61886E-03  2030   0.276E-01    0.883E-02
RMM:   3    -0.440411478578E+02   -0.94248E-03   -0.18506E-03  1903   0.107E-01
   1398 T=   820. E= -.38511500E+02 F= -.44041148E+02 E0= -.43984606E+02  EK= 0.37076E+01 SP= 0.18E+01 SK= 0.82E-02 mag=     -0.398
       N       E                     dE             d eps       ncg     rms          rms(c)
DAV:   1    -0.440333771936E+02    0.68282E-02   -0.41896E-02  3656   0.116E+00    0.105E-01
RMM:   2    -0.440353897899E+02   -0.20126E-02   -0.65903E-03  2001   0.285E-01    0.676E-02
RMM:   3    -0.440360393071E+02   -0.64952E-03   -0.20618E-03  1827   0.105E-01
   1399 T=   809. E= -.38511748E+02 F= -.44036039E+02 E0= -.43977431E+02  EK= 0.36622E+01 SP= 0.19E+01 SK= 0.89E-02 mag=      0.009
       N       E                     dE             d eps       ncg     rms          rms(c)
DAV:   1    -0.440245996120E+02    0.10790E-01   -0.71125E-02  3704   0.122E+00    0.103E-01
RMM:   2    -0.440264790244E+02   -0.18794E-02   -0.66898E-03  2046   0.302E-01    0.808E-02
RMM:   3    -0.440273315328E+02   -0.85251E-03   -0.16620E-03  1950   0.110E-01
   1400 T=   800. E= -.38507141E+02 F= -.44027332E+02 E0= -.43969863E+02  EK= 0.36176E+01 SP= 0.19E+01 SK= 0.91E-02 mag=      0.421
       N       E                     dE             d eps       ncg     rms          rms(c)
DAV:   1    -0.440164617375E+02    0.10017E-01   -0.44589E-02  3560   0.116E+00    0.102E-01
RMM:   2    -0.440179084361E+02   -0.14467E-02   -0.54153E-03  2029   0.275E-01
   1401 T=   790. E= -.38502099E+02 F= -.44017908E+02 E0= -.43961141E+02  EK= 0.35732E+01 SP= 0.19E+01 SK= 0.88E-02 mag=      0.627
       N       E                     dE             d eps       ncg     rms          rms(c)
DAV:   1    -0.440078053913E+02    0.86563E-02   -0.29839E-02  3824   0.114E+00    0.864E-02
RMM:   2    -0.440092512071E+02   -0.14458E-02   -0.57918E-03  2049   0.260E-01
   1402 T=   780. E= -.38499995E+02 F= -.44009251E+02 E0= -.43951509E+02  EK= 0.35283E+01 SP= 0.20E+01 SK= 0.81E-02 mag=      0.493
       N       E                     dE             d eps       ncg     rms          rms(c)
DAV:   1    -0.439989990236E+02    0.88064E-02   -0.20274E-02  3144   0.105E+00    0.553E-02
RMM:   2    -0.440002270319E+02   -0.12280E-02   -0.61816E-03  2046   0.292E-01
   1403 T=   771. E= -.38497437E+02 F= -.44000227E+02 E0= -.43941417E+02  EK= 0.34861E+01 SP= 0.20E+01 SK= 0.69E-02 mag=      0.016
       N       E                     dE             d eps       ncg     rms          rms(c)
DAV:   1    -0.439859281169E+02    0.13071E-01   -0.25111E-02  3528   0.112E+00    0.926E-02
RMM:   2    -0.439876195510E+02   -0.16914E-02   -0.69030E-03  2064   0.281E-01
   1404 T=   762. E= -.38490584E+02 F= -.43987620E+02 E0= -.43930670E+02  EK= 0.34482E+01 SP= 0.20E+01 SK= 0.55E-02 mag=     -0.637
       N       E                     dE             d eps       ncg     rms          rms(c)
DAV:   1    -0.439676685428E+02    0.18260E-01   -0.20227E-02  3368   0.104E+00    0.167E-01
RMM:   2    -0.439711713104E+02   -0.35028E-02   -0.72716E-03  2025   0.301E-01    0.140E-01
RMM:   3    -0.439760763626E+02   -0.49051E-02   -0.78102E-03  1824   0.154E-01    0.807E-02
RMM:   4    -0.439782055621E+02   -0.21292E-02   -0.48317E-03  1824   0.126E-01    0.346E-02
RMM:   5    -0.439785957308E+02   -0.39017E-03   -0.10712E-03  1732   0.693E-02
   1405 T=   754. E= -.38490461E+02 F= -.43978596E+02 E0= -.43920068E+02  EK= 0.34114E+01 SP= 0.21E+01 SK= 0.40E-02 mag=     -0.037
       N       E                     dE             d eps       ncg     rms          rms(c)
DAV:   1    -0.439491991437E+02    0.29006E-01   -0.28595E-02  3416   0.106E+00    0.230E-01
RMM:   2    -0.439552542780E+02   -0.60551E-02   -0.85416E-03  1888   0.245E-01    0.188E-01
RMM:   3    -0.439610679459E+02   -0.58137E-02   -0.58830E-03  1824   0.126E-01    0.131E-01
RMM:   4    -0.439649348699E+02   -0.38669E-02   -0.50067E-03  1839   0.110E-01    0.687E-02
RMM:   5    -0.439663214634E+02   -0.13866E-02   -0.24323E-03  1849   0.854E-02
   1406 T=   747. E= -.38488383E+02 F= -.43966321E+02 E0= -.43908234E+02  EK= 0.33785E+01 SP= 0.21E+01 SK= 0.25E-02 mag=      0.128
       N       E                     dE             d eps       ncg     rms          rms(c)
DAV:   1    -0.439513895185E+02    0.13545E-01   -0.29269E-02  3496   0.104E+00    0.871E-02
RMM:   2    -0.439533537612E+02   -0.19642E-02   -0.61466E-03  1923   0.250E-01    0.606E-02
RMM:   3    -0.439543590458E+02   -0.10053E-02   -0.22933E-03  1824   0.108E-01
   1407 T=   741. E= -.38485938E+02 F= -.43954359E+02 E0= -.43896140E+02  EK= 0.33519E+01 SP= 0.21E+01 SK= 0.13E-02 mag=     -0.038
       N       E                     dE             d eps       ncg     rms          rms(c)
DAV:   1    -0.439398527788E+02    0.13501E-01   -0.31341E-02  3504   0.104E+00    0.705E-02
RMM:   2    -0.439412104294E+02   -0.13577E-02   -0.54959E-03  1974   0.260E-01
   1408 T=   737. E= -.38480788E+02 F= -.43941210E+02 E0= -.43884200E+02  EK= 0.33331E+01 SP= 0.21E+01 SK= 0.37E-03 mag=     -0.421
       N       E                     dE             d eps       ncg     rms          rms(c)
DAV:   1    -0.439246312667E+02    0.15222E-01   -0.33268E-02  3504   0.105E+00    0.117E-01
RMM:   2    -0.439267698645E+02   -0.21386E-02   -0.61283E-03  2030   0.263E-01    0.969E-02
RMM:   3    -0.439283628132E+02   -0.15929E-02   -0.26428E-03  1853   0.119E-01
   1409 T=   734. E= -.38476210E+02 F= -.43928363E+02 E0= -.43872801E+02  EK= 0.33206E+01 SP= 0.21E+01 SK= 0.50E-05 mag=     -0.368
       N       E                     dE             d eps       ncg     rms          rms(c)
DAV:   1    -0.439164673303E+02    0.10303E-01   -0.40958E-02  3296   0.110E+00    0.944E-02
RMM:   2    -0.439186758192E+02   -0.22085E-02   -0.71933E-03  1939   0.287E-01    0.612E-02
RMM:   3    -0.439193460125E+02   -0.67019E-03   -0.18632E-03  1821   0.972E-02
   1410 T=   733. E= -.38474558E+02 F= -.43919346E+02 E0= -.43862108E+02  EK= 0.33157E+01 SP= 0.21E+01 SK= 0.24E-03 mag=      0.109
       N       E                     dE             d eps       ncg     rms          rms(c)
DAV:   1    -0.439032325524E+02    0.15443E-01   -0.79540E-02  3304   0.106E+00    0.124E-01
RMM:   2    -0.439054579956E+02   -0.22254E-02   -0.72028E-03  2031   0.309E-01    0.984E-02
RMM:   3    -0.439066447653E+02   -0.11868E-02   -0.18917E-03  1964   0.114E-01
   1411 T=   734. E= -.38467653E+02 F= -.43906645E+02 E0= -.43851494E+02  EK= 0.33193E+01 SP= 0.21E+01 SK= 0.11E-02 mag=      0.491
       N       E                     dE             d eps       ncg     rms          rms(c)
DAV:   1    -0.438958808632E+02    0.95771E-02   -0.34534E-02  3400   0.116E+00    0.103E-01
RMM:   2    -0.438971336784E+02   -0.12528E-02   -0.58281E-03  2056   0.278E-01
   1412 T=   736. E= -.38462139E+02 F= -.43897134E+02 E0= -.43842369E+02  EK= 0.33315E+01 SP= 0.21E+01 SK= 0.25E-02 mag=      0.598
       N       E                     dE             d eps       ncg     rms          rms(c)
DAV:   1    -0.438894285250E+02    0.64523E-02   -0.26385E-02  3808   0.105E+00    0.618E-02
RMM:   2    -0.438904456266E+02   -0.10171E-02   -0.54068E-03  2013   0.252E-01
   1413 T=   741. E= -.38459483E+02 F= -.43890446E+02 E0= -.43834864E+02  EK= 0.33503E+01 SP= 0.21E+01 SK= 0.44E-02 mag=      0.341
       N       E                     dE             d eps       ncg     rms          rms(c)
DAV:   1    -0.438833128220E+02    0.61157E-02   -0.14499E-02  3088   0.102E+00    0.575E-02
RMM:   2    -0.438842212575E+02   -0.90844E-03   -0.59020E-03  2013   0.286E-01
   1414 T=   746. E= -.38455848E+02 F= -.43884221E+02 E0= -.43828760E+02  EK= 0.33769E+01 SP= 0.20E+01 SK= 0.66E-02 mag=     -0.218
       N       E                     dE             d eps       ncg     rms          rms(c)
DAV:   1    -0.438729746655E+02    0.10338E-01   -0.21394E-02  3352   0.108E+00    0.126E-01
RMM:   2    -0.438752056490E+02   -0.22310E-02   -0.65529E-03  2002   0.270E-01    0.107E-01
RMM:   3    -0.438773708112E+02   -0.21652E-02   -0.35357E-03  1839   0.119E-01    0.802E-02
RMM:   4    -0.438791312133E+02   -0.17604E-02   -0.33116E-03  1889   0.973E-02
   1415 T=   754. E= -.38451600E+02 F= -.43879131E+02 E0= -.43824543E+02  EK= 0.34111E+01 SP= 0.20E+01 SK= 0.89E-02 mag=     -0.160
       N       E                     dE             d eps       ncg     rms          rms(c)
DAV:   1    -0.438732817313E+02    0.40891E-02   -0.20284E-02  3312   0.106E+00    0.104E-01
RMM:   2    -0.438747429964E+02   -0.14613E-02   -0.50571E-03  1880   0.243E-01
   1416 T=   763. E= -.38444685E+02 F= -.43874743E+02 E0= -.43820795E+02  EK= 0.34540E+01 SP= 0.20E+01 SK= 0.11E-01 mag=      0.343
       N       E                     dE             d eps       ncg     rms          rms(c)
DAV:   1    -0.438648336482E+02    0.84481E-02   -0.42211E-02  3960   0.112E+00    0.171E-01
RMM:   2    -0.438682142258E+02   -0.33806E-02   -0.70331E-03  2012   0.265E-01    0.142E-01
RMM:   3    -0.438700048105E+02   -0.17906E-02   -0.20594E-03  1893   0.107E-01
   1417 T=   774. E= -.38435915E+02 F= -.43870005E+02 E0= -.43818818E+02  EK= 0.35028E+01 SP= 0.19E+01 SK= 0.13E-01 mag=      0.331
       N       E                     dE             d eps       ncg     rms          rms(c)
DAV:   1    -0.438710896375E+02   -0.28754E-02   -0.61958E-02  3264   0.110E+00    0.115E-01
RMM:   2    -0.438736092811E+02   -0.25196E-02   -0.98160E-03  1997   0.320E-01    0.787E-02
RMM:   3    -0.438744082246E+02   -0.79894E-03   -0.29264E-03  1860   0.118E-01
   1418 T=   785. E= -.38438348E+02 F= -.43874408E+02 E0= -.43821183E+02  EK= 0.35530E+01 SP= 0.19E+01 SK= 0.14E-01 mag=     -0.055
       N       E                     dE             d eps       ncg     rms          rms(c)
DAV:   1    -0.438714772725E+02    0.21320E-02   -0.96522E-02  3432   0.118E+00    0.129E-01
RMM:   2    -0.438737540178E+02   -0.22767E-02   -0.94422E-03  2050   0.339E-01    0.984E-02
RMM:   3    -0.438750019030E+02   -0.12479E-02   -0.26118E-03  1988   0.125E-01
   1419 T=   798. E= -.38433889E+02 F= -.43875002E+02 E0= -.43823427E+02  EK= 0.36086E+01 SP= 0.18E+01 SK= 0.15E-01 mag=     -0.426
       N       E                     dE             d eps       ncg     rms          rms(c)
DAV:   1    -0.438758645392E+02   -0.21105E-02   -0.50493E-02  3280   0.116E+00    0.114E-01
RMM:   2    -0.438774119301E+02   -0.15474E-02   -0.67513E-03  2078   0.293E-01
   1420 T=   811. E= -.38426885E+02 F= -.43877412E+02 E0= -.43827026E+02  EK= 0.36696E+01 SP= 0.18E+01 SK= 0.14E-01 mag=     -0.574
       N       E                     dE             d eps       ncg     rms          rms(c)
DAV:   1    -0.438804991131E+02   -0.46346E-02   -0.32186E-02  3896   0.111E+00    0.891E-02
RMM:   2    -0.438820205839E+02   -0.15215E-02   -0.65415E-03  2039   0.268E-01
   1421 T=   824. E= -.38422879E+02 F= -.43882021E+02 E0= -.43831311E+02  EK= 0.37294E+01 SP= 0.17E+01 SK= 0.13E-01 mag=     -0.400
       N       E                     dE             d eps       ncg     rms          rms(c)
DAV:   1    -0.438845800331E+02   -0.40809E-02   -0.19821E-02  3408   0.107E+00    0.890E-02
RMM:   2    -0.438862155589E+02   -0.16355E-02   -0.74989E-03  2038   0.306E-01
   1422 T=   837. E= -.38418984E+02 F= -.43886216E+02 E0= -.43835326E+02  EK= 0.37867E+01 SP= 0.17E+01 SK= 0.12E-01 mag=      0.065
       N       E                     dE             d eps       ncg     rms          rms(c)
DAV:   1    -0.438849618104E+02   -0.38178E-03   -0.28216E-02  3248   0.114E+00    0.122E-01
RMM:   2    -0.438874124304E+02   -0.24506E-02   -0.85266E-03  2071   0.300E-01    0.102E-01
RMM:   3    -0.438889356359E+02   -0.15232E-02   -0.29796E-03  1925   0.121E-01
   1423 T=   849. E= -.38413227E+02 F= -.43888936E+02 E0= -.43839742E+02  EK= 0.38408E+01 SP= 0.16E+01 SK= 0.92E-02 mag=      0.236
       N       E                     dE             d eps       ncg     rms          rms(c)
DAV:   1    -0.438883663922E+02   -0.95396E-03   -0.53125E-02  3272   0.111E+00    0.131E-01
RMM:   2    -0.438913154377E+02   -0.29490E-02   -0.93179E-03  1920   0.302E-01    0.999E-02
RMM:   3    -0.438923363070E+02   -0.10209E-02   -0.21704E-03  1825   0.105E-01
   1424 T=   859. E= -.38409428E+02 F= -.43892336E+02 E0= -.43842714E+02  EK= 0.38883E+01 SP= 0.16E+01 SK= 0.67E-02 mag=      0.062
       N       E                     dE             d eps       ncg     rms          rms(c)
DAV:   1    -0.438902040950E+02    0.11113E-02   -0.83700E-02  3584   0.117E+00    0.136E-01
RMM:   2    -0.438925507273E+02   -0.23466E-02   -0.88256E-03  2074   0.316E-01    0.997E-02
RMM:   3    -0.438936650613E+02   -0.11143E-02   -0.22693E-03  1960   0.120E-01
   1425 T=   868. E= -.38404452E+02 F= -.43893665E+02 E0= -.43844710E+02  EK= 0.39282E+01 SP= 0.16E+01 SK= 0.42E-02 mag=     -0.203
       N       E                     dE             d eps       ncg     rms          rms(c)
DAV:   1    -0.438907732427E+02    0.17775E-02   -0.53558E-02  3312   0.113E+00    0.109E-01
RMM:   2    -0.438924901169E+02   -0.17169E-02   -0.79628E-03  2031   0.300E-01
   1426 T=   875. E= -.38399578E+02 F= -.43892490E+02 E0= -.43844745E+02  EK= 0.39576E+01 SP= 0.15E+01 SK= 0.21E-02 mag=     -0.408
       N       E                     dE             d eps       ncg     rms          rms(c)
DAV:   1    -0.438830972978E+02    0.76759E-02   -0.54969E-02  3840   0.116E+00    0.138E-01
RMM:   2    -0.438857771661E+02   -0.26799E-02   -0.91108E-03  2072   0.300E-01    0.112E-01
RMM:   3    -0.438872608547E+02   -0.14837E-02   -0.30228E-03  1949   0.116E-01
   1427 T=   878. E= -.38394973E+02 F= -.43887261E+02 E0= -.43839813E+02  EK= 0.39736E+01 SP= 0.15E+01 SK= 0.66E-03 mag=     -0.162
       N       E                     dE             d eps       ncg     rms          rms(c)
DAV:   1    -0.438791715626E+02    0.66056E-02   -0.58438E-02  3224   0.117E+00    0.122E-01
RMM:   2    -0.438813076371E+02   -0.21361E-02   -0.87066E-03  2008   0.320E-01    0.871E-02
RMM:   3    -0.438817767099E+02   -0.46907E-03   -0.18440E-03  1849   0.107E-01
   1428 T=   879. E= -.38393155E+02 F= -.43881777E+02 E0= -.43834617E+02  EK= 0.39770E+01 SP= 0.15E+01 SK= 0.24E-04 mag=      0.285
       N       E                     dE             d eps       ncg     rms          rms(c)
DAV:   1    -0.438632350847E+02    0.18073E-01   -0.88406E-02  3680   0.119E+00    0.164E-01
RMM:   2    -0.438663586810E+02   -0.31236E-02   -0.10020E-02  2121   0.342E-01    0.127E-01
RMM:   3    -0.438680859115E+02   -0.17272E-02   -0.25863E-03  1984   0.124E-01
   1429 T=   877. E= -.38385481E+02 F= -.43868086E+02 E0= -.43822439E+02  EK= 0.39684E+01 SP= 0.15E+01 SK= 0.25E-03 mag=      0.338
       N       E                     dE             d eps       ncg     rms          rms(c)
DAV:   1    -0.438546235759E+02    0.11735E-01   -0.38769E-02  3592   0.118E+00    0.915E-02
RMM:   2    -0.438558868385E+02   -0.12633E-02   -0.74799E-03  2075   0.304E-01
   1430 T=   872. E= -.38384723E+02 F= -.43855887E+02 E0= -.43809101E+02  EK= 0.39450E+01 SP= 0.15E+01 SK= 0.13E-02 mag=      0.010
       N       E                     dE             d eps       ncg     rms          rms(c)
DAV:   1    -0.438313655658E+02    0.23258E-01   -0.57414E-02  3944   0.120E+00    0.105E-01
RMM:   2    -0.438333539571E+02   -0.19884E-02   -0.90547E-03  2050   0.321E-01    0.837E-02
RMM:   3    -0.438343332598E+02   -0.97930E-03   -0.25313E-03  2004   0.118E-01
   1431 T=   864. E= -.38380921E+02 F= -.43834333E+02 E0= -.43788833E+02  EK= 0.39066E+01 SP= 0.15E+01 SK= 0.29E-02 mag=     -0.262
       N       E                     dE             d eps       ncg     rms          rms(c)
DAV:   1    -0.438086142649E+02    0.24740E-01   -0.27284E-02  3368   0.112E+00    0.120E-01
RMM:   2    -0.438097218810E+02   -0.11076E-02   -0.50636E-03  2009   0.278E-01
   1432 T=   853. E= -.38374933E+02 F= -.43809722E+02 E0= -.43764651E+02  EK= 0.38600E+01 SP= 0.16E+01 SK= 0.47E-02 mag=     -0.360
       N       E                     dE             d eps       ncg     rms          rms(c)
DAV:   1    -0.437794041298E+02    0.29210E-01   -0.35486E-02  4088   0.124E+00    0.709E-02
RMM:   2    -0.437807124743E+02   -0.13083E-02   -0.57046E-03  2058   0.266E-01
   1433 T=   841. E= -.38368628E+02 F= -.43780712E+02 E0= -.43735571E+02  EK= 0.38034E+01 SP= 0.16E+01 SK= 0.66E-02 mag=     -0.237
       N       E                     dE             d eps       ncg     rms          rms(c)
DAV:   1    -0.437457123325E+02    0.33692E-01   -0.13326E-02  2672   0.106E+00    0.719E-02
RMM:   2    -0.437466827787E+02   -0.97045E-03   -0.65579E-03  2053   0.317E-01
   1434 T=   825. E= -.38365613E+02 F= -.43746683E+02 E0= -.43701630E+02  EK= 0.37344E+01 SP= 0.16E+01 SK= 0.81E-02 mag=      0.077
       N       E                     dE             d eps       ncg     rms          rms(c)
DAV:   1    -0.437039345333E+02    0.41778E-01   -0.27032E-02  3840   0.122E+00    0.885E-02
RMM:   2    -0.437055404191E+02   -0.16059E-02   -0.71635E-03  2029   0.298E-01
   1435 T=   809. E= -.38359297E+02 F= -.43705540E+02 E0= -.43661900E+02  EK= 0.36593E+01 SP= 0.17E+01 SK= 0.89E-02 mag=      0.409
       N       E                     dE             d eps       ncg     rms          rms(c)
DAV:   1    -0.436586202461E+02    0.45314E-01   -0.22038E-02  3640   0.111E+00    0.120E-01
RMM:   2    -0.436607671005E+02   -0.21469E-02   -0.77010E-03  2047   0.324E-01    0.962E-02
RMM:   3    -0.436623983385E+02   -0.16312E-02   -0.32466E-03  1883   0.128E-01
   1436 T=   791. E= -.38355555E+02 F= -.43662398E+02 E0= -.43619136E+02  EK= 0.35795E+01 SP= 0.17E+01 SK= 0.89E-02 mag=      0.278
       N       E                     dE             d eps       ncg     rms          rms(c)
DAV:   1    -0.436150997808E+02    0.45667E-01   -0.27913E-02  3504   0.108E+00    0.926E-02
RMM:   2    -0.436163695449E+02   -0.12698E-02   -0.55198E-03  1937   0.274E-01
   1437 T=   774. E= -.38349683E+02 F= -.43616370E+02 E0= -.43572757E+02  EK= 0.35008E+01 SP= 0.18E+01 SK= 0.81E-02 mag=     -0.247
       N       E                     dE             d eps       ncg     rms          rms(c)
DAV:   1    -0.435550156290E+02    0.60084E-01   -0.46007E-02  3784   0.120E+00    0.182E-01
RMM:   2    -0.435588512686E+02   -0.38356E-02   -0.85734E-03  2000   0.276E-01    0.149E-01
RMM:   3    -0.435643972546E+02   -0.55460E-02   -0.80682E-03  1827   0.152E-01    0.919E-02
RMM:   4    -0.435664112960E+02   -0.20140E-02   -0.39271E-03  1826   0.112E-01    0.422E-02
RMM:   5    -0.435668313328E+02   -0.42004E-03   -0.11278E-03  1766   0.703E-02
   1438 T=   756. E= -.38345351E+02 F= -.43566831E+02 E0= -.43523256E+02  EK= 0.34206E+01 SP= 0.18E+01 SK= 0.65E-02 mag=     -0.036
       N       E                     dE             d eps       ncg     rms          rms(c)
DAV:   1    -0.435047530940E+02    0.61658E-01   -0.22910E-02  3384   0.104E+00    0.172E-01
RMM:   2    -0.435079230201E+02   -0.31699E-02   -0.90700E-03  1898   0.268E-01    0.135E-01
RMM:   3    -0.435114163985E+02   -0.34934E-02   -0.54683E-03  1824   0.125E-01    0.933E-02
RMM:   4    -0.435130198939E+02   -0.16035E-02   -0.20548E-03  1824   0.908E-02
   1439 T=   738. E= -.38342209E+02 F= -.43513020E+02 E0= -.43470209E+02  EK= 0.33404E+01 SP= 0.18E+01 SK= 0.44E-02 mag=      0.202
       N       E                     dE             d eps       ncg     rms          rms(c)
DAV:   1    -0.434568731135E+02    0.54543E-01   -0.28590E-02  3704   0.110E+00    0.112E-01
RMM:   2    -0.434579388684E+02   -0.10658E-02   -0.48083E-03  1948   0.237E-01
   1440 T=   722. E= -.38337682E+02 F= -.43457939E+02 E0= -.43415393E+02  EK= 0.32673E+01 SP= 0.19E+01 SK= 0.23E-02 mag=      0.291
       N       E                     dE             d eps       ncg     rms          rms(c)
DAV:   1    -0.434013229624E+02    0.55550E-01   -0.21040E-02  3664   0.101E+00    0.567E-02
RMM:   2    -0.434022341627E+02   -0.91120E-03   -0.52187E-03  2018   0.261E-01
   1441 T=   707. E= -.38335131E+02 F= -.43402234E+02 E0= -.43359603E+02  EK= 0.31998E+01 SP= 0.19E+01 SK= 0.66E-03 mag=      0.168
       N       E                     dE             d eps       ncg     rms          rms(c)
DAV:   1    -0.433444940733E+02    0.56829E-01   -0.15724E-02  3120   0.106E+00    0.758E-02
RMM:   2    -0.433454769119E+02   -0.98284E-03   -0.53850E-03  2027   0.261E-01
   1442 T=   694. E= -.38332211E+02 F= -.43345477E+02 E0= -.43302964E+02  EK= 0.31409E+01 SP= 0.19E+01 SK= 0.32E-06 mag=     -0.108
       N       E                     dE             d eps       ncg     rms          rms(c)
DAV:   1    -0.432866747129E+02    0.57819E-01   -0.17672E-02  3416   0.103E+00    0.950E-02
RMM:   2    -0.432880429275E+02   -0.13682E-02   -0.56718E-03  2006   0.280E-01
   1443 T=   684. E= -.38326709E+02 F= -.43288043E+02 E0= -.43246367E+02  EK= 0.30942E+01 SP= 0.19E+01 SK= 0.89E-03 mag=     -0.398
       N       E                     dE             d eps       ncg     rms          rms(c)
DAV:   1    -0.432298804905E+02    0.56794E-01   -0.13240E-02  3288   0.989E-01    0.110E-01
RMM:   2    -0.432315671528E+02   -0.16867E-02   -0.62415E-03  2022   0.284E-01
   1444 T=   676. E= -.38321244E+02 F= -.43231567E+02 E0= -.43190611E+02  EK= 0.30594E+01 SP= 0.18E+01 SK= 0.38E-02 mag=     -0.463
       N       E                     dE             d eps       ncg     rms          rms(c)
DAV:   1    -0.431782278780E+02    0.51653E-01   -0.19483E-02  3256   0.100E+00    0.860E-02
RMM:   2    -0.431793753422E+02   -0.11475E-02   -0.58140E-03  1987   0.271E-01
   1445 T=   672. E= -.38318249E+02 F= -.43179375E+02 E0= -.43137563E+02  EK= 0.30380E+01 SP= 0.18E+01 SK= 0.90E-02 mag=     -0.238
       N       E                     dE             d eps       ncg     rms          rms(c)
DAV:   1    -0.431259428469E+02    0.52285E-01   -0.19972E-02  3512   0.989E-01    0.986E-02
RMM:   2    -0.431274464406E+02   -0.15036E-02   -0.63772E-03  2000   0.275E-01
   1446 T=   670. E= -.38313218E+02 F= -.43127446E+02 E0= -.43085568E+02  EK= 0.30307E+01 SP= 0.18E+01 SK= 0.17E-01 mag=      0.187
       N       E                     dE             d eps       ncg     rms          rms(c)
DAV:   1    -0.430738114655E+02    0.52131E-01   -0.17641E-02  3568   0.981E-01    0.138E-01
RMM:   2    -0.430762096496E+02   -0.23982E-02   -0.74959E-03  2051   0.286E-01    0.110E-01
RMM:   3    -0.430773404090E+02   -0.11308E-02   -0.22719E-03  1923   0.112E-01
   1447 T=   671. E= -.38308327E+02 F= -.43077340E+02 E0= -.43036609E+02  EK= 0.30373E+01 SP= 0.17E+01 SK= 0.27E-01 mag=      0.226
       N       E                     dE             d eps       ncg     rms          rms(c)
DAV:   1    -0.430305739137E+02    0.45636E-01   -0.53373E-02  3272   0.992E-01    0.125E-01
RMM:   2    -0.430328225311E+02   -0.22486E-02   -0.81657E-03  1942   0.290E-01    0.935E-02
RMM:   3    -0.430334349786E+02   -0.61245E-03   -0.18212E-03  1833   0.956E-02
   1448 T=   676. E= -.38306650E+02 F= -.43033435E+02 E0= -.42991523E+02  EK= 0.30593E+01 SP= 0.16E+01 SK= 0.39E-01 mag=     -0.049
       N       E                     dE             d eps       ncg     rms          rms(c)
DAV:   1    -0.429884737983E+02    0.44349E-01   -0.87911E-02  3408   0.105E+00    0.151E-01
RMM:   2    -0.429906186706E+02   -0.21449E-02   -0.78772E-03  2015   0.299E-01    0.108E-01
RMM:   3    -0.429916917710E+02   -0.10731E-02   -0.17809E-03  1985   0.107E-01
   1449 T=   685. E= -.38303023E+02 F= -.42991692E+02 E0= -.42950349E+02  EK= 0.30978E+01 SP= 0.15E+01 SK= 0.52E-01 mag=     -0.268
       N       E                     dE             d eps       ncg     rms          rms(c)
DAV:   1    -0.429543751771E+02    0.36243E-01   -0.38924E-02  3328   0.992E-01    0.121E-01
RMM:   2    -0.429556361387E+02   -0.12610E-02   -0.63898E-03  2004   0.270E-01
   1450 T=   697. E= -.38300409E+02 F= -.42955636E+02 E0= -.42914171E+02  EK= 0.31532E+01 SP= 0.14E+01 SK= 0.66E-01 mag=     -0.312
       N       E                     dE             d eps       ncg     rms          rms(c)
DAV:   1    -0.429202245437E+02    0.34151E-01   -0.37791E-02  3784   0.104E+00    0.114E-01
RMM:   2    -0.429220755940E+02   -0.18511E-02   -0.71599E-03  2010   0.272E-01    0.882E-02
RMM:   3    -0.429230285793E+02   -0.95299E-03   -0.21615E-03  1972   0.103E-01
   1451 T=   713. E= -.38297700E+02 F= -.42923029E+02 E0= -.42881054E+02  EK= 0.32241E+01 SP= 0.13E+01 SK= 0.80E-01 mag=     -0.068
       N       E                     dE             d eps       ncg     rms          rms(c)
DAV:   1    -0.428952106436E+02    0.26865E-01   -0.27516E-02  3264   0.101E+00    0.134E-01
RMM:   2    -0.428963675694E+02   -0.11569E-02   -0.57633E-03  1980   0.257E-01
   1452 T=   732. E= -.38294054E+02 F= -.42896368E+02 E0= -.42854688E+02  EK= 0.33133E+01 SP= 0.12E+01 SK= 0.92E-01 mag=      0.346
       N       E                     dE             d eps       ncg     rms          rms(c)
DAV:   1    -0.428673097823E+02    0.27901E-01   -0.43845E-02  3864   0.109E+00    0.155E-01
RMM:   2    -0.428703008909E+02   -0.29911E-02   -0.72340E-03  2024   0.260E-01    0.124E-01
RMM:   3    -0.428723520498E+02   -0.20512E-02   -0.26353E-03  1891   0.111E-01    0.101E-01
RMM:   4    -0.428751978074E+02   -0.28458E-02   -0.48724E-03  1956   0.100E-01    0.454E-02
RMM:   5    -0.428756411721E+02   -0.44336E-03   -0.90865E-04  1680   0.620E-02
   1453 T=   755. E= -.38291379E+02 F= -.42875641E+02 E0= -.42833423E+02  EK= 0.34177E+01 SP= 0.11E+01 SK= 0.10E+00 mag=      0.040
       N       E                     dE             d eps       ncg     rms          rms(c)
DAV:   1    -0.428495260320E+02    0.25672E-01   -0.23166E-02  3320   0.987E-01    0.189E-01
RMM:   2    -0.428528859746E+02   -0.33599E-02   -0.92516E-03  1924   0.273E-01    0.141E-01
RMM:   3    -0.428550296235E+02   -0.21436E-02   -0.31604E-03  1824   0.119E-01    0.110E-01
RMM:   4    -0.428574895234E+02   -0.24599E-02   -0.34128E-03  1866   0.101E-01    0.640E-02
RMM:   5    -0.428584916466E+02   -0.10021E-02   -0.16557E-03  1825   0.746E-02
   1454 T=   781. E= -.38290863E+02 F= -.42858492E+02 E0= -.42816246E+02  EK= 0.35323E+01 SP= 0.93E+00 SK= 0.11E+00 mag=     -0.073
       N       E                     dE             d eps       ncg     rms          rms(c)
DAV:   1    -0.428455581550E+02    0.11931E-01   -0.26862E-02  3736   0.105E+00    0.789E-02
RMM:   2    -0.428464945718E+02   -0.93642E-03   -0.47746E-03  2026   0.247E-01
   1455 T=   809. E= -.38288345E+02 F= -.42846495E+02 E0= -.42803949E+02  EK= 0.36607E+01 SP= 0.79E+00 SK= 0.11E+00 mag=      0.008
       N       E                     dE             d eps       ncg     rms          rms(c)
DAV:   1    -0.428376016119E+02    0.79565E-02   -0.26565E-02  3952   0.112E+00    0.749E-02
RMM:   2    -0.428389599481E+02   -0.13583E-02   -0.64574E-03  2050   0.274E-01
   1456 T=   839. E= -.38286871E+02 F= -.42838960E+02 E0= -.42796509E+02  EK= 0.37965E+01 SP= 0.65E+00 SK= 0.10E+00 mag=      0.218
       N       E                     dE             d eps       ncg     rms          rms(c)
DAV:   1    -0.428341651595E+02    0.34365E-02   -0.14826E-02  2976   0.106E+00    0.956E-02
RMM:   2    -0.428358266555E+02   -0.16615E-02   -0.65791E-03  2052   0.297E-01
   1457 T=   871. E= -.38284366E+02 F= -.42835827E+02 E0= -.42793794E+02  EK= 0.39383E+01 SP= 0.52E+00 SK= 0.94E-01 mag=      0.402
       N       E                     dE             d eps       ncg     rms          rms(c)
DAV:   1    -0.428361107465E+02   -0.19456E-02   -0.28965E-02  3816   0.120E+00    0.888E-02
RMM:   2    -0.428378305369E+02   -0.17198E-02   -0.69565E-03  2047   0.294E-01
   1458 T=   902. E= -.38280781E+02 F= -.42837831E+02 E0= -.42795775E+02  EK= 0.40829E+01 SP= 0.39E+00 SK= 0.81E-01 mag=      0.431
       N       E                     dE             d eps       ncg     rms          rms(c)
DAV:   1    -0.428423778165E+02   -0.62671E-02   -0.19105E-02  3480   0.110E+00    0.605E-02
RMM:   2    -0.428438311376E+02   -0.14533E-02   -0.67227E-03  2049   0.304E-01
   1459 T=   933. E= -.38278988E+02 F= -.42843831E+02 E0= -.42801104E+02  EK= 0.42215E+01 SP= 0.28E+00 SK= 0.64E-01 mag=      0.235
       N       E                     dE             d eps       ncg     rms          rms(c)
DAV:   1    -0.428501905832E+02   -0.78128E-02   -0.23711E-02  3536   0.120E+00    0.681E-02
RMM:   2    -0.428517112424E+02   -0.15207E-02   -0.70909E-03  2079   0.293E-01
   1460 T=   961. E= -.38276400E+02 F= -.42851711E+02 E0= -.42808637E+02  EK= 0.43494E+01 SP= 0.18E+00 SK= 0.46E-01 mag=     -0.139
       N       E                     dE             d eps       ncg     rms          rms(c)
DAV:   1    -0.428567463586E+02   -0.65558E-02   -0.25019E-02  3728   0.118E+00    0.107E-01
RMM:   2    -0.428591047462E+02   -0.23584E-02   -0.76159E-03  2068   0.315E-01    0.889E-02
RMM:   3    -0.428609465513E+02   -0.18418E-02   -0.39008E-03  1836   0.131E-01    0.626E-02
RMM:   4    -0.428620349450E+02   -0.10884E-02   -0.22183E-03  1837   0.940E-02
   1461 T=   986. E= -.38275526E+02 F= -.42862035E+02 E0= -.42818992E+02  EK= 0.44593E+01 SP= 0.99E-01 SK= 0.28E-01 mag=     -0.106
       N       E                     dE             d eps       ncg     rms          rms(c)
DAV:   1    -0.428678152944E+02   -0.68687E-02   -0.30278E-02  3608   0.123E+00    0.118E-01
RMM:   2    -0.428701456346E+02   -0.23303E-02   -0.66028E-03  1931   0.286E-01    0.921E-02
RMM:   3    -0.428713327282E+02   -0.11871E-02   -0.20953E-03  1822   0.107E-01
   1462 T=  1006. E= -.38270341E+02 F= -.42871333E+02 E0= -.42828265E+02  EK= 0.45490E+01 SP= 0.38E-01 SK= 0.14E-01 mag=      0.121
       N       E                     dE             d eps       ncg     rms          rms(c)
DAV:   1    -0.428804549623E+02   -0.10309E-01   -0.47272E-02  3968   0.124E+00    0.112E-01
RMM:   2    -0.428822799850E+02   -0.18250E-02   -0.68162E-03  2036   0.299E-01    0.806E-02
RMM:   3    -0.428830163706E+02   -0.73639E-03   -0.18018E-03  1871   0.111E-01
   1463 T=  1019. E= -.38266705E+02 F= -.42883016E+02 E0= -.42840285E+02  EK= 0.46119E+01 SP= 0.79E-03 SK= 0.36E-02 mag=      0.270
       N       E                     dE             d eps       ncg     rms          rms(c)
DAV:   1    -0.428928753569E+02   -0.10595E-01   -0.32060E-02  3816   0.125E+00    0.883E-02
RMM:   2    -0.428944554895E+02   -0.15801E-02   -0.63597E-03  2058   0.297E-01
   1464 T=  1026. E= -.38263586E+02 F= -.42894455E+02 E0= -.42851481E+02  EK= 0.46432E+01 SP= -.12E-01 SK= 0.16E-05 mag=      0.247
       N       E                     dE             d eps       ncg     rms          rms(c)
DAV:   1    -0.429022247471E+02   -0.93494E-02   -0.39406E-02  4232   0.130E+00    0.911E-02
RMM:   2    -0.429041089497E+02   -0.18842E-02   -0.75808E-03  2050   0.291E-01    0.692E-02
RMM:   3    -0.429047996150E+02   -0.69067E-03   -0.22812E-03  1921   0.114E-01
   1465 T=  1026. E= -.38261200E+02 F= -.42904800E+02 E0= -.42861518E+02  EK= 0.46404E+01 SP= -.27E-03 SK= 0.34E-02 mag=      0.020
       N       E                     dE             d eps       ncg     rms          rms(c)
DAV:   1    -0.429126804205E+02   -0.85715E-02   -0.29231E-02  3464   0.124E+00    0.103E-01
RMM:   2    -0.429141525084E+02   -0.14721E-02   -0.51273E-03  2008   0.289E-01
   1466 T=  1019. E= -.38254700E+02 F= -.42914153E+02 E0= -.42871334E+02  EK= 0.46087E+01 SP= 0.37E-01 SK= 0.14E-01 mag=     -0.305
       N       E                     dE             d eps       ncg     rms          rms(c)
DAV:   1    -0.429169822094E+02   -0.43018E-02   -0.45172E-02  4064   0.134E+00    0.121E-01
RMM:   2    -0.429193191777E+02   -0.23370E-02   -0.70318E-03  2055   0.277E-01    0.957E-02
RMM:   3    -0.429206015713E+02   -0.12824E-02   -0.21431E-03  1926   0.112E-01
   1467 T=  1005. E= -.38245962E+02 F= -.42920602E+02 E0= -.42878376E+02  EK= 0.45460E+01 SP= 0.99E-01 SK= 0.30E-01 mag=     -0.284
       N       E                     dE             d eps       ncg     rms          rms(c)
DAV:   1    -0.429266212249E+02   -0.73020E-02   -0.21264E-02  3472   0.118E+00    0.118E-01
RMM:   2    -0.429280942864E+02   -0.14731E-02   -0.64555E-03  2018   0.317E-01
   1468 T=   984. E= -.38240547E+02 F= -.42928094E+02 E0= -.42885042E+02  EK= 0.44539E+01 SP= 0.18E+00 SK= 0.50E-01 mag=      0.056
       N       E                     dE             d eps       ncg     rms          rms(c)
DAV:   1    -0.429274364812E+02   -0.81526E-03   -0.50696E-02  4128   0.133E+00    0.114E-01
RMM:   2    -0.429295377384E+02   -0.21013E-02   -0.75545E-03  2045   0.287E-01    0.861E-02
RMM:   3    -0.429305324646E+02   -0.99473E-03   -0.21833E-03  1981   0.115E-01
   1469 T=   959. E= -.38232664E+02 F= -.42930532E+02 E0= -.42888392E+02  EK= 0.43368E+01 SP= 0.29E+00 SK= 0.73E-01 mag=      0.288
       N       E                     dE             d eps       ncg     rms          rms(c)
DAV:   1    -0.429313006894E+02   -0.17630E-02   -0.20511E-02  3408   0.120E+00    0.149E-01
RMM:   2    -0.429329520231E+02   -0.16513E-02   -0.69155E-03  1984   0.312E-01
   1470 T=   929. E= -.38226201E+02 F= -.42932952E+02 E0= -.42890543E+02  EK= 0.42010E+01 SP= 0.41E+00 SK= 0.95E-01 mag=      0.315
       N       E                     dE             d eps       ncg     rms          rms(c)
DAV:   1    -0.429331042960E+02   -0.18036E-02   -0.41942E-02  4032   0.128E+00    0.100E-01
RMM:   2    -0.429344209172E+02   -0.13166E-02   -0.58483E-03  2040   0.264E-01
   1471 T=   896. E= -.38219513E+02 F= -.42934421E+02 E0= -.42891615E+02  EK= 0.40529E+01 SP= 0.55E+00 SK= 0.11E+00 mag=      0.114
       N       E                     dE             d eps       ncg     rms          rms(c)
DAV:   1    -0.429323126151E+02    0.79168E-03   -0.15744E-02  2744   0.109E+00    0.733E-02
RMM:   2    -0.429337416710E+02   -0.14291E-02   -0.75862E-03  2048   0.340E-01
   1472 T=   861. E= -.38215279E+02 F= -.42933742E+02 E0= -.42891253E+02  EK= 0.38943E+01 SP= 0.70E+00 SK= 0.13E+00 mag=     -0.237
       N       E                     dE             d eps       ncg     rms          rms(c)
DAV:   1    -0.429283656152E+02    0.39470E-02   -0.28492E-02  4056   0.124E+00    0.128E-01
RMM:   2    -0.429306370716E+02   -0.22715E-02   -0.83488E-03  2104   0.324E-01    0.984E-02
RMM:   3    -0.429316013315E+02   -0.96426E-03   -0.26163E-03  1940   0.127E-01
   1473 T=   826. E= -.38209930E+02 F= -.42931601E+02 E0= -.42889965E+02  EK= 0.37347E+01 SP= 0.85E+00 SK= 0.14E+00 mag=     -0.322
       N       E                     dE             d eps       ncg     rms          rms(c)
DAV:   1    -0.429306448272E+02   -0.77556E-05   -0.26793E-02  3512   0.119E+00    0.115E-01
RMM:   2    -0.429319152102E+02   -0.12704E-02   -0.53120E-03  1982   0.297E-01
   1474 T=   792. E= -.38204118E+02 F= -.42931915E+02 E0= -.42889238E+02  EK= 0.35817E+01 SP= 0.10E+01 SK= 0.14E+00 mag=     -0.097
       N       E                     dE             d eps       ncg     rms          rms(c)
DAV:   1    -0.429289853952E+02    0.16594E-02   -0.43107E-02  4016   0.115E+00    0.101E-01
RMM:   2    -0.429301804971E+02   -0.11951E-02   -0.55998E-03  2005   0.246E-01
   1475 T=   759. E= -.38197007E+02 F= -.42930180E+02 E0= -.42887981E+02  EK= 0.34354E+01 SP= 0.12E+01 SK= 0.13E+00 mag=      0.326
       N       E                     dE             d eps       ncg     rms          rms(c)
DAV:   1    -0.429241211562E+02    0.48642E-02   -0.15538E-02  3224   0.993E-01    0.136E-01
RMM:   2    -0.429265852426E+02   -0.24641E-02   -0.68906E-03  2050   0.315E-01    0.110E-01
RMM:   3    -0.429282358086E+02   -0.16506E-02   -0.26326E-03  1890   0.132E-01
   1476 T=   729. E= -.38193271E+02 F= -.42928236E+02 E0= -.42886846E+02  EK= 0.32959E+01 SP= 0.13E+01 SK= 0.12E+00 mag=      0.279
       N       E                     dE             d eps       ncg     rms          rms(c)
DAV:   1    -0.429293471650E+02   -0.27619E-02   -0.31107E-02  3568   0.109E+00    0.963E-02
RMM:   2    -0.429305186065E+02   -0.11714E-02   -0.64517E-03  1965   0.303E-01
   1477 T=   702. E= -.38188891E+02 F= -.42930519E+02 E0= -.42887918E+02  EK= 0.31738E+01 SP= 0.15E+01 SK= 0.11E+00 mag=     -0.143
       N       E                     dE             d eps       ncg     rms          rms(c)
DAV:   1    -0.429254706429E+02    0.38765E-02   -0.44202E-02  3848   0.106E+00    0.129E-01
RMM:   2    -0.429282224584E+02   -0.27518E-02   -0.67109E-03  1999   0.271E-01    0.111E-01
RMM:   3    -0.429297600305E+02   -0.15376E-02   -0.22313E-03  1930   0.110E-01
   1478 T=   678. E= -.38181900E+02 F= -.42929760E+02 E0= -.42888324E+02  EK= 0.30653E+01 SP= 0.16E+01 SK= 0.89E-01 mag=     -0.258
       N       E                     dE             d eps       ncg     rms          rms(c)
DAV:   1    -0.429332581930E+02   -0.50357E-02   -0.34427E-02  3280   0.100E+00    0.942E-02
RMM:   2    -0.429344073172E+02   -0.11491E-02   -0.61830E-03  1949   0.283E-01
   1479 T=   657. E= -.38180800E+02 F= -.42934407E+02 E0= -.42891634E+02  EK= 0.29714E+01 SP= 0.17E+01 SK= 0.69E-01 mag=     -0.060
       N       E                     dE             d eps       ncg     rms          rms(c)
DAV:   1    -0.429355654228E+02   -0.23072E-02   -0.52642E-02  3736   0.104E+00    0.101E-01
RMM:   2    -0.429371829452E+02   -0.16175E-02   -0.66417E-03  1996   0.263E-01
   1480 T=   640. E= -.38175624E+02 F= -.42937183E+02 E0= -.42894679E+02  EK= 0.28955E+01 SP= 0.18E+01 SK= 0.50E-01 mag=      0.262
       N       E                     dE             d eps       ncg     rms          rms(c)
DAV:   1    -0.429409699903E+02   -0.54046E-02   -0.13478E-02  3176   0.101E+00    0.121E-01
RMM:   2    -0.429426647305E+02   -0.16947E-02   -0.65092E-03  2023   0.327E-01
   1481 T=   627. E= -.38169956E+02 F= -.42942665E+02 E0= -.42900797E+02  EK= 0.28389E+01 SP= 0.19E+01 SK= 0.32E-01 mag=      0.479
       N       E                     dE             d eps       ncg     rms          rms(c)
DAV:   1    -0.429502700267E+02   -0.93000E-02   -0.27301E-02  3912   0.105E+00    0.946E-02
RMM:   2    -0.429520094483E+02   -0.17394E-02   -0.63412E-03  1992   0.265E-01
   1482 T=   619. E= -.38165645E+02 F= -.42952009E+02 E0= -.42909679E+02  EK= 0.28009E+01 SP= 0.20E+01 SK= 0.18E-01 mag=      0.443
       N       E                     dE             d eps       ncg     rms          rms(c)
DAV:   1    -0.429625758840E+02   -0.12306E-01   -0.15506E-02  3208   0.941E-01    0.720E-02
RMM:   2    -0.429637752909E+02   -0.11994E-02   -0.59332E-03  1996   0.291E-01
   1483 T=   614. E= -.38163059E+02 F= -.42963775E+02 E0= -.42920457E+02  EK= 0.27797E+01 SP= 0.20E+01 SK= 0.71E-02 mag=      0.115
       N       E                     dE             d eps       ncg     rms          rms(c)
DAV:   1    -0.429735333315E+02   -0.10957E-01   -0.16995E-02  3392   0.996E-01    0.106E-01
RMM:   2    -0.429753787670E+02   -0.18454E-02   -0.63802E-03  2011   0.272E-01    0.864E-02
RMM:   3    -0.429764145760E+02   -0.10358E-02   -0.22985E-03  1918   0.108E-01
   1484 T=   614. E= -.38159084E+02 F= -.42976415E+02 E0= -.42933378E+02  EK= 0.27769E+01 SP= 0.20E+01 SK= 0.12E-02 mag=     -0.188
       N       E                     dE             d eps       ncg     rms          rms(c)
DAV:   1    -0.429908712043E+02   -0.15492E-01   -0.24420E-02  3280   0.979E-01    0.989E-02
RMM:   2    -0.429923572751E+02   -0.14861E-02   -0.53337E-03  1905   0.267E-01
   1485 T=   618. E= -.38154086E+02 F= -.42992357E+02 E0= -.42949060E+02  EK= 0.27945E+01 SP= 0.20E+01 SK= 0.18E-03 mag=     -0.326
       N       E                     dE             d eps       ncg     rms          rms(c)
DAV:   1    -0.430064152062E+02   -0.15544E-01   -0.35950E-02  3760   0.101E+00    0.133E-01
RMM:   2    -0.430087866260E+02   -0.23714E-02   -0.58636E-03  1992   0.238E-01    0.108E-01
RMM:   3    -0.430104631910E+02   -0.16766E-02   -0.20527E-03  1874   0.958E-02
   1486 T=   625. E= -.38149409E+02 F= -.43010463E+02 E0= -.42966666E+02  EK= 0.28297E+01 SP= 0.20E+01 SK= 0.37E-02 mag=     -0.061
       N       E                     dE             d eps       ncg     rms          rms(c)
DAV:   1    -0.430275948246E+02   -0.18808E-01   -0.28457E-02  3256   0.102E+00    0.148E-01
RMM:   2    -0.430307023758E+02   -0.31076E-02   -0.64523E-03  1908   0.294E-01    0.117E-01
RMM:   3    -0.430316754382E+02   -0.97306E-03   -0.16950E-03  1807   0.108E-01
   1487 T=   637. E= -.38147922E+02 F= -.43031675E+02 E0= -.42988074E+02  EK= 0.28804E+01 SP= 0.20E+01 SK= 0.11E-01 mag=      0.243
       N       E                     dE             d eps       ncg     rms          rms(c)
DAV:   1    -0.430525200065E+02   -0.21818E-01   -0.79734E-02  3528   0.113E+00    0.151E-01
RMM:   2    -0.430547426567E+02   -0.22227E-02   -0.85231E-03  2057   0.332E-01    0.110E-01
RMM:   3    -0.430558012762E+02   -0.10586E-02   -0.18742E-03  1989   0.118E-01
   1488 T=   652. E= -.38145765E+02 F= -.43055801E+02 E0= -.43011982E+02  EK= 0.29500E+01 SP= 0.19E+01 SK= 0.21E-01 mag=      0.244
       N       E                     dE             d eps       ncg     rms          rms(c)
DAV:   1    -0.430829731071E+02   -0.28230E-01   -0.38261E-02  3368   0.108E+00    0.958E-02
RMM:   2    -0.430840646914E+02   -0.10916E-02   -0.60315E-03  2026   0.274E-01
   1489 T=   672. E= -.38143951E+02 F= -.43084065E+02 E0= -.43039480E+02  EK= 0.30382E+01 SP= 0.19E+01 SK= 0.33E-01 mag=     -0.042
       N       E                     dE             d eps       ncg     rms          rms(c)
DAV:   1    -0.431084105542E+02   -0.25437E-01   -0.35328E-02  3736   0.103E+00    0.119E-01
RMM:   2    -0.431102818105E+02   -0.18713E-02   -0.67637E-03  2001   0.268E-01    0.939E-02
RMM:   3    -0.431115813002E+02   -0.12995E-02   -0.23641E-03  1948   0.109E-01
   1490 T=   694. E= -.38140344E+02 F= -.43111581E+02 E0= -.43067343E+02  EK= 0.31416E+01 SP= 0.18E+01 SK= 0.46E-01 mag=     -0.217
       N       E                     dE             d eps       ncg     rms          rms(c)
DAV:   1    -0.431430899163E+02   -0.32808E-01   -0.20967E-02  3296   0.106E+00    0.133E-01
RMM:   2    -0.431438678382E+02   -0.77792E-03   -0.47909E-03  1998   0.283E-01
   1491 T=   721. E= -.38138550E+02 F= -.43143868E+02 E0= -.43099227E+02  EK= 0.32609E+01 SP= 0.17E+01 SK= 0.57E-01 mag=     -0.208
       N       E                     dE             d eps       ncg     rms          rms(c)
DAV:   1    -0.431756047190E+02   -0.32515E-01   -0.31410E-02  4000   0.108E+00    0.793E-02
RMM:   2    -0.431764952663E+02   -0.89055E-03   -0.50960E-03  2019   0.241E-01
   1492 T=   750. E= -.38135476E+02 F= -.43176495E+02 E0= -.43131399E+02  EK= 0.33933E+01 SP= 0.16E+01 SK= 0.65E-01 mag=     -0.019
       N       E                     dE             d eps       ncg     rms          rms(c)
DAV:   1    -0.432075517143E+02   -0.31947E-01   -0.14599E-02  2984   0.103E+00    0.111E-01
RMM:   2    -0.432090077718E+02   -0.14561E-02   -0.64097E-03  2029   0.292E-01
   1493 T=   781. E= -.38133154E+02 F= -.43209008E+02 E0= -.43163946E+02  EK= 0.35342E+01 SP= 0.15E+01 SK= 0.70E-01 mag=      0.264
       N       E                     dE             d eps       ncg     rms          rms(c)
DAV:   1    -0.432397863497E+02   -0.32235E-01   -0.24277E-02  3936   0.117E+00    0.126E-01
RMM:   2    -0.432418217649E+02   -0.20354E-02   -0.65979E-03  2016   0.295E-01    0.973E-02
RMM:   3    -0.432428859521E+02   -0.10642E-02   -0.21485E-03  1926   0.117E-01
   1494 T=   814. E= -.38131440E+02 F= -.43242886E+02 E0= -.43198161E+02  EK= 0.36822E+01 SP= 0.14E+01 SK= 0.70E-01 mag=      0.280
       N       E                     dE             d eps       ncg     rms          rms(c)
DAV:   1    -0.432767428860E+02   -0.34921E-01   -0.24813E-02  3496   0.116E+00    0.133E-01
RMM:   2    -0.432781635080E+02   -0.14206E-02   -0.57199E-03  1984   0.302E-01
   1495 T=   848. E= -.38128150E+02 F= -.43278164E+02 E0= -.43232607E+02  EK= 0.38363E+01 SP= 0.12E+01 SK= 0.66E-01 mag=      0.023
       N       E                     dE             d eps       ncg     rms          rms(c)
DAV:   1    -0.433050149779E+02   -0.28272E-01   -0.47322E-02  3944   0.120E+00    0.154E-01
RMM:   2    -0.433076084049E+02   -0.25934E-02   -0.72851E-03  2029   0.269E-01    0.118E-01
RMM:   3    -0.433091959478E+02   -0.15875E-02   -0.21697E-03  1913   0.107E-01
   1496 T=   882. E= -.38121730E+02 F= -.43309196E+02 E0= -.43263859E+02  EK= 0.39882E+01 SP= 0.11E+01 SK= 0.58E-01 mag=     -0.193
       N       E                     dE             d eps       ncg     rms          rms(c)
DAV:   1    -0.433403441194E+02   -0.32736E-01   -0.27258E-02  3376   0.129E+00    0.163E-01
RMM:   2    -0.433420391204E+02   -0.16950E-02   -0.78512E-03  1997   0.342E-01
   1497 T=   913. E= -.38120328E+02 F= -.43342039E+02 E0= -.43296584E+02  EK= 0.41309E+01 SP= 0.10E+01 SK= 0.46E-01 mag=     -0.292
       N       E                     dE             d eps       ncg     rms          rms(c)
DAV:   1    -0.433653045431E+02   -0.24960E-01   -0.58891E-02  3928   0.129E+00    0.145E-01
RMM:   2    -0.433678497068E+02   -0.25452E-02   -0.87975E-03  2048   0.308E-01    0.107E-01
RMM:   3    -0.433692610842E+02   -0.14114E-02   -0.27367E-03  1988   0.122E-01
   1498 T=   941. E= -.38116894E+02 F= -.43369261E+02 E0= -.43323425E+02  EK= 0.42591E+01 SP= 0.96E+00 SK= 0.33E-01 mag=     -0.146
       N       E                     dE             d eps       ncg     rms          rms(c)
DAV:   1    -0.433928944826E+02   -0.25045E-01   -0.25859E-02  3592   0.138E+00    0.193E-01
RMM:   2    -0.433947606960E+02   -0.18662E-02   -0.10072E-02  2208   0.411E-01    0.119E-01
RMM:   3    -0.433951745551E+02   -0.41386E-03   -0.23691E-03  1824   0.155E-01
   1499 T=   965. E= -.38116425E+02 F= -.43395175E+02 E0= -.43349231E+02  EK= 0.43669E+01 SP= 0.89E+00 SK= 0.20E-01 mag=      0.161
       N       E                     dE             d eps       ncg     rms          rms(c)
DAV:   1    -0.434109815842E+02   -0.16221E-01   -0.52968E-02  3720   0.140E+00    0.133E-01
RMM:   2    -0.434130470240E+02   -0.20654E-02   -0.75702E-03  2094   0.327E-01    0.968E-02
RMM:   3    -0.434138389412E+02   -0.79192E-03   -0.22351E-03  1941   0.125E-01
   1500 T=   984. E= -.38110647E+02 F= -.43413839E+02 E0= -.43368330E+02  EK= 0.44521E+01 SP= 0.84E+00 SK= 0.89E-02 mag=      0.312
       N       E                     dE             d eps       ncg     rms          rms(c)
DAV:   1    -0.434263580667E+02   -0.13311E-01   -0.38018E-02  3672   0.122E+00    0.111E-01
RMM:   2    -0.434280298830E+02   -0.16718E-02   -0.65037E-03  2053   0.303E-01
   1501 T=   996. E= -.38108088E+02 F= -.43428030E+02 E0= -.43381951E+02  EK= 0.45053E+01 SP= 0.81E+00 SK= 0.19E-02 mag=      0.216
       N       E                     dE             d eps       ncg     rms          rms(c)
DAV:   1    -0.434347946497E+02   -0.84366E-02   -0.33628E-02  3800   0.127E+00    0.665E-02
RMM:   2    -0.434364062709E+02   -0.16116E-02   -0.74368E-03  2089   0.306E-01
   1502 T=  1000. E= -.38108013E+02 F= -.43436406E+02 E0= -.43390105E+02  EK= 0.45232E+01 SP= 0.81E+00 SK= 0.70E-04 mag=     -0.104
       N       E                     dE             d eps       ncg     rms          rms(c)
DAV:   1    -0.434345032724E+02    0.29138E-03   -0.24982E-02  3120   0.122E+00    0.932E-02
RMM:   2    -0.434364782575E+02   -0.19750E-02   -0.78038E-03  2061   0.326E-01    0.721E-02
RMM:   3    -0.434371659845E+02   -0.68773E-03   -0.24153E-03  1973   0.127E-01
   1503 T=   997. E= -.38104963E+02 F= -.43437166E+02 E0= -.43391614E+02  EK= 0.45088E+01 SP= 0.82E+00 SK= 0.37E-02 mag=     -0.322
       N       E                     dE             d eps       ncg     rms          rms(c)
DAV:   1    -0.434291297327E+02    0.73485E-02   -0.32244E-02  3496   0.123E+00    0.948E-02
RMM:   2    -0.434308129709E+02   -0.16832E-02   -0.53832E-03  1945   0.307E-01
   1504 T=   987. E= -.38095418E+02 F= -.43430813E+02 E0= -.43384935E+02  EK= 0.44666E+01 SP= 0.86E+00 SK= 0.12E-01 mag=     -0.296
       N       E                     dE             d eps       ncg     rms          rms(c)
DAV:   1    -0.434158673874E+02    0.13262E-01   -0.29450E-02  3736   0.134E+00    0.815E-02
RMM:   2    -0.434177702120E+02   -0.19028E-02   -0.72611E-03  2054   0.288E-01    0.629E-02
RMM:   3    -0.434184057639E+02   -0.63555E-03   -0.16591E-03  1792   0.107E-01
   1505 T=   970. E= -.38089405E+02 F= -.43418406E+02 E0= -.43372033E+02  EK= 0.43900E+01 SP= 0.91E+00 SK= 0.25E-01 mag=     -0.013
       N       E                     dE             d eps       ncg     rms          rms(c)
DAV:   1    -0.433956591246E+02    0.22111E-01   -0.25000E-02  2968   0.119E+00    0.971E-02
RMM:   2    -0.433975259787E+02   -0.18669E-02   -0.53162E-03  1990   0.289E-01    0.682E-02
RMM:   3    -0.433980372168E+02   -0.51124E-03   -0.13574E-03  1685   0.107E-01
   1506 T=   947. E= -.38084974E+02 F= -.43398037E+02 E0= -.43352296E+02  EK= 0.42825E+01 SP= 0.99E+00 SK= 0.40E-01 mag=      0.294
       N       E                     dE             d eps       ncg     rms          rms(c)
DAV:   1    -0.433674184700E+02    0.30108E-01   -0.34178E-02  4064   0.135E+00    0.126E-01
RMM:   2    -0.433693756421E+02   -0.19572E-02   -0.60983E-03  2061   0.295E-01    0.926E-02
RMM:   3    -0.433706807853E+02   -0.13051E-02   -0.18042E-03  1898   0.112E-01
   1507 T=   918. E= -.38078383E+02 F= -.43370681E+02 E0= -.43325035E+02  EK= 0.41537E+01 SP= 0.11E+01 SK= 0.55E-01 mag=      0.251
       N       E                     dE             d eps       ncg     rms          rms(c)
DAV:   1    -0.433389235470E+02    0.30452E-01   -0.20082E-02  3696   0.123E+00    0.699E-02
RMM:   2    -0.433399435469E+02   -0.10200E-02   -0.43287E-03  1952   0.259E-01
   1508 T=   886. E= -.38074080E+02 F= -.43339944E+02 E0= -.43293778E+02  EK= 0.40078E+01 SP= 0.12E+01 SK= 0.69E-01 mag=     -0.103
       N       E                     dE             d eps       ncg     rms          rms(c)
DAV:   1    -0.432974216612E+02    0.41502E-01   -0.28399E-02  4160   0.124E+00    0.113E-01
RMM:   2    -0.432994460162E+02   -0.20244E-02   -0.64951E-03  2019   0.262E-01    0.898E-02
RMM:   3    -0.433012720425E+02   -0.18260E-02   -0.29885E-03  1866   0.119E-01    0.680E-02
RMM:   4    -0.433024264515E+02   -0.11544E-02   -0.19211E-03  1851   0.853E-02
   1509 T=   851. E= -.38069442E+02 F= -.43302426E+02 E0= -.43256540E+02  EK= 0.38496E+01 SP= 0.13E+01 SK= 0.79E-01 mag=     -0.103
       N       E                     dE             d eps       ncg     rms          rms(c)
DAV:   1    -0.432596442971E+02    0.41628E-01   -0.19070E-02  3368   0.111E+00    0.768E-02
RMM:   2    -0.432608575853E+02   -0.12133E-02   -0.42545E-03  1944   0.270E-01
   1510 T=   815. E= -.38062610E+02 F= -.43260858E+02 E0= -.43214968E+02  EK= 0.36886E+01 SP= 0.14E+01 SK= 0.84E-01 mag=      0.171
       N       E                     dE             d eps       ncg     rms          rms(c)
DAV:   1    -0.432127318411E+02    0.46912E-01   -0.31404E-02  3992   0.114E+00    0.113E-01
RMM:   2    -0.432146631174E+02   -0.19313E-02   -0.56334E-03  1994   0.247E-01    0.908E-02
RMM:   3    -0.432159504295E+02   -0.12873E-02   -0.17932E-03  1869   0.102E-01
   1511 T=   780. E= -.38055303E+02 F= -.43215950E+02 E0= -.43170526E+02  EK= 0.35284E+01 SP= 0.15E+01 SK= 0.83E-01 mag=      0.202
       N       E                     dE             d eps       ncg     rms          rms(c)
DAV:   1    -0.431689960979E+02    0.45667E-01   -0.25725E-02  3296   0.107E+00    0.103E-01
RMM:   2    -0.431708271354E+02   -0.18310E-02   -0.66267E-03  1936   0.295E-01    0.688E-02
RMM:   3    -0.431713131132E+02   -0.48598E-03   -0.16947E-03  1811   0.114E-01
   1512 T=   745. E= -.38052581E+02 F= -.43171313E+02 E0= -.43125354E+02  EK= 0.33714E+01 SP= 0.17E+01 SK= 0.78E-01 mag=      0.024
       N       E                     dE             d eps       ncg     rms          rms(c)
DAV:   1    -0.431229394453E+02    0.47888E-01   -0.45743E-02  3664   0.107E+00    0.902E-02
RMM:   2    -0.431243256847E+02   -0.13862E-02   -0.56567E-03  2007   0.266E-01
   1513 T=   713. E= -.38045703E+02 F= -.43124326E+02 E0= -.43078466E+02  EK= 0.32267E+01 SP= 0.18E+01 SK= 0.67E-01 mag=     -0.276
       N       E                     dE             d eps       ncg     rms          rms(c)
DAV:   1    -0.430758117708E+02    0.47128E-01   -0.36246E-02  3616   0.108E+00    0.112E-01
RMM:   2    -0.430776541147E+02   -0.18423E-02   -0.59634E-03  2011   0.265E-01    0.888E-02
RMM:   3    -0.430787458571E+02   -0.10917E-02   -0.19923E-03  1947   0.109E-01
   1514 T=   684. E= -.38040958E+02 F= -.43078746E+02 E0= -.43033264E+02  EK= 0.30942E+01 SP= 0.19E+01 SK= 0.54E-01 mag=     -0.243
       N       E                     dE             d eps       ncg     rms          rms(c)
DAV:   1    -0.430349769012E+02    0.42677E-01   -0.23157E-02  3384   0.103E+00    0.116E-01
RMM:   2    -0.430364212020E+02   -0.14443E-02   -0.55702E-03  1892   0.265E-01
   1515 T=   659. E= -.38035423E+02 F= -.43036421E+02 E0= -.42990289E+02  EK= 0.29801E+01 SP= 0.20E+01 SK= 0.40E-01 mag=      0.093
       N       E                     dE             d eps       ncg     rms          rms(c)
DAV:   1    -0.429895242012E+02    0.45453E-01   -0.42992E-02  3720   0.108E+00    0.152E-01
RMM:   2    -0.429925352702E+02   -0.30111E-02   -0.70631E-03  2010   0.264E-01    0.126E-01
RMM:   3    -0.429945492178E+02   -0.20139E-02   -0.25233E-03  1913   0.108E-01    0.102E-01
RMM:   4    -0.429976159547E+02   -0.30667E-02   -0.56727E-03  1980   0.105E-01    0.348E-02
RMM:   5    -0.429977810021E+02   -0.16505E-03   -0.44944E-04  1612   0.578E-02
   1516 T=   637. E= -.38031063E+02 F= -.42997781E+02 E0= -.42951414E+02  EK= 0.28839E+01 SP= 0.21E+01 SK= 0.25E-01 mag=      0.066
       N       E                     dE             d eps       ncg     rms          rms(c)
DAV:   1    -0.429545421813E+02    0.43074E-01   -0.23228E-02  3184   0.940E-01    0.173E-01
RMM:   2    -0.429575531902E+02   -0.30110E-02   -0.87341E-03  1942   0.247E-01    0.133E-01
RMM:   3    -0.429594693838E+02   -0.19162E-02   -0.28505E-03  1852   0.101E-01    0.104E-01
RMM:   4    -0.429621128561E+02   -0.26435E-02   -0.44768E-03  1861   0.873E-02    0.486E-02
RMM:   5    -0.429624424367E+02   -0.32958E-03   -0.41327E-04  1594   0.520E-02
   1517 T=   620. E= -.38029616E+02 F= -.42962442E+02 E0= -.42915812E+02  EK= 0.28043E+01 SP= 0.21E+01 SK= 0.13E-01 mag=     -0.039
       N       E                     dE             d eps       ncg     rms          rms(c)
DAV:   1    -0.429316742700E+02    0.30439E-01   -0.10955E-02  3272   0.933E-01    0.758E-02
RMM:   2    -0.429324579222E+02   -0.78365E-03   -0.40994E-03  1998   0.242E-01
   1518 T=   608. E= -.38025237E+02 F= -.42932458E+02 E0= -.42885596E+02  EK= 0.27495E+01 SP= 0.22E+01 SK= 0.41E-02 mag=     -0.159
       N       E                     dE             d eps       ncg     rms          rms(c)
DAV:   1    -0.429066006266E+02    0.25074E-01   -0.12816E-02  3400   0.958E-01    0.934E-02
RMM:   2    -0.429080819684E+02   -0.14813E-02   -0.59364E-03  2002   0.255E-01
   1519 T=   601. E= -.38019795E+02 F= -.42908082E+02 E0= -.42861030E+02  EK= 0.27181E+01 SP= 0.22E+01 SK= 0.16E-03 mag=     -0.211
       N       E                     dE             d eps       ncg     rms          rms(c)
DAV:   1    -0.428909015275E+02    0.15699E-01   -0.12613E-02  3168   0.919E-01    0.884E-02
RMM:   2    -0.428922049974E+02   -0.13035E-02   -0.49180E-03  1998   0.261E-01
   1520 T=   599. E= -.38016201E+02 F= -.42892205E+02 E0= -.42844703E+02  EK= 0.27102E+01 SP= 0.22E+01 SK= 0.16E-02 mag=     -0.147
       N       E                     dE             d eps       ncg     rms          rms(c)
DAV:   1    -0.428845281468E+02    0.63734E-02   -0.16849E-02  3368   0.973E-01    0.587E-02
RMM:   2    -0.428854700946E+02   -0.94195E-03   -0.56162E-03  2006   0.269E-01
   1521 T=   603. E= -.38012587E+02 F= -.42885470E+02 E0= -.42837335E+02  EK= 0.27283E+01 SP= 0.21E+01 SK= 0.86E-02 mag=      0.011
       N       E                     dE             d eps       ncg     rms          rms(c)
DAV:   1    -0.428837981775E+02    0.72997E-03   -0.11388E-02  3048   0.899E-01    0.647E-02
RMM:   2    -0.428848841629E+02   -0.10860E-02   -0.62101E-03  2004   0.275E-01
   1522 T=   613. E= -.38006208E+02 F= -.42884884E+02 E0= -.42836375E+02  EK= 0.27724E+01 SP= 0.21E+01 SK= 0.21E-01 mag=      0.204
       N       E                     dE             d eps       ncg     rms          rms(c)
DAV:   1    -0.428878091862E+02   -0.40110E-02   -0.14576E-02  3504   0.954E-01    0.123E-01
RMM:   2    -0.428900192877E+02   -0.22101E-02   -0.66239E-03  1977   0.254E-01    0.103E-01
RMM:   3    -0.428925141750E+02   -0.24949E-02   -0.39482E-03  1829   0.116E-01    0.722E-02
RMM:   4    -0.428940085593E+02   -0.14944E-02   -0.32763E-03  1828   0.923E-02
   1523 T=   628. E= -.38002978E+02 F= -.42894009E+02 E0= -.42844827E+02  EK= 0.28401E+01 SP= 0.20E+01 SK= 0.36E-01 mag=      0.095
       N       E                     dE             d eps       ncg     rms          rms(c)
DAV:   1    -0.429043823993E+02   -0.11868E-01   -0.15703E-02  3112   0.903E-01    0.133E-01
RMM:   2    -0.429068130466E+02   -0.24306E-02   -0.67192E-03  1853   0.222E-01    0.108E-01
RMM:   3    -0.429091644867E+02   -0.23514E-02   -0.35583E-03  1824   0.920E-02    0.778E-02
RMM:   4    -0.429107209476E+02   -0.15565E-02   -0.26608E-03  1829   0.744E-02
   1524 T=   648. E= -.38001453E+02 F= -.42910721E+02 E0= -.42860952E+02  EK= 0.29305E+01 SP= 0.19E+01 SK= 0.55E-01 mag=     -0.102
       N       E                     dE             d eps       ncg     rms          rms(c)
DAV:   1    -0.429344100104E+02   -0.25246E-01   -0.15077E-02  3224   0.938E-01    0.893E-02
RMM:   2    -0.429353150546E+02   -0.90504E-03   -0.46829E-03  1987   0.237E-01
   1525 T=   674. E= -.37997240E+02 F= -.42935315E+02 E0= -.42885124E+02  EK= 0.30482E+01 SP= 0.18E+01 SK= 0.73E-01 mag=     -0.268
       N       E                     dE             d eps       ncg     rms          rms(c)
DAV:   1    -0.429667766910E+02   -0.32367E-01   -0.18699E-02  3560   0.961E-01    0.654E-02
RMM:   2    -0.429677341468E+02   -0.95746E-03   -0.50213E-03  1999   0.254E-01
   1526 T=   705. E= -.37994456E+02 F= -.42967734E+02 E0= -.42916854E+02  EK= 0.31881E+01 SP= 0.17E+01 SK= 0.90E-01 mag=     -0.314
       N       E                     dE             d eps       ncg     rms          rms(c)
DAV:   1    -0.430059441759E+02   -0.39167E-01   -0.14873E-02  3240   0.995E-01    0.754E-02
RMM:   2    -0.430070676548E+02   -0.11235E-02   -0.51334E-03  2005   0.261E-01
   1527 T=   740. E= -.37992615E+02 F= -.43007068E+02 E0= -.42955232E+02  EK= 0.33487E+01 SP= 0.16E+01 SK= 0.10E+00 mag=     -0.172
       N       E                     dE             d eps       ncg     rms          rms(c)
DAV:   1    -0.430517078164E+02   -0.45764E-01   -0.14663E-02  3024   0.105E+00    0.674E-02
RMM:   2    -0.430527659683E+02   -0.10582E-02   -0.55788E-03  2005   0.284E-01
   1528 T=   780. E= -.37988438E+02 F= -.43052766E+02 E0= -.43000151E+02  EK= 0.35305E+01 SP= 0.14E+01 SK= 0.11E+00 mag=      0.129
       N       E                     dE             d eps       ncg     rms          rms(c)
DAV:   1    -0.431008377760E+02   -0.49130E-01   -0.12656E-02  3088   0.105E+00    0.827E-02
RMM:   2    -0.431022145773E+02   -0.13768E-02   -0.63764E-03  2029   0.302E-01
   1529 T=   824. E= -.37982770E+02 F= -.43102215E+02 E0= -.43049593E+02  EK= 0.37270E+01 SP= 0.13E+01 SK= 0.11E+00 mag=      0.443
       N       E                     dE             d eps       ncg     rms          rms(c)
DAV:   1    -0.431527215430E+02   -0.51884E-01   -0.18421E-02  3328   0.112E+00    0.102E-01
RMM:   2    -0.431544757329E+02   -0.17542E-02   -0.67597E-03  2005   0.308E-01
   1530 T=   869. E= -.37977165E+02 F= -.43154476E+02 E0= -.43101578E+02  EK= 0.39311E+01 SP= 0.11E+01 SK= 0.10E+00 mag=      0.596
       N       E                     dE             d eps       ncg     rms          rms(c)
DAV:   1    -0.432074946811E+02   -0.54773E-01   -0.18061E-02  3192   0.115E+00    0.995E-02
RMM:   2    -0.432094014721E+02   -0.19068E-02   -0.77773E-03  2057   0.319E-01    0.818E-02
RMM:   3    -0.432107697532E+02   -0.13683E-02   -0.28759E-03  1893   0.132E-01
   1531 T=   914. E= -.37975060E+02 F= -.43210770E+02 E0= -.43156154E+02  EK= 0.41350E+01 SP= 0.10E+01 SK= 0.87E-01 mag=      0.221
       N       E                     dE             d eps       ncg     rms          rms(c)
DAV:   1    -0.432627077226E+02   -0.53306E-01   -0.25129E-02  3416   0.118E+00    0.115E-01
RMM:   2    -0.432646109409E+02   -0.19032E-02   -0.56892E-03  1958   0.304E-01    0.886E-02
RMM:   3    -0.432654436746E+02   -0.83273E-03   -0.14678E-03  1695   0.110E-01
   1532 T=   958. E= -.37970188E+02 F= -.43265444E+02 E0= -.43210398E+02  EK= 0.43323E+01 SP= 0.90E+00 SK= 0.67E-01 mag=     -0.352
       N       E                     dE             d eps       ncg     rms          rms(c)
DAV:   1    -0.433119402853E+02   -0.47329E-01   -0.36565E-02  3528   0.121E+00    0.158E-01
RMM:   2    -0.433144814139E+02   -0.25411E-02   -0.72493E-03  2056   0.294E-01    0.124E-01
RMM:   3    -0.433168879865E+02   -0.24066E-02   -0.30413E-03  1840   0.139E-01    0.921E-02
RMM:   4    -0.433184963110E+02   -0.16083E-02   -0.18162E-03  1826   0.925E-02
   1533 T=   997. E= -.37966424E+02 F= -.43318496E+02 E0= -.43262695E+02  EK= 0.45115E+01 SP= 0.80E+00 SK= 0.45E-01 mag=     -0.311
       N       E                     dE             d eps       ncg     rms          rms(c)
DAV:   1    -0.433668598993E+02   -0.49972E-01   -0.16209E-02  3168   0.122E+00    0.104E-01
RMM:   2    -0.433679830883E+02   -0.11232E-02   -0.53559E-03  2052   0.271E-01
   1534 T=  1031. E= -.37961445E+02 F= -.43367983E+02 E0= -.43311030E+02  EK= 0.46651E+01 SP= 0.72E+00 SK= 0.24E-01 mag=      0.244
       N       E                     dE             d eps       ncg     rms          rms(c)
DAV:   1    -0.434023994753E+02   -0.35540E-01   -0.38539E-02  3984   0.128E+00    0.168E-01
RMM:   2    -0.434059617539E+02   -0.35623E-02   -0.82979E-03  2030   0.315E-01    0.137E-01
RMM:   3    -0.434093509324E+02   -0.33892E-02   -0.42036E-03  1829   0.144E-01    0.104E-01
RMM:   4    -0.434123606701E+02   -0.30097E-02   -0.49944E-03  1957   0.118E-01    0.424E-02
RMM:   5    -0.434128699821E+02   -0.50931E-03   -0.11823E-03  1766   0.724E-02
   1535 T=  1057. E= -.37957938E+02 F= -.43412870E+02 E0= -.43355369E+02  EK= 0.47820E+01 SP= 0.66E+00 SK= 0.82E-02 mag=      0.106
       N       E                     dE             d eps       ncg     rms          rms(c)
DAV:   1    -0.434437841149E+02   -0.31423E-01   -0.29551E-02  3376   0.125E+00    0.151E-01
RMM:   2    -0.434465988526E+02   -0.28147E-02   -0.70315E-03  1943   0.278E-01    0.113E-01
RMM:   3    -0.434487824072E+02   -0.21836E-02   -0.33451E-03  1824   0.123E-01    0.869E-02
RMM:   4    -0.434503652076E+02   -0.15828E-02   -0.23537E-03  1826   0.841E-02
   1536 T=  1073. E= -.37955496E+02 F= -.43450365E+02 E0= -.43392574E+02  EK= 0.48537E+01 SP= 0.64E+00 SK= 0.43E-03 mag=     -0.200
       N       E                     dE             d eps       ncg     rms          rms(c)
DAV:   1    -0.434775627614E+02   -0.28780E-01   -0.33292E-02  3888   0.130E+00    0.104E-01
RMM:   2    -0.434796053091E+02   -0.20425E-02   -0.71544E-03  1962   0.284E-01    0.731E-02
RMM:   3    -0.434807058043E+02   -0.11005E-02   -0.28470E-03  1825   0.123E-01
   1537 T=  1079. E= -.37950596E+02 F= -.43480706E+02 E0= -.43423414E+02  EK= 0.48801E+01 SP= 0.65E+00 SK= 0.27E-02 mag=     -0.419
       N       E                     dE             d eps       ncg     rms          rms(c)
DAV:   1    -0.435020392770E+02   -0.22434E-01   -0.29565E-02  3600   0.123E+00    0.944E-02
RMM:   2    -0.435037244554E+02   -0.16852E-02   -0.63024E-03  1958   0.309E-01
   1538 T=  1074. E= -.37944767E+02 F= -.43503724E+02 E0= -.43445960E+02  EK= 0.48584E+01 SP= 0.68E+00 SK= 0.16E-01 mag=     -0.404
       N       E                     dE             d eps       ncg     rms          rms(c)
DAV:   1    -0.435175251619E+02   -0.15486E-01   -0.31859E-02  4064   0.141E+00    0.703E-02
RMM:   2    -0.435191149666E+02   -0.15898E-02   -0.66808E-03  2037   0.290E-01
   1539 T=  1058. E= -.37940534E+02 F= -.43519115E+02 E0= -.43460326E+02  EK= 0.47874E+01 SP= 0.75E+00 SK= 0.38E-01 mag=     -0.126
       N       E                     dE             d eps       ncg     rms          rms(c)
DAV:   1    -0.435237552762E+02   -0.62301E-02   -0.17850E-02  2808   0.118E+00    0.730E-02
RMM:   2    -0.435254202542E+02   -0.16650E-02   -0.72380E-03  2044   0.342E-01
   1540 T=  1033. E= -.37932081E+02 F= -.43525420E+02 E0= -.43467088E+02  EK= 0.46756E+01 SP= 0.85E+00 SK= 0.68E-01 mag=      0.330
       N       E                     dE             d eps       ncg     rms          rms(c)
DAV:   1    -0.435197121659E+02    0.40431E-02   -0.32890E-02  3992   0.131E+00    0.104E-01
RMM:   2    -0.435220367433E+02   -0.23246E-02   -0.77061E-03  2033   0.305E-01    0.867E-02
RMM:   3    -0.435230378527E+02   -0.10011E-02   -0.23585E-03  1928   0.116E-01
   1541 T=  1001. E= -.37922105E+02 F= -.43523038E+02 E0= -.43466435E+02  EK= 0.45271E+01 SP= 0.97E+00 SK= 0.10E+00 mag=      0.423
       N       E                     dE             d eps       ncg     rms          rms(c)
DAV:   1    -0.435143831666E+02    0.76536E-02   -0.31874E-02  3328   0.116E+00    0.973E-02
RMM:   2    -0.435162813627E+02   -0.18982E-02   -0.67394E-03  1981   0.321E-01    0.616E-02
RMM:   3    -0.435167594711E+02   -0.47811E-03   -0.16582E-03  1790   0.113E-01
   1542 T=   961. E= -.37917439E+02 F= -.43516759E+02 E0= -.43458197E+02  EK= 0.43476E+01 SP= 0.11E+01 SK= 0.13E+00 mag=      0.120
       N       E                     dE             d eps       ncg     rms          rms(c)
DAV:   1    -0.434999692473E+02    0.16312E-01   -0.45618E-02  3824   0.119E+00    0.809E-02
RMM:   2    -0.435014680563E+02   -0.14988E-02   -0.62880E-03  2009   0.270E-01
   1543 T=   917. E= -.37908293E+02 F= -.43501468E+02 E0= -.43444043E+02  EK= 0.41500E+01 SP= 0.13E+01 SK= 0.16E+00 mag=     -0.454
       N       E                     dE             d eps       ncg     rms          rms(c)
DAV:   1    -0.434750985020E+02    0.24871E-01   -0.30235E-02  3808   0.117E+00    0.144E-01
RMM:   2    -0.434778884524E+02   -0.27900E-02   -0.74596E-03  2002   0.279E-01    0.118E-01
RMM:   3    -0.434798442888E+02   -0.19558E-02   -0.29190E-03  1878   0.123E-01    0.964E-02
RMM:   4    -0.434825235823E+02   -0.26793E-02   -0.47103E-03  2020   0.107E-01    0.512E-02
RMM:   5    -0.434834086527E+02   -0.88507E-03   -0.19435E-03  1868   0.756E-02
   1544 T=   870. E= -.37905514E+02 F= -.43483409E+02 E0= -.43425497E+02  EK= 0.39379E+01 SP= 0.15E+01 SK= 0.18E+00 mag=     -0.089
       N       E                     dE             d eps       ncg     rms          rms(c)
DAV:   1    -0.434525076976E+02    0.30016E-01   -0.30480E-02  3408   0.113E+00    0.159E-01
RMM:   2    -0.434553274519E+02   -0.28198E-02   -0.64591E-03  1939   0.282E-01    0.125E-01
RMM:   3    -0.434571213892E+02   -0.17939E-02   -0.26997E-03  1825   0.109E-01
   1545 T=   823. E= -.37897170E+02 F= -.43457121E+02 E0= -.43402415E+02  EK= 0.37251E+01 SP= 0.16E+01 SK= 0.19E+00 mag=      0.622
       N       E                     dE             d eps       ncg     rms          rms(c)
DAV:   1    -0.434211894470E+02    0.34138E-01   -0.51079E-02  3768   0.112E+00    0.204E-01
RMM:   2    -0.434258426098E+02   -0.46532E-02   -0.87989E-03  1990   0.300E-01    0.165E-01
RMM:   3    -0.434307169509E+02   -0.48743E-02   -0.62035E-03  1833   0.147E-01    0.117E-01
RMM:   4    -0.434338379671E+02   -0.31210E-02   -0.45306E-03  1856   0.125E-01    0.642E-02
RMM:   5    -0.434347722094E+02   -0.93424E-03   -0.13861E-03  1817   0.781E-02
   1546 T=   778. E= -.37895202E+02 F= -.43434772E+02 E0= -.43378050E+02  EK= 0.35179E+01 SP= 0.18E+01 SK= 0.19E+00 mag=      0.157
       N       E                     dE             d eps       ncg     rms          rms(c)
DAV:   1    -0.433972745602E+02    0.36563E-01   -0.26748E-02  3424   0.107E+00    0.187E-01
RMM:   2    -0.434007416054E+02   -0.34670E-02   -0.69946E-03  1882   0.246E-01    0.151E-01
RMM:   3    -0.434041642651E+02   -0.34227E-02   -0.37039E-03  1825   0.127E-01    0.108E-01
RMM:   4    -0.434060933091E+02   -0.19290E-02   -0.15878E-03  1816   0.859E-02    0.778E-02
RMM:   5    -0.434079159945E+02   -0.18227E-02   -0.28722E-03  1924   0.817E-02    0.394E-02
RMM:   6    -0.434083565138E+02   -0.44052E-03   -0.93815E-04  1694   0.592E-02
   1547 T=   734. E= -.37893743E+02 F= -.43408357E+02 E0= -.43351521E+02  EK= 0.33189E+01 SP= 0.20E+01 SK= 0.18E+00 mag=     -0.112
       N       E                     dE             d eps       ncg     rms          rms(c)
DAV:   1    -0.433794603862E+02    0.28456E-01   -0.23849E-02  3696   0.102E+00    0.757E-02
RMM:   2    -0.433803888043E+02   -0.92842E-03   -0.42081E-03  1981   0.232E-01
   1548 T=   694. E= -.37888708E+02 F= -.43380389E+02 E0= -.43324207E+02  EK= 0.31381E+01 SP= 0.22E+01 SK= 0.16E+00 mag=     -0.176
       N       E                     dE             d eps       ncg     rms          rms(c)
DAV:   1    -0.433518328254E+02    0.27628E-01   -0.17100E-02  3768   0.974E-01    0.818E-02
RMM:   2    -0.433531157479E+02   -0.12829E-02   -0.49053E-03  1989   0.242E-01
   1549 T=   658. E= -.37884365E+02 F= -.43353116E+02 E0= -.43297257E+02  EK= 0.29756E+01 SP= 0.24E+01 SK= 0.14E+00 mag=     -0.051
       N       E                     dE             d eps       ncg     rms          rms(c)
DAV:   1    -0.433271970786E+02    0.24636E-01   -0.11446E-02  2752   0.971E-01    0.682E-02
RMM:   2    -0.433281609825E+02   -0.96390E-03   -0.49682E-03  2004   0.257E-01
   1550 T=   627. E= -.37880479E+02 F= -.43328161E+02 E0= -.43273013E+02  EK= 0.28347E+01 SP= 0.25E+01 SK= 0.11E+00 mag=      0.205
       N       E                     dE             d eps       ncg     rms          rms(c)
DAV:   1    -0.433029550683E+02    0.24242E-01   -0.21339E-02  3720   0.101E+00    0.610E-02
RMM:   2    -0.433040679865E+02   -0.11129E-02   -0.55111E-03  1989   0.258E-01
   1551 T=   601. E= -.37873507E+02 F= -.43304068E+02 E0= -.43250633E+02  EK= 0.27178E+01 SP= 0.26E+01 SK= 0.79E-01 mag=      0.492
       N       E                     dE             d eps       ncg     rms          rms(c)
DAV:   1    -0.432790004757E+02    0.23955E-01   -0.13643E-02  3176   0.893E-01    0.112E-01
RMM:   2    -0.432808412298E+02   -0.18408E-02   -0.60687E-03  1994   0.265E-01    0.941E-02
RMM:   3    -0.432825358084E+02   -0.16946E-02   -0.29440E-03  1849   0.109E-01
   1552 T=   580. E= -.37868057E+02 F= -.43282536E+02 E0= -.43229871E+02  EK= 0.26222E+01 SP= 0.27E+01 SK= 0.51E-01 mag=      0.303
       N       E                     dE             d eps       ncg     rms          rms(c)
DAV:   1    -0.432645934218E+02    0.16248E-01   -0.36330E-02  3248   0.919E-01    0.787E-02
RMM:   2    -0.432660249442E+02   -0.14315E-02   -0.57084E-03  1881   0.265E-01
   1553 T=   564. E= -.37863521E+02 F= -.43266025E+02 E0= -.43213012E+02  EK= 0.25509E+01 SP= 0.28E+01 SK= 0.27E-01 mag=     -0.301
       N       E                     dE             d eps       ncg     rms          rms(c)
DAV:   1    -0.432406022914E+02    0.23991E-01   -0.58594E-02  3536   0.949E-01    0.173E-01
RMM:   2    -0.432442091529E+02   -0.36069E-02   -0.73063E-03  1993   0.250E-01    0.144E-01
RMM:   3    -0.432482843589E+02   -0.40752E-02   -0.49817E-03  1843   0.121E-01    0.107E-01
RMM:   4    -0.432512266211E+02   -0.29423E-02   -0.47818E-03  1903   0.110E-01    0.576E-02
RMM:   5    -0.432522802012E+02   -0.10536E-02   -0.27035E-03  1900   0.848E-02
   1554 T=   553. E= -.37860235E+02 F= -.43252280E+02 E0= -.43199582E+02  EK= 0.25008E+01 SP= 0.29E+01 SK= 0.10E-01 mag=     -0.114
       N       E                     dE             d eps       ncg     rms          rms(c)
DAV:   1    -0.432328253976E+02    0.18401E-01   -0.32516E-02  3160   0.945E-01    0.155E-01
RMM:   2    -0.432359236571E+02   -0.30983E-02   -0.87851E-03  1872   0.244E-01    0.124E-01
RMM:   3    -0.432384366134E+02   -0.25130E-02   -0.41709E-03  1824   0.105E-01    0.936E-02
RMM:   4    -0.432402112511E+02   -0.17746E-02   -0.28581E-03  1834   0.777E-02
   1555 T=   546. E= -.37857881E+02 F= -.43240211E+02 E0= -.43188868E+02  EK= 0.24712E+01 SP= 0.29E+01 SK= 0.12E-02 mag=      0.313
       N       E                     dE             d eps       ncg     rms          rms(c)
DAV:   1    -0.432285715840E+02    0.98650E-02   -0.27602E-02  3240   0.906E-01    0.136E-01
RMM:   2    -0.432305396717E+02   -0.19681E-02   -0.53858E-03  1966   0.242E-01    0.105E-01
RMM:   3    -0.432324597230E+02   -0.19201E-02   -0.30371E-03  1826   0.122E-01    0.752E-02
RMM:   4    -0.432335134772E+02   -0.10538E-02   -0.16326E-03  1825   0.833E-02
   1556 T=   545. E= -.37856677E+02 F= -.43233513E+02 E0= -.43182736E+02  EK= 0.24653E+01 SP= 0.29E+01 SK= 0.11E-02 mag=      0.333
       N       E                     dE             d eps       ncg     rms          rms(c)
DAV:   1    -0.432301502264E+02    0.23095E-02   -0.11370E-02  3024   0.854E-01    0.952E-02
RMM:   2    -0.432310215528E+02   -0.87133E-03   -0.39022E-03  1984   0.219E-01
   1557 T=   550. E= -.37852698E+02 F= -.43231022E+02 E0= -.43180122E+02  EK= 0.24860E+01 SP= 0.29E+01 SK= 0.98E-02 mag=     -0.024
       N       E                     dE             d eps       ncg     rms          rms(c)
DAV:   1    -0.432283022331E+02    0.18480E-02   -0.20702E-02  3784   0.945E-01    0.105E-01
RMM:   2    -0.432297495169E+02   -0.14473E-02   -0.47953E-03  1980   0.220E-01
   1558 T=   559. E= -.37845927E+02 F= -.43229750E+02 E0= -.43180981E+02  EK= 0.25304E+01 SP= 0.28E+01 SK= 0.27E-01 mag=     -0.532
       N       E                     dE             d eps       ncg     rms          rms(c)
DAV:   1    -0.432283408658E+02   -0.38633E-04   -0.13426E-02  3024   0.921E-01    0.152E-01
RMM:   2    -0.432311901656E+02   -0.28493E-02   -0.58512E-03  1983   0.250E-01    0.126E-01
RMM:   3    -0.432333229934E+02   -0.21328E-02   -0.30949E-03  1856   0.115E-01    0.102E-01
RMM:   4    -0.432364044171E+02   -0.30814E-02   -0.63293E-03  2027   0.118E-01    0.514E-02
RMM:   5    -0.432370659018E+02   -0.66148E-03   -0.13282E-03  1772   0.727E-02
   1559 T=   574. E= -.37847860E+02 F= -.43237066E+02 E0= -.43187566E+02  EK= 0.25946E+01 SP= 0.27E+01 SK= 0.51E-01 mag=     -0.090
       N       E                     dE             d eps       ncg     rms          rms(c)
DAV:   1    -0.432328205588E+02    0.35839E-02   -0.29273E-02  3464   0.975E-01    0.191E-01
RMM:   2    -0.432365918460E+02   -0.37713E-02   -0.65992E-03  1926   0.236E-01    0.157E-01
RMM:   3    -0.432392627844E+02   -0.26709E-02   -0.29355E-03  1826   0.957E-02    0.128E-01
RMM:   4    -0.432432115165E+02   -0.39487E-02   -0.49181E-03  1965   0.954E-02    0.731E-02
RMM:   5    -0.432447958435E+02   -0.15843E-02   -0.28004E-03  1903   0.825E-02
   1560 T=   593. E= -.37847424E+02 F= -.43244796E+02 E0= -.43196034E+02  EK= 0.26818E+01 SP= 0.26E+01 SK= 0.80E-01 mag=      0.099
       N       E                     dE             d eps       ncg     rms          rms(c)
DAV:   1    -0.432542082876E+02   -0.10997E-01   -0.21472E-02  3392   0.956E-01    0.753E-02
RMM:   2    -0.432551297007E+02   -0.92141E-03   -0.47405E-03  2002   0.250E-01
   1561 T=   618. E= -.37844776E+02 F= -.43255130E+02 E0= -.43206726E+02  EK= 0.27944E+01 SP= 0.25E+01 SK= 0.11E+00 mag=      0.031
       N       E                     dE             d eps       ncg     rms          rms(c)
DAV:   1    -0.432648876489E+02   -0.10679E-01   -0.24757E-02  3752   0.973E-01    0.104E-01
RMM:   2    -0.432666196828E+02   -0.17320E-02   -0.59620E-03  2007   0.250E-01
   1562 T=   647. E= -.37841914E+02 F= -.43266620E+02 E0= -.43218968E+02  EK= 0.29288E+01 SP= 0.24E+01 SK= 0.14E+00 mag=     -0.214
       N       E                     dE             d eps       ncg     rms          rms(c)
DAV:   1    -0.432786945965E+02   -0.13807E-01   -0.14272E-02  2976   0.983E-01    0.118E-01
RMM:   2    -0.432804640952E+02   -0.17695E-02   -0.49942E-03  2016   0.261E-01
   1563 T=   682. E= -.37839931E+02 F= -.43280464E+02 E0= -.43234222E+02  EK= 0.30849E+01 SP= 0.22E+01 SK= 0.17E+00 mag=     -0.414
       N       E                     dE             d eps       ncg     rms          rms(c)
DAV:   1    -0.432960553702E+02   -0.17361E-01   -0.29317E-02  3808   0.115E+00    0.795E-02
RMM:   2    -0.432975895025E+02   -0.15341E-02   -0.74674E-03  1969   0.284E-01
   1564 T=   721. E= -.37838108E+02 F= -.43297590E+02 E0= -.43251831E+02  EK= 0.32635E+01 SP= 0.20E+01 SK= 0.19E+00 mag=     -0.466
       N       E                     dE             d eps       ncg     rms          rms(c)
DAV:   1    -0.433088063337E+02   -0.12751E-01   -0.25298E-02  3440   0.104E+00    0.123E-01
RMM:   2    -0.433111431159E+02   -0.23368E-02   -0.84573E-03  1993   0.305E-01    0.972E-02
RMM:   3    -0.433122382908E+02   -0.10952E-02   -0.24573E-03  1917   0.116E-01
   1565 T=   764. E= -.37834742E+02 F= -.43312238E+02 E0= -.43266270E+02  EK= 0.34585E+01 SP= 0.18E+01 SK= 0.21E+00 mag=     -0.168
       N       E                     dE             d eps       ncg     rms          rms(c)
DAV:   1    -0.433244416700E+02   -0.13299E-01   -0.35359E-02  3376   0.111E+00    0.921E-02
RMM:   2    -0.433262919450E+02   -0.18503E-02   -0.62514E-03  2003   0.307E-01    0.640E-02
RMM:   3    -0.433267706730E+02   -0.47873E-03   -0.15852E-03  1769   0.107E-01
   1566 T=   810. E= -.37832600E+02 F= -.43326771E+02 E0= -.43281516E+02  EK= 0.36667E+01 SP= 0.16E+01 SK= 0.21E+00 mag=      0.297
       N       E                     dE             d eps       ncg     rms          rms(c)
DAV:   1    -0.433313822069E+02   -0.50903E-02   -0.66587E-02  3592   0.121E+00    0.146E-01
RMM:   2    -0.433337988363E+02   -0.24166E-02   -0.70536E-03  2033   0.293E-01    0.113E-01
RMM:   3    -0.433351398373E+02   -0.13410E-02   -0.20918E-03  1952   0.114E-01
   1567 T=   858. E= -.37827766E+02 F= -.43335140E+02 E0= -.43291210E+02  EK= 0.38815E+01 SP= 0.14E+01 SK= 0.20E+00 mag=      0.321
       N       E                     dE             d eps       ncg     rms          rms(c)
DAV:   1    -0.433422380785E+02   -0.84392E-02   -0.31276E-02  3568   0.122E+00    0.811E-02
RMM:   2    -0.433435842303E+02   -0.13462E-02   -0.69912E-03  1991   0.308E-01
   1568 T=   906. E= -.37826930E+02 F= -.43343584E+02 E0= -.43298401E+02  EK= 0.40967E+01 SP= 0.12E+01 SK= 0.18E+00 mag=     -0.073
       N       E                     dE             d eps       ncg     rms          rms(c)
DAV:   1    -0.433374097335E+02    0.48283E-02   -0.54753E-02  3896   0.127E+00    0.119E-01
RMM:   2    -0.433398248107E+02   -0.24151E-02   -0.87545E-03  2052   0.308E-01    0.960E-02
RMM:   3    -0.433412167710E+02   -0.13920E-02   -0.27852E-03  1953   0.124E-01
   1569 T=   951. E= -.37822935E+02 F= -.43341217E+02 E0= -.43297827E+02  EK= 0.43014E+01 SP= 0.11E+01 SK= 0.16E+00 mag=     -0.365
       N       E                     dE             d eps       ncg     rms          rms(c)
DAV:   1    -0.433322638293E+02    0.75610E-02   -0.38881E-02  3512   0.125E+00    0.108E-01
RMM:   2    -0.433338147701E+02   -0.15509E-02   -0.60146E-03  1931   0.284E-01
   1570 T=   992. E= -.37819168E+02 F= -.43333815E+02 E0= -.43290395E+02  EK= 0.44900E+01 SP= 0.90E+00 SK= 0.12E+00 mag=     -0.423
       N       E                     dE             d eps       ncg     rms          rms(c)
DAV:   1    -0.433157287929E+02    0.16535E-01   -0.55102E-02  4184   0.137E+00    0.789E-02
RMM:   2    -0.433174698143E+02   -0.17410E-02   -0.68485E-03  2067   0.285E-01
   1571 T=  1028. E= -.37814839E+02 F= -.43317470E+02 E0= -.43273483E+02  EK= 0.46507E+01 SP= 0.77E+00 SK= 0.87E-01 mag=     -0.190
       N       E                     dE             d eps       ncg     rms          rms(c)
DAV:   1    -0.432889251388E+02    0.26804E-01   -0.24406E-02  2920   0.123E+00    0.846E-02
RMM:   2    -0.432907609244E+02   -0.18358E-02   -0.89326E-03  2141   0.350E-01    0.646E-02
RMM:   3    -0.432914071852E+02   -0.64626E-03   -0.26829E-03  1969   0.139E-01
   1572 T=  1054. E= -.37814489E+02 F= -.43291407E+02 E0= -.43247714E+02  EK= 0.47700E+01 SP= 0.65E+00 SK= 0.53E-01 mag=      0.178
       N       E                     dE             d eps       ncg     rms          rms(c)
DAV:   1    -0.432507926740E+02    0.39968E-01   -0.50177E-02  3624   0.137E+00    0.947E-02
RMM:   2    -0.432528457672E+02   -0.20531E-02   -0.66227E-03  1968   0.317E-01    0.790E-02
RMM:   3    -0.432539204318E+02   -0.10747E-02   -0.22726E-03  1823   0.121E-01
   1573 T=  1072. E= -.37809386E+02 F= -.43253920E+02 E0= -.43211084E+02  EK= 0.48480E+01 SP= 0.57E+00 SK= 0.26E-01 mag=      0.244
       N       E                     dE             d eps       ncg     rms          rms(c)
DAV:   1    -0.432051793000E+02    0.47666E-01   -0.48494E-02  4064   0.134E+00    0.769E-02
RMM:   2    -0.432066391931E+02   -0.14599E-02   -0.64040E-03  2048   0.300E-01
   1574 T=  1078. E= -.37804325E+02 F= -.43206639E+02 E0= -.43163074E+02  EK= 0.48769E+01 SP= 0.52E+00 SK= 0.79E-02 mag=     -0.010
       N       E                     dE             d eps       ncg     rms          rms(c)
DAV:   1    -0.431443613285E+02    0.60818E-01   -0.57814E-02  3992   0.135E+00    0.967E-02
RMM:   2    -0.431465395405E+02   -0.21782E-02   -0.84586E-03  2091   0.312E-01    0.796E-02
RMM:   3    -0.431475811104E+02   -0.10416E-02   -0.24278E-03  1972   0.125E-01
   1575 T=  1072. E= -.37801659E+02 F= -.43147581E+02 E0= -.43104886E+02  EK= 0.48500E+01 SP= 0.50E+00 SK= 0.25E-03 mag=     -0.185
       N       E                     dE             d eps       ncg     rms          rms(c)
DAV:   1    -0.430773330955E+02    0.69206E-01   -0.51751E-02  3464   0.129E+00    0.952E-02
RMM:   2    -0.430792827680E+02   -0.19497E-02   -0.69999E-03  2045   0.325E-01    0.669E-02
RMM:   3    -0.430798690628E+02   -0.58629E-03   -0.19965E-03  1759   0.123E-01
   1576 T=  1056. E= -.37797597E+02 F= -.43079869E+02 E0= -.43036818E+02  EK= 0.47752E+01 SP= 0.50E+00 SK= 0.29E-02 mag=     -0.132
       N       E                     dE             d eps       ncg     rms          rms(c)
DAV:   1    -0.430005120320E+02    0.78771E-01   -0.56909E-02  3768   0.133E+00    0.908E-02
RMM:   2    -0.430023223608E+02   -0.18103E-02   -0.73938E-03  2121   0.317E-01    0.670E-02
RMM:   3    -0.430030275182E+02   -0.70516E-03   -0.20000E-03  1921   0.122E-01
   1577 T=  1030. E= -.37790155E+02 F= -.43003028E+02 E0= -.42959976E+02  EK= 0.46579E+01 SP= 0.54E+00 SK= 0.14E-01 mag=      0.073
       N       E                     dE             d eps       ncg     rms          rms(c)
DAV:   1    -0.429181218780E+02    0.84200E-01   -0.37436E-02  3728   0.128E+00    0.786E-02
RMM:   2    -0.429195511928E+02   -0.14293E-02   -0.61647E-03  2079   0.308E-01
   1578 T=   995. E= -.37783795E+02 F= -.42919551E+02 E0= -.42877015E+02  EK= 0.45018E+01 SP= 0.60E+00 SK= 0.30E-01 mag=      0.319
       N       E                     dE             d eps       ncg     rms          rms(c)
DAV:   1    -0.428280947445E+02    0.90027E-01   -0.47394E-02  4176   0.134E+00    0.102E-01
RMM:   2    -0.428302605233E+02   -0.21658E-02   -0.76005E-03  2092   0.299E-01    0.834E-02
RMM:   3    -0.428313864975E+02   -0.11260E-02   -0.23428E-03  1932   0.118E-01
   1579 T=   954. E= -.37779283E+02 F= -.42831386E+02 E0= -.42788919E+02  EK= 0.43157E+01 SP= 0.69E+00 SK= 0.48E-01 mag=      0.168
       N       E                     dE             d eps       ncg     rms          rms(c)
DAV:   1    -0.427410170951E+02    0.89243E-01   -0.41479E-02  3392   0.122E+00    0.949E-02
RMM:   2    -0.427426136075E+02   -0.15965E-02   -0.59108E-03  2030   0.300E-01
   1580 T=   910. E= -.37772618E+02 F= -.42742614E+02 E0= -.42699840E+02  EK= 0.41156E+01 SP= 0.79E+00 SK= 0.65E-01 mag=     -0.299
       N       E                     dE             d eps       ncg     rms          rms(c)
DAV:   1    -0.426454915503E+02    0.95526E-01   -0.65862E-02  4064   0.130E+00    0.154E-01
RMM:   2    -0.426485944330E+02   -0.31029E-02   -0.78821E-03  2071   0.285E-01    0.124E-01
RMM:   3    -0.426516597059E+02   -0.30653E-02   -0.40157E-03  1860   0.130E-01    0.867E-02
RMM:   4    -0.426536766381E+02   -0.20169E-02   -0.34925E-03  1878   0.103E-01    0.410E-02
RMM:   5    -0.426541015678E+02   -0.42493E-03   -0.10702E-03  1731   0.640E-02
   1581 T=   864. E= -.37765711E+02 F= -.42654102E+02 E0= -.42611012E+02  EK= 0.39081E+01 SP= 0.90E+00 SK= 0.77E-01 mag=     -0.046
       N       E                     dE             d eps       ncg     rms          rms(c)
DAV:   1    -0.425611732750E+02    0.92503E-01   -0.26972E-02  3392   0.113E+00    0.154E-01
RMM:   2    -0.425639241662E+02   -0.27509E-02   -0.74148E-03  1922   0.278E-01    0.119E-01
RMM:   3    -0.425659845470E+02   -0.20604E-02   -0.30352E-03  1825   0.115E-01    0.880E-02
RMM:   4    -0.425674805330E+02   -0.14960E-02   -0.19742E-03  1832   0.866E-02
   1582 T=   817. E= -.37761918E+02 F= -.42567481E+02 E0= -.42524725E+02  EK= 0.36984E+01 SP= 0.10E+01 SK= 0.83E-01 mag=      0.224
       N       E                     dE             d eps       ncg     rms          rms(c)
DAV:   1    -0.424853706101E+02    0.80614E-01   -0.41215E-02  3728   0.114E+00    0.106E-01
RMM:   2    -0.424867284777E+02   -0.13579E-02   -0.55928E-03  1976   0.256E-01
   1583 T=   774. E= -.37756407E+02 F= -.42486728E+02 E0= -.42443960E+02  EK= 0.35011E+01 SP= 0.11E+01 SK= 0.82E-01 mag=      0.339
       N       E                     dE             d eps       ncg     rms          rms(c)
DAV:   1    -0.424134401859E+02    0.71930E-01   -0.28366E-02  3576   0.104E+00    0.626E-02
RMM:   2    -0.424143980457E+02   -0.95786E-03   -0.52700E-03  2019   0.276E-01
   1584 T=   734. E= -.37753746E+02 F= -.42414398E+02 E0= -.42370991E+02  EK= 0.33185E+01 SP= 0.13E+01 SK= 0.75E-01 mag=      0.230
       N       E                     dE             d eps       ncg     rms          rms(c)
DAV:   1    -0.423502767896E+02    0.63163E-01   -0.21891E-02  3488   0.106E+00    0.589E-02
RMM:   2    -0.423511569948E+02   -0.88021E-03   -0.52331E-03  2023   0.269E-01
   1585 T=   698. E= -.37750999E+02 F= -.42351157E+02 E0= -.42307281E+02  EK= 0.31573E+01 SP= 0.14E+01 SK= 0.64E-01 mag=     -0.070
       N       E                     dE             d eps       ncg     rms          rms(c)
DAV:   1    -0.422958873576E+02    0.54389E-01   -0.18574E-02  2632   0.101E+00    0.801E-02
RMM:   2    -0.422971896894E+02   -0.13023E-02   -0.57017E-03  2016   0.287E-01
   1586 T=   668. E= -.37744285E+02 F= -.42297190E+02 E0= -.42253810E+02  EK= 0.30236E+01 SP= 0.15E+01 SK= 0.49E-01 mag=     -0.428
       N       E                     dE             d eps       ncg     rms          rms(c)
DAV:   1    -0.422525621746E+02    0.43325E-01   -0.15000E-02  3208   0.976E-01    0.113E-01
RMM:   2    -0.422543604574E+02   -0.17983E-02   -0.55600E-03  2007   0.283E-01
   1587 T=   645. E= -.37736950E+02 F= -.42254360E+02 E0= -.42211704E+02  EK= 0.29172E+01 SP= 0.16E+01 SK= 0.34E-01 mag=     -0.506
       N       E                     dE             d eps       ncg     rms          rms(c)
DAV:   1    -0.422271861378E+02    0.25376E-01   -0.21108E-02  3424   0.104E+00    0.834E-02
RMM:   2    -0.422282459308E+02   -0.10598E-02   -0.62348E-03  1994   0.311E-01
   1588 T=   628. E= -.37734015E+02 F= -.42228246E+02 E0= -.42183784E+02  EK= 0.28390E+01 SP= 0.16E+01 SK= 0.20E-01 mag=     -0.244
       N       E                     dE             d eps       ncg     rms          rms(c)
DAV:   1    -0.422112875316E+02    0.15899E-01   -0.24386E-02  3360   0.943E-01    0.809E-02
RMM:   2    -0.422124907088E+02   -0.12032E-02   -0.63636E-03  2002   0.286E-01
   1589 T=   617. E= -.37729068E+02 F= -.42212491E+02 E0= -.42167614E+02  EK= 0.27894E+01 SP= 0.17E+01 SK= 0.87E-02 mag=      0.250
       N       E                     dE             d eps       ncg     rms          rms(c)
DAV:   1    -0.422042501120E+02    0.70374E-02   -0.16679E-02  3040   0.975E-01    0.134E-01
RMM:   2    -0.422064366272E+02   -0.21865E-02   -0.59609E-03  2001   0.276E-01    0.110E-01
RMM:   3    -0.422076385240E+02   -0.12019E-02   -0.20558E-03  1916   0.109E-01
   1590 T=   612. E= -.37724105E+02 F= -.42207639E+02 E0= -.42163831E+02  EK= 0.27670E+01 SP= 0.17E+01 SK= 0.20E-02 mag=      0.361
       N       E                     dE             d eps       ncg     rms          rms(c)
DAV:   1    -0.422182293295E+02   -0.11793E-01   -0.31914E-02  3296   0.980E-01    0.932E-02
RMM:   2    -0.422192135541E+02   -0.98422E-03   -0.56504E-03  1923   0.280E-01
   1591 T=   613. E= -.37722770E+02 F= -.42219214E+02 E0= -.42173446E+02  EK= 0.27736E+01 SP= 0.17E+01 SK= 0.28E-04 mag=      0.073
       N       E                     dE             d eps       ncg     rms          rms(c)
DAV:   1    -0.422359851139E+02   -0.17756E-01   -0.42156E-02  3552   0.102E+00    0.122E-01
RMM:   2    -0.422380257959E+02   -0.20407E-02   -0.66988E-03  2009   0.263E-01    0.968E-02
RMM:   3    -0.422397402299E+02   -0.17144E-02   -0.24537E-03  1897   0.111E-01
   1592 T=   621. E= -.37719118E+02 F= -.42239740E+02 E0= -.42193833E+02  EK= 0.28076E+01 SP= 0.17E+01 SK= 0.29E-02 mag=     -0.197
       N       E                     dE             d eps       ncg     rms          rms(c)
DAV:   1    -0.422698425484E+02   -0.31817E-01   -0.24323E-02  3288   0.945E-01    0.129E-01
RMM:   2    -0.422714741894E+02   -0.16316E-02   -0.57745E-03  1856   0.266E-01
   1593 T=   634. E= -.37716295E+02 F= -.42271474E+02 E0= -.42225328E+02  EK= 0.28679E+01 SP= 0.17E+01 SK= 0.98E-02 mag=     -0.348
       N       E                     dE             d eps       ncg     rms          rms(c)
DAV:   1    -0.423073846001E+02   -0.37542E-01   -0.37941E-02  3584   0.106E+00    0.149E-01
RMM:   2    -0.423100542834E+02   -0.26697E-02   -0.70820E-03  2006   0.271E-01    0.120E-01
RMM:   3    -0.423120799439E+02   -0.20257E-02   -0.27337E-03  1843   0.112E-01    0.965E-02
RMM:   4    -0.423146015496E+02   -0.25216E-02   -0.41601E-03  1898   0.950E-02    0.418E-02
RMM:   5    -0.423148612409E+02   -0.25969E-03   -0.45665E-04  1626   0.538E-02
   1594 T=   653. E= -.37716157E+02 F= -.42314861E+02 E0= -.42267662E+02  EK= 0.29528E+01 SP= 0.16E+01 SK= 0.20E-01 mag=     -0.083
       N       E                     dE             d eps       ncg     rms          rms(c)
DAV:   1    -0.423563297937E+02   -0.41728E-01   -0.34030E-02  3288   0.100E+00    0.179E-01
RMM:   2    -0.423593735050E+02   -0.30437E-02   -0.91190E-03  1883   0.262E-01    0.135E-01
RMM:   3    -0.423614985324E+02   -0.21250E-02   -0.32401E-03  1828   0.112E-01    0.106E-01
RMM:   4    -0.423638927115E+02   -0.23942E-02   -0.39269E-03  1863   0.956E-02    0.594E-02
RMM:   5    -0.423645033794E+02   -0.61067E-03   -0.69292E-04  1634   0.591E-02
   1595 T=   676. E= -.37715719E+02 F= -.42364503E+02 E0= -.42316992E+02  EK= 0.30593E+01 SP= 0.16E+01 SK= 0.31E-01 mag=      0.124
       N       E                     dE             d eps       ncg     rms          rms(c)
DAV:   1    -0.424202772495E+02   -0.56385E-01   -0.16873E-02  3288   0.103E+00    0.765E-02
RMM:   2    -0.424212764039E+02   -0.99915E-03   -0.48953E-03  2070   0.267E-01
   1596 T=   705. E= -.37712736E+02 F= -.42421276E+02 E0= -.42373365E+02  EK= 0.31895E+01 SP= 0.15E+01 SK= 0.42E-01 mag=      0.201
       N       E                     dE             d eps       ncg     rms          rms(c)
DAV:   1    -0.424822419805E+02   -0.61965E-01   -0.22599E-02  3720   0.110E+00    0.678E-02
RMM:   2    -0.424834614851E+02   -0.12195E-02   -0.63516E-03  2058   0.280E-01
   1597 T=   737. E= -.37711503E+02 F= -.42483461E+02 E0= -.42434996E+02  EK= 0.33361E+01 SP= 0.14E+01 SK= 0.51E-01 mag=      0.114
       N       E                     dE             d eps       ncg     rms          rms(c)
DAV:   1    -0.425476020489E+02   -0.65360E-01   -0.14257E-02  3080   0.105E+00    0.607E-02
RMM:   2    -0.425487303030E+02   -0.11283E-02   -0.58190E-03  2047   0.286E-01
   1598 T=   773. E= -.37710298E+02 F= -.42548730E+02 E0= -.42499843E+02  EK= 0.34962E+01 SP= 0.13E+01 SK= 0.57E-01 mag=     -0.108
       N       E                     dE             d eps       ncg     rms          rms(c)
DAV:   1    -0.426133708517E+02   -0.65769E-01   -0.28102E-02  3200   0.119E+00    0.818E-02
RMM:   2    -0.426148719751E+02   -0.15011E-02   -0.66866E-03  2050   0.297E-01
   1599 T=   811. E= -.37705560E+02 F= -.42614872E+02 E0= -.42566189E+02  EK= 0.36682E+01 SP= 0.12E+01 SK= 0.58E-01 mag=     -0.356
       N       E                     dE             d eps       ncg     rms          rms(c)
DAV:   1    -0.426795595409E+02   -0.66189E-01   -0.18438E-02  3248   0.110E+00    0.824E-02
RMM:   2    -0.426812213489E+02   -0.16618E-02   -0.73792E-03  2075   0.322E-01
   1600 T=   850. E= -.37701029E+02 F= -.42681221E+02 E0= -.42632753E+02  EK= 0.38437E+01 SP= 0.11E+01 SK= 0.54E-01 mag=     -0.466
       N       E                     dE             d eps       ncg     rms          rms(c)
DAV:   1    -0.427453736304E+02   -0.65814E-01   -0.26720E-02  3408   0.123E+00    0.661E-02
RMM:   2    -0.427468331618E+02   -0.14595E-02   -0.73235E-03  2049   0.320E-01
   1601 T=   888. E= -.37697740E+02 F= -.42746833E+02 E0= -.42697476E+02  EK= 0.40162E+01 SP= 0.99E+00 SK= 0.46E-01 mag=     -0.340
       N       E                     dE             d eps       ncg     rms          rms(c)
DAV:   1    -0.428062202299E+02   -0.60847E-01   -0.24915E-02  3424   0.119E+00    0.764E-02
RMM:   2    -0.428079557978E+02   -0.17356E-02   -0.78123E-03  2067   0.327E-01
   1602 T=   923. E= -.37694485E+02 F= -.42807956E+02 E0= -.42757795E+02  EK= 0.41774E+01 SP= 0.90E+00 SK= 0.35E-01 mag=      0.015
       N       E                     dE             d eps       ncg     rms          rms(c)
DAV:   1    -0.428605373937E+02   -0.54317E-01   -0.27667E-02  3512   0.124E+00    0.937E-02
RMM:   2    -0.428626083943E+02   -0.20710E-02   -0.79795E-03  2077   0.327E-01    0.777E-02
RMM:   3    -0.428636097100E+02   -0.10013E-02   -0.26875E-03  1923   0.128E-01
   1603 T=   955. E= -.37691218E+02 F= -.42863610E+02 E0= -.42814081E+02  EK= 0.43205E+01 SP= 0.83E+00 SK= 0.22E-01 mag=      0.262
       N       E                     dE             d eps       ncg     rms          rms(c)
DAV:   1    -0.429102598756E+02   -0.47651E-01   -0.43690E-02  3480   0.122E+00    0.110E-01
RMM:   2    -0.429126779070E+02   -0.24180E-02   -0.74126E-03  1934   0.305E-01    0.811E-02
RMM:   3    -0.429135729965E+02   -0.89509E-03   -0.20538E-03  1825   0.112E-01
   1604 T=   982. E= -.37687146E+02 F= -.42913573E+02 E0= -.42863555E+02  EK= 0.44405E+01 SP= 0.77E+00 SK= 0.11E-01 mag=      0.221
       N       E                     dE             d eps       ncg     rms          rms(c)
DAV:   1    -0.429540930740E+02   -0.41415E-01   -0.52925E-02  3608   0.125E+00    0.923E-02
RMM:   2    -0.429558163590E+02   -0.17233E-02   -0.69340E-03  2067   0.301E-01
   1605 T=  1002. E= -.37681129E+02 F= -.42955816E+02 E0= -.42905290E+02  EK= 0.45312E+01 SP= 0.74E+00 SK= 0.30E-02 mag=     -0.090
       N       E                     dE             d eps       ncg     rms          rms(c)
DAV:   1    -0.429865942394E+02   -0.32501E-01   -0.46995E-02  3944   0.127E+00    0.105E-01
RMM:   2    -0.429887768888E+02   -0.21826E-02   -0.80849E-03  2083   0.304E-01    0.851E-02
RMM:   3    -0.429897218990E+02   -0.94501E-03   -0.24522E-03  1976   0.123E-01
   1606 T=  1013. E= -.37678544E+02 F= -.42989722E+02 E0= -.42940305E+02  EK= 0.45826E+01 SP= 0.73E+00 SK= 0.70E-09 mag=     -0.288
       N       E                     dE             d eps       ncg     rms          rms(c)
DAV:   1    -0.430138642823E+02   -0.25087E-01   -0.41519E-02  3504   0.125E+00    0.123E-01
RMM:   2    -0.430161135472E+02   -0.22493E-02   -0.71585E-03  1940   0.305E-01    0.896E-02
RMM:   3    -0.430169513451E+02   -0.83780E-03   -0.19445E-03  1820   0.114E-01
   1607 T=  1016. E= -.37676143E+02 F= -.43016951E+02 E0= -.42966877E+02  EK= 0.45971E+01 SP= 0.74E+00 SK= 0.32E-02 mag=     -0.197
       N       E                     dE             d eps       ncg     rms          rms(c)
DAV:   1    -0.430332630937E+02   -0.17150E-01   -0.47811E-02  3824   0.129E+00    0.107E-01
RMM:   2    -0.430352703572E+02   -0.20073E-02   -0.70763E-03  2068   0.302E-01    0.797E-02
RMM:   3    -0.430361216772E+02   -0.85132E-03   -0.18973E-03  1899   0.114E-01
   1608 T=  1011. E= -.37671054E+02 F= -.43036122E+02 E0= -.42985871E+02  EK= 0.45758E+01 SP= 0.78E+00 SK= 0.13E-01 mag=      0.093
       N       E                     dE             d eps       ncg     rms          rms(c)
DAV:   1    -0.430456528232E+02   -0.10382E-01   -0.29857E-02  3832   0.121E+00    0.911E-02
RMM:   2    -0.430471087822E+02   -0.14560E-02   -0.59754E-03  1991   0.290E-01
   1609 T=   998. E= -.37666457E+02 F= -.43047109E+02 E0= -.42998133E+02  EK= 0.45166E+01 SP= 0.84E+00 SK= 0.28E-01 mag=      0.438
       N       E                     dE             d eps       ncg     rms          rms(c)
DAV:   1    -0.430468858795E+02   -0.12331E-02   -0.36954E-02  4176   0.129E+00    0.121E-01
RMM:   2    -0.430494819269E+02   -0.25960E-02   -0.84151E-03  2077   0.283E-01    0.992E-02
RMM:   3    -0.430510332784E+02   -0.15514E-02   -0.25203E-03  1896   0.116E-01
   1610 T=   978. E= -.37662828E+02 F= -.43051033E+02 E0= -.43002632E+02  EK= 0.44233E+01 SP= 0.92E+00 SK= 0.47E-01 mag=      0.312
       N       E                     dE             d eps       ncg     rms          rms(c)
DAV:   1    -0.430507035209E+02   -0.12216E-02   -0.42605E-02  3408   0.119E+00    0.900E-02
RMM:   2    -0.430524147008E+02   -0.17112E-02   -0.68403E-03  1984   0.308E-01
   1611 T=   952. E= -.37657879E+02 F= -.43052415E+02 E0= -.43002788E+02  EK= 0.43073E+01 SP= 0.10E+01 SK= 0.68E-01 mag=     -0.226
       N       E                     dE             d eps       ncg     rms          rms(c)
DAV:   1    -0.430380300823E+02    0.12673E-01   -0.68902E-02  4064   0.131E+00    0.151E-01
RMM:   2    -0.430411607011E+02   -0.31306E-02   -0.89779E-03  2016   0.293E-01    0.120E-01
RMM:   3    -0.430439435911E+02   -0.27829E-02   -0.37988E-03  1901   0.128E-01    0.921E-02
RMM:   4    -0.430459220813E+02   -0.19785E-02   -0.24344E-03  1867   0.913E-02    0.574E-02
RMM:   5    -0.430468875544E+02   -0.96547E-03   -0.17874E-03  1847   0.680E-02
   1612 T=   922. E= -.37650687E+02 F= -.43046888E+02 E0= -.42997562E+02  EK= 0.41704E+01 SP= 0.11E+01 SK= 0.88E-01 mag=     -0.125
       N       E                     dE             d eps       ncg     rms          rms(c)
DAV:   1    -0.430332727430E+02    0.12649E-01   -0.25098E-02  3408   0.112E+00    0.131E-01
RMM:   2    -0.430355834404E+02   -0.23107E-02   -0.68543E-03  1930   0.286E-01    0.919E-02
RMM:   3    -0.430368021597E+02   -0.12187E-02   -0.25009E-03  1824   0.114E-01
   1613 T=   888. E= -.37645711E+02 F= -.43036802E+02 E0= -.42987914E+02  EK= 0.40160E+01 SP= 0.13E+01 SK= 0.11E+00 mag=      0.320
       N       E                     dE             d eps       ncg     rms          rms(c)
DAV:   1    -0.430183864666E+02    0.17197E-01   -0.42135E-02  3864   0.114E+00    0.144E-01
RMM:   2    -0.430210570750E+02   -0.26706E-02   -0.76395E-03  1973   0.284E-01    0.114E-01
RMM:   3    -0.430231416424E+02   -0.20846E-02   -0.33818E-03  1832   0.122E-01    0.899E-02
RMM:   4    -0.430248723063E+02   -0.17307E-02   -0.23410E-03  1847   0.938E-02
   1614 T=   852. E= -.37640872E+02 F= -.43024872E+02 E0= -.42976573E+02  EK= 0.38548E+01 SP= 0.14E+01 SK= 0.12E+00 mag=      0.357
       N       E                     dE             d eps       ncg     rms          rms(c)
DAV:   1    -0.430120719937E+02    0.11070E-01   -0.21040E-02  3680   0.112E+00    0.967E-02
RMM:   2    -0.430130037412E+02   -0.93175E-03   -0.43383E-03  2001   0.233E-01
   1615 T=   816. E= -.37637477E+02 F= -.43013004E+02 E0= -.42963523E+02  EK= 0.36925E+01 SP= 0.16E+01 SK= 0.12E+00 mag=     -0.006
       N       E                     dE             d eps       ncg     rms          rms(c)
DAV:   1    -0.429947650677E+02    0.17307E-01   -0.31977E-02  4088   0.109E+00    0.104E-01
RMM:   2    -0.429967072664E+02   -0.19422E-02   -0.65746E-03  2009   0.266E-01    0.864E-02
RMM:   3    -0.429979830805E+02   -0.12758E-02   -0.23618E-03  1861   0.107E-01
   1616 T=   781. E= -.37632044E+02 F= -.42997983E+02 E0= -.42949817E+02  EK= 0.35337E+01 SP= 0.17E+01 SK= 0.12E+00 mag=     -0.319
       N       E                     dE             d eps       ncg     rms          rms(c)
DAV:   1    -0.429836580097E+02    0.13049E-01   -0.22673E-02  3488   0.113E+00    0.102E-01
RMM:   2    -0.429849845548E+02   -0.13265E-02   -0.53615E-03  1934   0.277E-01
   1617 T=   748. E= -.37626782E+02 F= -.42984985E+02 E0= -.42936794E+02  EK= 0.33851E+01 SP= 0.19E+01 SK= 0.12E+00 mag=     -0.473
       N       E                     dE             d eps       ncg     rms          rms(c)
DAV:   1    -0.429703599302E+02    0.13298E-01   -0.33294E-02  4056   0.109E+00    0.109E-01
RMM:   2    -0.429722522505E+02   -0.18923E-02   -0.56378E-03  1999   0.226E-01    0.901E-02
RMM:   3    -0.429736715939E+02   -0.14193E-02   -0.20312E-03  1865   0.959E-02
   1618 T=   718. E= -.37621766E+02 F= -.42973672E+02 E0= -.42924740E+02  EK= 0.32490E+01 SP= 0.20E+01 SK= 0.11E+00 mag=     -0.204
       N       E                     dE             d eps       ncg     rms          rms(c)
DAV:   1    -0.429618441000E+02    0.10408E-01   -0.23315E-02  3296   0.973E-01    0.121E-01
RMM:   2    -0.429636401079E+02   -0.17960E-02   -0.48978E-03  1906   0.260E-01
   1619 T=   691. E= -.37616617E+02 F= -.42963640E+02 E0= -.42914967E+02  EK= 0.31274E+01 SP= 0.21E+01 SK= 0.89E-01 mag=      0.405
       N       E                     dE             d eps       ncg     rms          rms(c)
DAV:   1    -0.429421759872E+02    0.19668E-01   -0.45228E-02  4024   0.107E+00    0.206E-01
RMM:   2    -0.429469763860E+02   -0.48004E-02   -0.84761E-03  1990   0.250E-01    0.172E-01
RMM:   3    -0.429531745486E+02   -0.61982E-02   -0.67156E-03  1829   0.133E-01    0.120E-01
RMM:   4    -0.429568197413E+02   -0.36452E-02   -0.51741E-03  1849   0.120E-01    0.610E-02
RMM:   5    -0.429577982189E+02   -0.97848E-03   -0.19696E-03  1856   0.826E-02
   1620 T=   668. E= -.37613601E+02 F= -.42957798E+02 E0= -.42908421E+02  EK= 0.30223E+01 SP= 0.23E+01 SK= 0.71E-01 mag=      0.141
       N       E                     dE             d eps       ncg     rms          rms(c)
DAV:   1    -0.429391720731E+02    0.17648E-01   -0.28701E-02  3328   0.950E-01    0.213E-01
RMM:   2    -0.429438456308E+02   -0.46736E-02   -0.96644E-03  1839   0.258E-01    0.172E-01
RMM:   3    -0.429479956888E+02   -0.41501E-02   -0.41107E-03  1824   0.114E-01    0.133E-01
RMM:   4    -0.429519114688E+02   -0.39158E-02   -0.48239E-03  1880   0.106E-01    0.744E-02
RMM:   5    -0.429530356955E+02   -0.11242E-02   -0.12722E-03  1814   0.723E-02
   1621 T=   648. E= -.37612057E+02 F= -.42953036E+02 E0= -.42903774E+02  EK= 0.29321E+01 SP= 0.24E+01 SK= 0.53E-01 mag=     -0.196
       N       E                     dE             d eps       ncg     rms          rms(c)
DAV:   1    -0.429485454037E+02    0.33661E-02   -0.27264E-02  3592   0.980E-01    0.120E-01
RMM:   2    -0.429501358628E+02   -0.15905E-02   -0.48310E-03  1913   0.231E-01
   1622 T=   633. E= -.37607237E+02 F= -.42950136E+02 E0= -.42901282E+02  EK= 0.28630E+01 SP= 0.24E+01 SK= 0.35E-01 mag=     -0.412
       N       E                     dE             d eps       ncg     rms          rms(c)
DAV:   1    -0.429496028963E+02   -0.10575E-02   -0.22300E-02  3624   0.993E-01    0.132E-01
RMM:   2    -0.429517638103E+02   -0.21609E-02   -0.61979E-03  1992   0.260E-01    0.992E-02
RMM:   3    -0.429526694721E+02   -0.90566E-03   -0.17769E-03  1916   0.105E-01
   1623 T=   622. E= -.37604656E+02 F= -.42952669E+02 E0= -.42903500E+02  EK= 0.28132E+01 SP= 0.25E+01 SK= 0.20E-01 mag=     -0.218
       N       E                     dE             d eps       ncg     rms          rms(c)
DAV:   1    -0.429577946840E+02   -0.60309E-02   -0.27614E-02  3216   0.104E+00    0.123E-01
RMM:   2    -0.429597050137E+02   -0.19103E-02   -0.55689E-03  1890   0.256E-01    0.814E-02
RMM:   3    -0.429601746057E+02   -0.46959E-03   -0.13554E-03  1736   0.916E-02
   1624 T=   615. E= -.37603362E+02 F= -.42960175E+02 E0= -.42910473E+02  EK= 0.27832E+01 SP= 0.26E+01 SK= 0.88E-02 mag=      0.198
       N       E                     dE             d eps       ncg     rms          rms(c)
DAV:   1    -0.429644003708E+02   -0.46954E-02   -0.52768E-02  3448   0.110E+00    0.133E-01
RMM:   2    -0.429663582921E+02   -0.19579E-02   -0.67569E-03  2035   0.288E-01    0.100E-01
RMM:   3    -0.429676516009E+02   -0.12933E-02   -0.20926E-03  1906   0.109E-01
   1625 T=   613. E= -.37596885E+02 F= -.42967652E+02 E0= -.42919324E+02  EK= 0.27746E+01 SP= 0.26E+01 SK= 0.20E-02 mag=      0.406
       N       E                     dE             d eps       ncg     rms          rms(c)
DAV:   1    -0.429816965453E+02   -0.15338E-01   -0.36885E-02  3176   0.116E+00    0.847E-02
RMM:   2    -0.429826184444E+02   -0.92190E-03   -0.51792E-03  2039   0.278E-01
   1626 T=   616. E= -.37591855E+02 F= -.42982618E+02 E0= -.42933043E+02  EK= 0.27881E+01 SP= 0.26E+01 SK= 0.17E-04 mag=      0.325
       N       E                     dE             d eps       ncg     rms          rms(c)
DAV:   1    -0.429983712708E+02   -0.16675E-01   -0.33831E-02  3624   0.103E+00    0.600E-02
RMM:   2    -0.429993825490E+02   -0.10113E-02   -0.57362E-03  1998   0.259E-01
   1627 T=   623. E= -.37585951E+02 F= -.42999383E+02 E0= -.42949350E+02  EK= 0.28201E+01 SP= 0.26E+01 SK= 0.27E-02 mag=     -0.029
       N       E                     dE             d eps       ncg     rms          rms(c)
DAV:   1    -0.430150207846E+02   -0.16650E-01   -0.17021E-02  3456   0.937E-01    0.109E-01
RMM:   2    -0.430167967998E+02   -0.17760E-02   -0.65254E-03  2007   0.309E-01
   1628 T=   634. E= -.37580283E+02 F= -.43016797E+02 E0= -.42967983E+02  EK= 0.28682E+01 SP= 0.26E+01 SK= 0.94E-02 mag=     -0.483
       N       E                     dE             d eps       ncg     rms          rms(c)
DAV:   1    -0.430348145917E+02   -0.19794E-01   -0.18455E-02  3312   0.102E+00    0.132E-01
RMM:   2    -0.430374668086E+02   -0.26522E-02   -0.69295E-03  1990   0.275E-01    0.112E-01
RMM:   3    -0.430390467023E+02   -0.15799E-02   -0.24365E-03  1934   0.112E-01
   1629 T=   649. E= -.37576674E+02 F= -.43039047E+02 E0= -.42991332E+02  EK= 0.29344E+01 SP= 0.25E+01 SK= 0.19E-01 mag=     -0.352
       N       E                     dE             d eps       ncg     rms          rms(c)
DAV:   1    -0.430626241192E+02   -0.25157E-01   -0.58117E-02  3280   0.100E+00    0.123E-01
RMM:   2    -0.430652370065E+02   -0.26129E-02   -0.81178E-03  1880   0.277E-01    0.975E-02
RMM:   3    -0.430660027014E+02   -0.76569E-03   -0.16766E-03  1809   0.936E-02
   1630 T=   667. E= -.37575402E+02 F= -.43066003E+02 E0= -.43016477E+02  EK= 0.30180E+01 SP= 0.24E+01 SK= 0.31E-01 mag=      0.203
       N       E                     dE             d eps       ncg     rms          rms(c)
DAV:   1    -0.430846305265E+02   -0.19394E-01   -0.10238E-01  3144   0.112E+00    0.178E-01
RMM:   2    -0.430881100347E+02   -0.34795E-02   -0.93679E-03  2001   0.336E-01    0.139E-01
RMM:   3    -0.430903147433E+02   -0.22047E-02   -0.27258E-03  1974   0.132E-01    0.113E-01
RMM:   4    -0.430930991463E+02   -0.27844E-02   -0.28569E-03  1888   0.105E-01    0.654E-02
RMM:   5    -0.430941356615E+02   -0.10365E-02   -0.12752E-03  1781   0.729E-02
   1631 T=   689. E= -.37574420E+02 F= -.43094136E+02 E0= -.43044753E+02  EK= 0.31168E+01 SP= 0.24E+01 SK= 0.44E-01 mag=      0.161
       N       E                     dE             d eps       ncg     rms          rms(c)
DAV:   1    -0.431177579089E+02   -0.24659E-01   -0.32169E-02  3352   0.103E+00    0.136E-01
RMM:   2    -0.431198477044E+02   -0.20898E-02   -0.65580E-03  1978   0.245E-01    0.104E-01
RMM:   3    -0.431212148880E+02   -0.13672E-02   -0.20101E-03  1839   0.106E-01
   1632 T=   714. E= -.37571067E+02 F= -.43121215E+02 E0= -.43071945E+02  EK= 0.32301E+01 SP= 0.23E+01 SK= 0.55E-01 mag=     -0.227
       N       E                     dE             d eps       ncg     rms          rms(c)
DAV:   1    -0.431444062583E+02   -0.24559E-01   -0.33532E-02  3440   0.107E+00    0.149E-01
RMM:   2    -0.431467338651E+02   -0.23276E-02   -0.67927E-03  1993   0.305E-01    0.117E-01
RMM:   3    -0.431490661579E+02   -0.23323E-02   -0.33241E-03  1843   0.132E-01    0.922E-02
RMM:   4    -0.431510196866E+02   -0.19535E-02   -0.25778E-03  1848   0.103E-01    0.560E-02
RMM:   5    -0.431516044847E+02   -0.58480E-03   -0.71869E-04  1621   0.660E-02
   1633 T=   742. E= -.37570442E+02 F= -.43151604E+02 E0= -.43102357E+02  EK= 0.33558E+01 SP= 0.22E+01 SK= 0.64E-01 mag=     -0.123
       N       E                     dE             d eps       ncg     rms          rms(c)
DAV:   1    -0.431752450272E+02   -0.24225E-01   -0.22560E-02  3128   0.104E+00    0.128E-01
RMM:   2    -0.431770617625E+02   -0.18167E-02   -0.60050E-03  1910   0.237E-01    0.993E-02
RMM:   3    -0.431791244491E+02   -0.20627E-02   -0.30520E-03  1824   0.119E-01    0.726E-02
RMM:   4    -0.431803269296E+02   -0.12025E-02   -0.15067E-03  1809   0.784E-02
   1634 T=   772. E= -.37568819E+02 F= -.43180327E+02 E0= -.43131181E+02  EK= 0.34907E+01 SP= 0.21E+01 SK= 0.70E-01 mag=      0.155
       N       E                     dE             d eps       ncg     rms          rms(c)
DAV:   1    -0.432063090432E+02   -0.27185E-01   -0.18488E-02  3640   0.107E+00    0.913E-02
RMM:   2    -0.432073384015E+02   -0.10294E-02   -0.43212E-03  1918   0.245E-01
   1635 T=   803. E= -.37563984E+02 F= -.43207338E+02 E0= -.43159252E+02  EK= 0.36345E+01 SP= 0.19E+01 SK= 0.72E-01 mag=      0.444
       N       E                     dE             d eps       ncg     rms          rms(c)
DAV:   1    -0.432304799817E+02   -0.24171E-01   -0.14557E-02  3448   0.108E+00    0.968E-02
RMM:   2    -0.432321441619E+02   -0.16642E-02   -0.67823E-03  2009   0.279E-01
   1636 T=   835. E= -.37560918E+02 F= -.43232144E+02 E0= -.43184823E+02  EK= 0.37784E+01 SP= 0.18E+01 SK= 0.70E-01 mag=      0.538
       N       E                     dE             d eps       ncg     rms          rms(c)
DAV:   1    -0.432553718711E+02   -0.24892E-01   -0.17140E-02  3176   0.113E+00    0.857E-02
RMM:   2    -0.432566744477E+02   -0.13026E-02   -0.52261E-03  2004   0.281E-01
   1637 T=   866. E= -.37559997E+02 F= -.43256674E+02 E0= -.43208705E+02  EK= 0.39201E+01 SP= 0.17E+01 SK= 0.63E-01 mag=      0.313
       N       E                     dE             d eps       ncg     rms          rms(c)
DAV:   1    -0.432758978279E+02   -0.20526E-01   -0.28181E-02  4000   0.117E+00    0.589E-02
RMM:   2    -0.432772531110E+02   -0.13553E-02   -0.68606E-03  2023   0.318E-01
   1638 T=   897. E= -.37555731E+02 F= -.43277253E+02 E0= -.43229200E+02  EK= 0.40573E+01 SP= 0.16E+01 SK= 0.52E-01 mag=     -0.182
       N       E                     dE             d eps       ncg     rms          rms(c)
DAV:   1    -0.432871088378E+02   -0.11211E-01   -0.19185E-02  3256   0.118E+00    0.120E-01
RMM:   2    -0.432894768133E+02   -0.23680E-02   -0.74404E-03  2018   0.313E-01    0.983E-02
RMM:   3    -0.432910240492E+02   -0.15472E-02   -0.29743E-03  1889   0.128E-01
   1639 T=   924. E= -.37550498E+02 F= -.43291024E+02 E0= -.43244724E+02  EK= 0.41800E+01 SP= 0.15E+01 SK= 0.40E-01 mag=     -0.362
       N       E                     dE             d eps       ncg     rms          rms(c)
DAV:   1    -0.433016790797E+02   -0.12202E-01   -0.32890E-02  3440   0.118E+00    0.843E-02
RMM:   2    -0.433030365507E+02   -0.13575E-02   -0.58620E-03  1931   0.312E-01
   1640 T=   948. E= -.37544808E+02 F= -.43303037E+02 E0= -.43255763E+02  EK= 0.42881E+01 SP= 0.14E+01 SK= 0.27E-01 mag=     -0.169
       N       E                     dE             d eps       ncg     rms          rms(c)
DAV:   1    -0.433044531769E+02   -0.27741E-02   -0.43628E-02  4072   0.133E+00    0.874E-02
RMM:   2    -0.433063183653E+02   -0.18652E-02   -0.68964E-03  2030   0.281E-01    0.691E-02
RMM:   3    -0.433070379078E+02   -0.71954E-03   -0.18943E-03  1900   0.108E-01
   1641 T=   966. E= -.37538374E+02 F= -.43307038E+02 E0= -.43260111E+02  EK= 0.43712E+01 SP= 0.14E+01 SK= 0.15E-01 mag=      0.179
       N       E                     dE             d eps       ncg     rms          rms(c)
DAV:   1    -0.433020897704E+02    0.42286E-02   -0.23229E-02  3432   0.117E+00    0.110E-01
RMM:   2    -0.433041002781E+02   -0.20105E-02   -0.57377E-03  1968   0.288E-01    0.816E-02
RMM:   3    -0.433049679744E+02   -0.86770E-03   -0.18087E-03  1787   0.117E-01
   1642 T=   978. E= -.37534749E+02 F= -.43304968E+02 E0= -.43259134E+02  EK= 0.44242E+01 SP= 0.13E+01 SK= 0.59E-02 mag=      0.360
       N       E                     dE             d eps       ncg     rms          rms(c)
DAV:   1    -0.432959747717E+02    0.81255E-02   -0.36862E-02  4064   0.126E+00    0.974E-02
RMM:   2    -0.432975348030E+02   -0.15600E-02   -0.56693E-03  2042   0.290E-01
   1643 T=   984. E= -.37529068E+02 F= -.43297535E+02 E0= -.43251227E+02  EK= 0.44500E+01 SP= 0.13E+01 SK= 0.84E-03 mag=      0.250
       N       E                     dE             d eps       ncg     rms          rms(c)
DAV:   1    -0.432821173847E+02    0.13857E-01   -0.33781E-02  3976   0.127E+00    0.795E-02
RMM:   2    -0.432837799775E+02   -0.16626E-02   -0.66427E-03  2054   0.289E-01
   1644 T=   982. E= -.37526696E+02 F= -.43283780E+02 E0= -.43237541E+02  EK= 0.44411E+01 SP= 0.13E+01 SK= 0.37E-03 mag=     -0.126
       N       E                     dE             d eps       ncg     rms          rms(c)
DAV:   1    -0.432600386404E+02    0.22079E-01   -0.23834E-02  3208   0.119E+00    0.106E-01
RMM:   2    -0.432624460729E+02   -0.24074E-02   -0.73332E-03  2047   0.316E-01    0.872E-02
RMM:   3    -0.432636878862E+02   -0.12418E-02   -0.25579E-03  1934   0.130E-01
   1645 T=   973. E= -.37523600E+02 F= -.43263688E+02 E0= -.43218723E+02  EK= 0.44018E+01 SP= 0.13E+01 SK= 0.44E-02 mag=     -0.309
       N       E                     dE             d eps       ncg     rms          rms(c)
DAV:   1    -0.432374831570E+02    0.24963E-01   -0.40567E-02  3832   0.127E+00    0.942E-02
RMM:   2    -0.432393843420E+02   -0.19012E-02   -0.63387E-03  1937   0.298E-01    0.684E-02
RMM:   3    -0.432401054779E+02   -0.72114E-03   -0.17289E-03  1786   0.110E-01
   1646 T=   959. E= -.37518558E+02 F= -.43240105E+02 E0= -.43194358E+02  EK= 0.43380E+01 SP= 0.14E+01 SK= 0.12E-01 mag=     -0.127
       N       E                     dE             d eps       ncg     rms          rms(c)
DAV:   1    -0.432084158788E+02    0.30968E-01   -0.32909E-02  3808   0.119E+00    0.970E-02
RMM:   2    -0.432101244352E+02   -0.17086E-02   -0.58458E-03  2004   0.269E-01
   1647 T=   939. E= -.37511125E+02 F= -.43210124E+02 E0= -.43164962E+02  EK= 0.42500E+01 SP= 0.14E+01 SK= 0.22E-01 mag=      0.310
       N       E                     dE             d eps       ncg     rms          rms(c)
DAV:   1    -0.431718906272E+02    0.36525E-01   -0.34120E-02  4048   0.124E+00    0.134E-01
RMM:   2    -0.431745196344E+02   -0.26290E-02   -0.67503E-03  2048   0.270E-01    0.109E-01
RMM:   3    -0.431764589330E+02   -0.19393E-02   -0.25510E-03  1903   0.121E-01    0.860E-02
RMM:   4    -0.431787936756E+02   -0.23347E-02   -0.45547E-03  2025   0.107E-01    0.339E-02
RMM:   5    -0.431791247589E+02   -0.33108E-03   -0.79918E-04  1644   0.616E-02
   1648 T=   915. E= -.37509080E+02 F= -.43179125E+02 E0= -.43133675E+02  EK= 0.41390E+01 SP= 0.15E+01 SK= 0.33E-01 mag=      0.034
       N       E                     dE             d eps       ncg     rms          rms(c)
DAV:   1    -0.431352366218E+02    0.43557E-01   -0.37848E-02  3608   0.118E+00    0.158E-01
RMM:   2    -0.431381478537E+02   -0.29112E-02   -0.65487E-03  1976   0.284E-01    0.124E-01
RMM:   3    -0.431403641231E+02   -0.22163E-02   -0.27103E-03  1828   0.116E-01    0.100E-01
RMM:   4    -0.431427677329E+02   -0.24036E-02   -0.29738E-03  1892   0.936E-02    0.556E-02
RMM:   5    -0.431435976620E+02   -0.82993E-03   -0.12211E-03  1755   0.665E-02
   1649 T=   887. E= -.37506748E+02 F= -.43143598E+02 E0= -.43098440E+02  EK= 0.40118E+01 SP= 0.16E+01 SK= 0.44E-01 mag=     -0.089
       N       E                     dE             d eps       ncg     rms          rms(c)
DAV:   1    -0.431054367030E+02    0.37331E-01   -0.24740E-02  3920   0.115E+00    0.660E-02
RMM:   2    -0.431065377853E+02   -0.11011E-02   -0.45890E-03  1971   0.249E-01
   1650 T=   857. E= -.37502223E+02 F= -.43106538E+02 E0= -.43061368E+02  EK= 0.38776E+01 SP= 0.17E+01 SK= 0.52E-01 mag=     -0.052
       N       E                     dE             d eps       ncg     rms          rms(c)
DAV:   1    -0.430677779544E+02    0.37659E-01   -0.25560E-02  4176   0.115E+00    0.747E-02
RMM:   2    -0.430692380998E+02   -0.14601E-02   -0.54194E-03  2013   0.248E-01
   1651 T=   826. E= -.37500242E+02 F= -.43069238E+02 E0= -.43024295E+02  EK= 0.37375E+01 SP= 0.18E+01 SK= 0.57E-01 mag=      0.115
       N       E                     dE             d eps       ncg     rms          rms(c)
DAV:   1    -0.430308126703E+02    0.36965E-01   -0.18550E-02  3304   0.109E+00    0.919E-02
RMM:   2    -0.430325681787E+02   -0.17555E-02   -0.52593E-03  2013   0.270E-01
   1652 T=   796. E= -.37496980E+02 F= -.43032568E+02 E0= -.42988411E+02  EK= 0.36001E+01 SP= 0.19E+01 SK= 0.59E-01 mag=      0.318
       N       E                     dE             d eps       ncg     rms          rms(c)
DAV:   1    -0.429977058411E+02    0.33107E-01   -0.28524E-02  4104   0.115E+00    0.849E-02
RMM:   2    -0.429994019934E+02   -0.16962E-02   -0.60536E-03  2004   0.276E-01
   1653 T=   767. E= -.37492118E+02 F= -.42999402E+02 E0= -.42955939E+02  EK= 0.34720E+01 SP= 0.20E+01 SK= 0.56E-01 mag=      0.453
       N       E                     dE             d eps       ncg     rms          rms(c)
DAV:   1    -0.429687776413E+02    0.28928E-01   -0.16562E-02  3240   0.101E+00    0.733E-02
RMM:   2    -0.429703548857E+02   -0.15772E-02   -0.59395E-03  2004   0.280E-01
   1654 T=   741. E= -.37488589E+02 F= -.42970355E+02 E0= -.42926753E+02  EK= 0.33536E+01 SP= 0.21E+01 SK= 0.51E-01 mag=      0.402
       N       E                     dE             d eps       ncg     rms          rms(c)
DAV:   1    -0.429438142277E+02    0.24963E-01   -0.23649E-02  3880   0.108E+00    0.847E-02
RMM:   2    -0.429453826068E+02   -0.15684E-02   -0.57968E-03  1995   0.262E-01
   1655 T=   718. E= -.37484690E+02 F= -.42945383E+02 E0= -.42900986E+02  EK= 0.32486E+01 SP= 0.22E+01 SK= 0.43E-01 mag=      0.117
       N       E                     dE             d eps       ncg     rms          rms(c)
DAV:   1    -0.429226848136E+02    0.21129E-01   -0.20929E-02  3672   0.101E+00    0.970E-02
RMM:   2    -0.429246158128E+02   -0.19310E-02   -0.59615E-03  1995   0.278E-01    0.812E-02
RMM:   3    -0.429262033817E+02   -0.15876E-02   -0.28808E-03  1858   0.114E-01
   1656 T=   698. E= -.37482296E+02 F= -.42926203E+02 E0= -.42882314E+02  EK= 0.31585E+01 SP= 0.23E+01 SK= 0.33E-01 mag=     -0.176
       N       E                     dE             d eps       ncg     rms          rms(c)
DAV:   1    -0.429086896847E+02    0.15926E-01   -0.33943E-02  3520   0.101E+00    0.123E-01
RMM:   2    -0.429110674631E+02   -0.23778E-02   -0.58071E-03  1863   0.261E-01    0.984E-02
RMM:   3    -0.429126355811E+02   -0.15681E-02   -0.23364E-03  1824   0.108E-01
   1657 T=   682. E= -.37477939E+02 F= -.42912636E+02 E0= -.42868739E+02  EK= 0.30876E+01 SP= 0.23E+01 SK= 0.24E-01 mag=     -0.168
       N       E                     dE             d eps       ncg     rms          rms(c)
DAV:   1    -0.429046381456E+02    0.64293E-02   -0.33412E-02  3608   0.999E-01    0.104E-01
RMM:   2    -0.429057979560E+02   -0.11598E-02   -0.47139E-03  2015   0.236E-01
   1658 T=   671. E= -.37472976E+02 F= -.42905798E+02 E0= -.42861756E+02  EK= 0.30363E+01 SP= 0.24E+01 SK= 0.15E-01 mag=      0.104
       N       E                     dE             d eps       ncg     rms          rms(c)
DAV:   1    -0.429033307281E+02    0.13074E-02   -0.30117E-02  3544   0.989E-01    0.102E-01
RMM:   2    -0.429048976770E+02   -0.15669E-02   -0.53363E-03  2018   0.244E-01
   1659 T=   664. E= -.37469558E+02 F= -.42904898E+02 E0= -.42862325E+02  EK= 0.30022E+01 SP= 0.24E+01 SK= 0.74E-02 mag=      0.499
       N       E                     dE             d eps       ncg     rms          rms(c)
DAV:   1    -0.429078579216E+02   -0.45272E-02   -0.21731E-02  3680   0.980E-01    0.136E-01
RMM:   2    -0.429104922678E+02   -0.26343E-02   -0.61427E-03  1998   0.273E-01    0.113E-01
RMM:   3    -0.429122184935E+02   -0.17262E-02   -0.25257E-03  1897   0.116E-01
   1660 T=   660. E= -.37467423E+02 F= -.42912218E+02 E0= -.42870493E+02  EK= 0.29879E+01 SP= 0.25E+01 SK= 0.24E-02 mag=      0.333
       N       E                     dE             d eps       ncg     rms          rms(c)
DAV:   1    -0.429281015205E+02   -0.17609E-01   -0.42519E-02  3472   0.105E+00    0.101E-01
RMM:   2    -0.429296743825E+02   -0.15729E-02   -0.68309E-03  1901   0.281E-01
   1661 T=   663. E= -.37464299E+02 F= -.42929674E+02 E0= -.42886391E+02  EK= 0.29976E+01 SP= 0.25E+01 SK= 0.16E-03 mag=     -0.275
       N       E                     dE             d eps       ncg     rms          rms(c)
DAV:   1    -0.429416362660E+02   -0.13535E-01   -0.63833E-02  3696   0.107E+00    0.178E-01
RMM:   2    -0.429464171245E+02   -0.47809E-02   -0.86517E-03  2012   0.273E-01    0.155E-01
RMM:   3    -0.429496228713E+02   -0.32057E-02   -0.37852E-03  1882   0.116E-01    0.119E-01
RMM:   4    -0.429541598022E+02   -0.45369E-02   -0.80193E-03  2056   0.131E-01    0.499E-02
RMM:   5    -0.429548945476E+02   -0.73475E-03   -0.17894E-03  1827   0.800E-02
   1662 T=   669. E= -.37461941E+02 F= -.42954895E+02 E0= -.42911253E+02  EK= 0.30271E+01 SP= 0.25E+01 SK= 0.51E-03 mag=     -0.040
       N       E                     dE             d eps       ncg     rms          rms(c)
DAV:   1    -0.429778098605E+02   -0.23650E-01   -0.36680E-02  3496   0.971E-01    0.151E-01
RMM:   2    -0.429815299106E+02   -0.37201E-02   -0.88047E-03  1988   0.253E-01    0.131E-01
RMM:   3    -0.429834286304E+02   -0.18987E-02   -0.24719E-03  1837   0.100E-01    0.105E-01
RMM:   4    -0.429867447075E+02   -0.33161E-02   -0.53895E-03  2013   0.978E-02    0.494E-02
RMM:   5    -0.429874024115E+02   -0.65770E-03   -0.11022E-03  1706   0.627E-02
   1663 T=   680. E= -.37461583E+02 F= -.42987402E+02 E0= -.42943869E+02  EK= 0.30743E+01 SP= 0.24E+01 SK= 0.31E-02 mag=      0.082
       N       E                     dE             d eps       ncg     rms          rms(c)
DAV:   1    -0.430266472882E+02   -0.39903E-01   -0.27806E-02  3568   0.102E+00    0.606E-02
RMM:   2    -0.430276772836E+02   -0.10300E-02   -0.47145E-03  2010   0.258E-01
   1664 T=   695. E= -.37459218E+02 F= -.43027677E+02 E0= -.42984070E+02  EK= 0.31431E+01 SP= 0.24E+01 SK= 0.73E-02 mag=      0.081
       N       E                     dE             d eps       ncg     rms          rms(c)
DAV:   1    -0.430746683813E+02   -0.48021E-01   -0.21918E-02  3648   0.102E+00    0.519E-02
RMM:   2    -0.430757757238E+02   -0.11073E-02   -0.50790E-03  2009   0.260E-01
   1665 T=   714. E= -.37457843E+02 F= -.43075776E+02 E0= -.43032114E+02  EK= 0.32297E+01 SP= 0.24E+01 SK= 0.12E-01 mag=     -0.027
       N       E                     dE             d eps       ncg     rms          rms(c)
DAV:   1    -0.431296648771E+02   -0.54996E-01   -0.14599E-02  3240   0.103E+00    0.550E-02
RMM:   2    -0.431308264362E+02   -0.11616E-02   -0.49243E-03  2002   0.264E-01
   1666 T=   737. E= -.37455935E+02 F= -.43130826E+02 E0= -.43087394E+02  EK= 0.33336E+01 SP= 0.23E+01 SK= 0.17E-01 mag=     -0.186
       N       E                     dE             d eps       ncg     rms          rms(c)
DAV:   1    -0.431915688657E+02   -0.61904E-01   -0.23181E-02  3336   0.110E+00    0.626E-02
RMM:   2    -0.431929186979E+02   -0.13498E-02   -0.55399E-03  2019   0.269E-01
   1667 T=   764. E= -.37452330E+02 F= -.43192919E+02 E0= -.43149908E+02  EK= 0.34544E+01 SP= 0.23E+01 SK= 0.21E-01 mag=     -0.322
       N       E                     dE             d eps       ncg     rms          rms(c)
DAV:   1    -0.432606144881E+02   -0.69046E-01   -0.16416E-02  3264   0.105E+00    0.569E-02
RMM:   2    -0.432620034575E+02   -0.13890E-02   -0.54638E-03  2020   0.274E-01
   1668 T=   793. E= -.37449868E+02 F= -.43262003E+02 E0= -.43218999E+02  EK= 0.35871E+01 SP= 0.22E+01 SK= 0.22E-01 mag=     -0.307
       N       E                     dE             d eps       ncg     rms          rms(c)
DAV:   1    -0.433356137399E+02   -0.74999E-01   -0.20978E-02  3448   0.114E+00    0.575E-02
RMM:   2    -0.433368490508E+02   -0.12353E-02   -0.56765E-03  2001   0.290E-01
   1669 T=   824. E= -.37447400E+02 F= -.43336849E+02 E0= -.43293049E+02  EK= 0.37287E+01 SP= 0.21E+01 SK= 0.22E-01 mag=     -0.106
       N       E                     dE             d eps       ncg     rms          rms(c)
DAV:   1    -0.434132325453E+02   -0.77619E-01   -0.23725E-02  3496   0.112E+00    0.648E-02
RMM:   2    -0.434148362875E+02   -0.16037E-02   -0.65712E-03  2028   0.295E-01
   1670 T=   856. E= -.37443462E+02 F= -.43414836E+02 E0= -.43371274E+02  EK= 0.38746E+01 SP= 0.21E+01 SK= 0.19E-01 mag=      0.215
       N       E                     dE             d eps       ncg     rms          rms(c)
DAV:   1    -0.434940474197E+02   -0.80815E-01   -0.23672E-02  3552   0.117E+00    0.888E-02
RMM:   2    -0.434959171567E+02   -0.18697E-02   -0.67252E-03  2064   0.295E-01    0.715E-02
RMM:   3    -0.434965461537E+02   -0.62900E-03   -0.17936E-03  1912   0.115E-01
   1671 T=   888. E= -.37440601E+02 F= -.43496546E+02 E0= -.43453617E+02  EK= 0.40186E+01 SP= 0.20E+01 SK= 0.14E-01 mag=      0.225
       N       E                     dE             d eps       ncg     rms          rms(c)
DAV:   1    -0.435802109464E+02   -0.84294E-01   -0.38589E-02  3560   0.119E+00    0.738E-02
RMM:   2    -0.435818445502E+02   -0.16336E-02   -0.57432E-03  1916   0.269E-01
   1672 T=   919. E= -.37437154E+02 F= -.43581845E+02 E0= -.43537693E+02  EK= 0.41579E+01 SP= 0.20E+01 SK= 0.82E-02 mag=     -0.071
       N       E                     dE             d eps       ncg     rms          rms(c)
DAV:   1    -0.436609235302E+02   -0.80713E-01   -0.53643E-02  3800   0.126E+00    0.124E-01
RMM:   2    -0.436635315114E+02   -0.26080E-02   -0.78144E-03  2059   0.283E-01    0.990E-02
RMM:   3    -0.436655338605E+02   -0.20023E-02   -0.31217E-03  1882   0.125E-01    0.780E-02
RMM:   4    -0.436673080186E+02   -0.17742E-02   -0.33977E-03  1907   0.961E-02
   1673 T=   947. E= -.37434005E+02 F= -.43667308E+02 E0= -.43623127E+02  EK= 0.42831E+01 SP= 0.19E+01 SK= 0.31E-02 mag=     -0.128
       N       E                     dE             d eps       ncg     rms          rms(c)
DAV:   1    -0.437471327853E+02   -0.81599E-01   -0.29363E-02  3280   0.115E+00    0.121E-01
RMM:   2    -0.437498848814E+02   -0.27521E-02   -0.81784E-03  1924   0.289E-01    0.931E-02
RMM:   3    -0.437515808151E+02   -0.16959E-02   -0.38898E-03  1824   0.119E-01
   1674 T=   970. E= -.37430814E+02 F= -.43751581E+02 E0= -.43707061E+02  EK= 0.43886E+01 SP= 0.19E+01 SK= 0.18E-03 mag=      0.069
       N       E                     dE             d eps       ncg     rms          rms(c)
DAV:   1    -0.438312389521E+02   -0.81354E-01   -0.47552E-02  3688   0.129E+00    0.125E-01
RMM:   2    -0.438337245153E+02   -0.24856E-02   -0.68766E-03  1975   0.290E-01    0.881E-02
RMM:   3    -0.438346934297E+02   -0.96891E-03   -0.18421E-03  1826   0.111E-01
   1675 T=   988. E= -.37426449E+02 F= -.43834693E+02 E0= -.43790363E+02  EK= 0.44712E+01 SP= 0.19E+01 SK= 0.12E-02 mag=      0.237
       N       E                     dE             d eps       ncg     rms          rms(c)
DAV:   1    -0.439136346930E+02   -0.79910E-01   -0.42898E-02  3512   0.119E+00    0.879E-02
RMM:   2    -0.439156293463E+02   -0.19947E-02   -0.67644E-03  1990   0.286E-01    0.571E-02
RMM:   3    -0.439160771990E+02   -0.44785E-03   -0.16421E-03  1807   0.111E-01
   1676 T=  1000. E= -.37424154E+02 F= -.43916077E+02 E0= -.43871445E+02  EK= 0.45239E+01 SP= 0.20E+01 SK= 0.73E-02 mag=      0.221
       N       E                     dE             d eps       ncg     rms          rms(c)
DAV:   1    -0.439909509133E+02   -0.75322E-01   -0.39398E-02  3696   0.124E+00    0.769E-02
RMM:   2    -0.439926841797E+02   -0.17333E-02   -0.59862E-03  2017   0.264E-01
   1677 T=  1005. E= -.37419158E+02 F= -.43992684E+02 E0= -.43947444E+02  EK= 0.45464E+01 SP= 0.20E+01 SK= 0.19E-01 mag=      0.017
       N       E                     dE             d eps       ncg     rms          rms(c)
DAV:   1    -0.440617079803E+02   -0.70757E-01   -0.31409E-02  3992   0.122E+00    0.976E-02
RMM:   2    -0.440636960999E+02   -0.19881E-02   -0.61710E-03  2037   0.256E-01    0.788E-02
RMM:   3    -0.440645680856E+02   -0.87199E-03   -0.19020E-03  1859   0.103E-01
   1678 T=  1002. E= -.37415688E+02 F= -.44064568E+02 E0= -.44019434E+02  EK= 0.45339E+01 SP= 0.21E+01 SK= 0.37E-01 mag=     -0.147
       N       E                     dE             d eps       ncg     rms          rms(c)
DAV:   1    -0.441298339158E+02   -0.66138E-01   -0.33120E-02  3400   0.118E+00    0.103E-01
RMM:   2    -0.441316721926E+02   -0.18383E-02   -0.56721E-03  1955   0.275E-01    0.740E-02
RMM:   3    -0.441321143602E+02   -0.44217E-03   -0.14205E-03  1704   0.977E-02
   1679 T=   992. E= -.37412375E+02 F= -.44132114E+02 E0= -.44086566E+02  EK= 0.44894E+01 SP= 0.22E+01 SK= 0.60E-01 mag=     -0.138
       N       E                     dE             d eps       ncg     rms          rms(c)
DAV:   1    -0.441904529558E+02   -0.58781E-01   -0.39232E-02  3840   0.118E+00    0.107E-01
RMM:   2    -0.441921890641E+02   -0.17361E-02   -0.59218E-03  2034   0.276E-01
   1680 T=   976. E= -.37405119E+02 F= -.44192189E+02 E0= -.44146212E+02  EK= 0.44165E+01 SP= 0.23E+01 SK= 0.86E-01 mag=      0.028
       N       E                     dE             d eps       ncg     rms          rms(c)
DAV:   1    -0.442443997886E+02   -0.53947E-01   -0.28657E-02  3880   0.118E+00    0.105E-01
RMM:   2    -0.442462734870E+02   -0.18737E-02   -0.63046E-03  2047   0.264E-01    0.806E-02
RMM:   3    -0.442468901490E+02   -0.61666E-03   -0.18387E-03  1840   0.107E-01
   1681 T=   953. E= -.37402985E+02 F= -.44246890E+02 E0= -.44200928E+02  EK= 0.43123E+01 SP= 0.24E+01 SK= 0.11E+00 mag=      0.139
       N       E                     dE             d eps       ncg     rms          rms(c)
DAV:   1    -0.442927052177E+02   -0.46432E-01   -0.35802E-02  3424   0.116E+00    0.116E-01
RMM:   2    -0.442944815831E+02   -0.17764E-02   -0.69016E-03  1950   0.276E-01
   1682 T=   926. E= -.37395826E+02 F= -.44294482E+02 E0= -.44248143E+02  EK= 0.41901E+01 SP= 0.26E+01 SK= 0.14E+00 mag=      0.153
       N       E                     dE             d eps       ncg     rms          rms(c)
DAV:   1    -0.443271714214E+02   -0.34466E-01   -0.47039E-02  4096   0.121E+00    0.170E-01
RMM:   2    -0.443309052568E+02   -0.37338E-02   -0.82865E-03  2018   0.258E-01    0.139E-01
RMM:   3    -0.443342787602E+02   -0.33735E-02   -0.36289E-03  1835   0.118E-01    0.106E-01
RMM:   4    -0.443372220948E+02   -0.29433E-02   -0.44119E-03  1878   0.104E-01    0.314E-02
RMM:   5    -0.443373490284E+02   -0.12693E-03   -0.45950E-04  1598   0.551E-02
   1683 T=   896. E= -.37389793E+02 F= -.44337349E+02 E0= -.44290571E+02  EK= 0.40514E+01 SP= 0.27E+01 SK= 0.16E+00 mag=      0.009
       N       E                     dE             d eps       ncg     rms          rms(c)
DAV:   1    -0.443614958885E+02   -0.24274E-01   -0.36864E-02  3128   0.105E+00    0.189E-01
RMM:   2    -0.443654144888E+02   -0.39186E-02   -0.10063E-02  1917   0.269E-01    0.152E-01
RMM:   3    -0.443686880063E+02   -0.32735E-02   -0.35544E-03  1865   0.116E-01    0.119E-01
RMM:   4    -0.443720898225E+02   -0.34018E-02   -0.45979E-03  1893   0.106E-01    0.505E-02
RMM:   5    -0.443724696623E+02   -0.37984E-03   -0.65580E-04  1622   0.662E-02
   1684 T=   861. E= -.37387826E+02 F= -.44372470E+02 E0= -.44325445E+02  EK= 0.38960E+01 SP= 0.29E+01 SK= 0.18E+00 mag=     -0.044
       N       E                     dE             d eps       ncg     rms          rms(c)
DAV:   1    -0.444008347963E+02   -0.28745E-01   -0.16481E-02  3440   0.106E+00    0.634E-02
RMM:   2    -0.444017637434E+02   -0.92895E-03   -0.43983E-03  2022   0.247E-01
   1685 T=   826. E= -.37382522E+02 F= -.44401764E+02 E0= -.44354451E+02  EK= 0.37384E+01 SP= 0.31E+01 SK= 0.19E+00 mag=      0.000
       N       E                     dE             d eps       ncg     rms          rms(c)
DAV:   1    -0.444230754732E+02   -0.22241E-01   -0.18305E-02  3712   0.107E+00    0.825E-02
RMM:   2    -0.444246561705E+02   -0.15807E-02   -0.56781E-03  2012   0.248E-01
   1686 T=   791. E= -.37376869E+02 F= -.44424656E+02 E0= -.44377150E+02  EK= 0.35798E+01 SP= 0.33E+01 SK= 0.19E+00 mag=      0.105
       N       E                     dE             d eps       ncg     rms          rms(c)
DAV:   1    -0.444415919516E+02   -0.18516E-01   -0.15419E-02  3288   0.102E+00    0.961E-02
RMM:   2    -0.444432157910E+02   -0.16238E-02   -0.54445E-03  2012   0.265E-01
   1687 T=   757. E= -.37371554E+02 F= -.44443216E+02 E0= -.44395576E+02  EK= 0.34254E+01 SP= 0.35E+01 SK= 0.19E+00 mag=      0.190
       N       E                     dE             d eps       ncg     rms          rms(c)
DAV:   1    -0.444577092538E+02   -0.16117E-01   -0.21487E-02  3328   0.104E+00    0.567E-02
RMM:   2    -0.444587692014E+02   -0.10599E-02   -0.54058E-03  1998   0.261E-01
   1688 T=   725. E= -.37366246E+02 F= -.44458769E+02 E0= -.44410805E+02  EK= 0.32800E+01 SP= 0.36E+01 SK= 0.17E+00 mag=      0.184
       N       E                     dE             d eps       ncg     rms          rms(c)
DAV:   1    -0.444675681943E+02   -0.98589E-02   -0.14525E-02  3072   0.953E-01    0.501E-02
RMM:   2    -0.444686777111E+02   -0.11095E-02   -0.63841E-03  2022   0.271E-01
   1689 T=   695. E= -.37359748E+02 F= -.44468678E+02 E0= -.44420307E+02  EK= 0.31445E+01 SP= 0.38E+01 SK= 0.15E+00 mag=      0.063
       N       E                     dE             d eps       ncg     rms          rms(c)
DAV:   1    -0.444714677866E+02   -0.38996E-02   -0.19001E-02  3584   0.101E+00    0.108E-01
RMM:   2    -0.444731662499E+02   -0.16985E-02   -0.55205E-03  1994   0.252E-01
   1690 T=   668. E= -.37350963E+02 F= -.44473166E+02 E0= -.44424645E+02  EK= 0.30219E+01 SP= 0.40E+01 SK= 0.13E+00 mag=     -0.117
       N       E                     dE             d eps       ncg     rms          rms(c)
DAV:   1    -0.444754354157E+02   -0.39676E-02   -0.13724E-02  2992   0.936E-01    0.102E-01
RMM:   2    -0.444768809762E+02   -0.14456E-02   -0.53220E-03  2012   0.272E-01
   1691 T=   644. E= -.37344596E+02 F= -.44476881E+02 E0= -.44428361E+02  EK= 0.29132E+01 SP= 0.41E+01 SK= 0.10E+00 mag=     -0.269
       N       E                     dE             d eps       ncg     rms          rms(c)
DAV:   1    -0.444772380396E+02   -0.18026E-02   -0.15329E-02  3376   0.918E-01    0.569E-02
RMM:   2    -0.444782644058E+02   -0.10264E-02   -0.55638E-03  2010   0.259E-01
   1692 T=   623. E= -.37338935E+02 F= -.44478264E+02 E0= -.44429549E+02  EK= 0.28194E+01 SP= 0.42E+01 SK= 0.77E-01 mag=     -0.298
       N       E                     dE             d eps       ncg     rms          rms(c)
DAV:   1    -0.444732210468E+02    0.40170E-02   -0.15640E-02  3128   0.902E-01    0.975E-02
RMM:   2    -0.444747173461E+02   -0.14963E-02   -0.61736E-03  2011   0.259E-01
   1693 T=   606. E= -.37331360E+02 F= -.44474717E+02 E0= -.44425541E+02  EK= 0.27407E+01 SP= 0.44E+01 SK= 0.52E-01 mag=     -0.156
       N       E                     dE             d eps       ncg     rms          rms(c)
DAV:   1    -0.444646470983E+02    0.85739E-02   -0.16776E-02  3176   0.923E-01    0.148E-01
RMM:   2    -0.444673500542E+02   -0.27030E-02   -0.60582E-03  1995   0.252E-01    0.123E-01
RMM:   3    -0.444717974623E+02   -0.44474E-02   -0.69723E-03  1825   0.141E-01    0.560E-02
RMM:   4    -0.444724889225E+02   -0.69146E-03   -0.18125E-03  1818   0.942E-02
   1694 T=   592. E= -.37328846E+02 F= -.44472489E+02 E0= -.44422955E+02  EK= 0.26767E+01 SP= 0.44E+01 SK= 0.31E-01 mag=      0.021
       N       E                     dE             d eps       ncg     rms          rms(c)
DAV:   1    -0.444539171634E+02    0.17880E-01   -0.33253E-02  3048   0.885E-01    0.190E-01
RMM:   2    -0.444580070827E+02   -0.40899E-02   -0.90157E-03  1856   0.234E-01    0.158E-01
RMM:   3    -0.444632802488E+02   -0.52732E-02   -0.66127E-03  1824   0.115E-01    0.107E-01
RMM:   4    -0.444660733214E+02   -0.27931E-02   -0.47709E-03  1824   0.106E-01    0.369E-02
RMM:   5    -0.444662352435E+02   -0.16192E-03   -0.56067E-04  1561   0.528E-02
   1695 T=   581. E= -.37326612E+02 F= -.44466235E+02 E0= -.44416537E+02  EK= 0.26267E+01 SP= 0.45E+01 SK= 0.14E-01 mag=      0.034
       N       E                     dE             d eps       ncg     rms          rms(c)
DAV:   1    -0.444572022600E+02    0.88711E-02   -0.79529E-03  2712   0.848E-01    0.656E-02
RMM:   2    -0.444578634212E+02   -0.66116E-03   -0.35684E-03  1995   0.218E-01
   1696 T=   574. E= -.37322027E+02 F= -.44457863E+02 E0= -.44408054E+02  EK= 0.25955E+01 SP= 0.45E+01 SK= 0.36E-02 mag=     -0.082
       N       E                     dE             d eps       ncg     rms          rms(c)
DAV:   1    -0.444443977216E+02    0.12805E-01   -0.15124E-02  3272   0.914E-01    0.102E-01
RMM:   2    -0.444462781899E+02   -0.18805E-02   -0.51652E-03  1950   0.229E-01    0.882E-02
RMM:   3    -0.444474225852E+02   -0.11444E-02   -0.17172E-03  1821   0.983E-02
   1697 T=   571. E= -.37316817E+02 F= -.44447423E+02 E0= -.44397684E+02  EK= 0.25811E+01 SP= 0.45E+01 SK= 0.79E-07 mag=     -0.072
       N       E                     dE             d eps       ncg     rms          rms(c)
DAV:   1    -0.444344745190E+02    0.11804E-01   -0.43283E-02  3000   0.910E-01    0.103E-01
RMM:   2    -0.444369667293E+02   -0.24922E-02   -0.63359E-03  1907   0.267E-01    0.775E-02
RMM:   3    -0.444374890088E+02   -0.52228E-03   -0.14843E-03  1804   0.984E-02
   1698 T=   571. E= -.37314709E+02 F= -.44437489E+02 E0= -.44387426E+02  EK= 0.25825E+01 SP= 0.45E+01 SK= 0.37E-02 mag=      0.029
       N       E                     dE             d eps       ncg     rms          rms(c)
DAV:   1    -0.444232195714E+02    0.13747E-01   -0.65334E-02  3128   0.929E-01    0.109E-01
RMM:   2    -0.444247794586E+02   -0.15599E-02   -0.63413E-03  1998   0.256E-01
   1699 T=   575. E= -.37308797E+02 F= -.44424779E+02 E0= -.44374784E+02  EK= 0.26034E+01 SP= 0.45E+01 SK= 0.15E-01 mag=      0.163
       N       E                     dE             d eps       ncg     rms          rms(c)
DAV:   1    -0.444103400627E+02    0.12880E-01   -0.44148E-02  3144   0.912E-01    0.911E-02
RMM:   2    -0.444115027215E+02   -0.11627E-02   -0.50455E-03  1998   0.260E-01
   1700 T=   584. E= -.37303852E+02 F= -.44411503E+02 E0= -.44361628E+02  EK= 0.26413E+01 SP= 0.44E+01 SK= 0.32E-01 mag=      0.234
       N       E                     dE             d eps       ncg     rms          rms(c)
DAV:   1    -0.443971087324E+02    0.13231E-01   -0.16949E-02  3048   0.887E-01    0.482E-02
RMM:   2    -0.443980749010E+02   -0.96617E-03   -0.64726E-03  1994   0.277E-01
   1701 T=   596. E= -.37300527E+02 F= -.44398075E+02 E0= -.44348023E+02  EK= 0.26960E+01 SP= 0.43E+01 SK= 0.55E-01 mag=      0.190
       N       E                     dE             d eps       ncg     rms          rms(c)
DAV:   1    -0.443804987608E+02    0.16610E-01   -0.16379E-02  3312   0.992E-01    0.881E-02
RMM:   2    -0.443817731024E+02   -0.12743E-02   -0.58664E-03  1999   0.263E-01
   1702 T=   612. E= -.37293690E+02 F= -.44381773E+02 E0= -.44331574E+02  EK= 0.27702E+01 SP= 0.42E+01 SK= 0.82E-01 mag=      0.025
       N       E                     dE             d eps       ncg     rms          rms(c)
DAV:   1    -0.443617867748E+02    0.18712E-01   -0.15166E-02  3208   0.914E-01    0.124E-01
RMM:   2    -0.443636808270E+02   -0.18941E-02   -0.54036E-03  1997   0.263E-01    0.101E-01
RMM:   3    -0.443650444500E+02   -0.13636E-02   -0.19402E-03  1879   0.107E-01
   1703 T=   633. E= -.37287964E+02 F= -.44365044E+02 E0= -.44315044E+02  EK= 0.28617E+01 SP= 0.41E+01 SK= 0.11E+00 mag=     -0.089
       N       E                     dE             d eps       ncg     rms          rms(c)
DAV:   1    -0.443454364532E+02    0.18244E-01   -0.34857E-02  3320   0.985E-01    0.119E-01
RMM:   2    -0.443474841878E+02   -0.20477E-02   -0.65459E-03  1910   0.261E-01    0.950E-02
RMM:   3    -0.443480760296E+02   -0.59184E-03   -0.13122E-03  1685   0.910E-02
   1704 T=   656. E= -.37284755E+02 F= -.44348076E+02 E0= -.44297988E+02  EK= 0.29691E+01 SP= 0.40E+01 SK= 0.14E+00 mag=     -0.081
       N       E                     dE             d eps       ncg     rms          rms(c)
DAV:   1    -0.443266438854E+02    0.20840E-01   -0.56981E-02  3224   0.106E+00    0.124E-01
RMM:   2    -0.443284402796E+02   -0.17964E-02   -0.71843E-03  2009   0.298E-01
   1705 T=   684. E= -.37279425E+02 F= -.44328440E+02 E0= -.44278419E+02  EK= 0.30942E+01 SP= 0.38E+01 SK= 0.17E+00 mag=      0.049
       N       E                     dE             d eps       ncg     rms          rms(c)
DAV:   1    -0.443061319957E+02    0.20512E-01   -0.45944E-02  3432   0.101E+00    0.119E-01
RMM:   2    -0.443077325851E+02   -0.16006E-02   -0.60548E-03  2008   0.278E-01
   1706 T=   715. E= -.37274777E+02 F= -.44307733E+02 E0= -.44258050E+02  EK= 0.32350E+01 SP= 0.36E+01 SK= 0.19E+00 mag=      0.242
       N       E                     dE             d eps       ncg     rms          rms(c)
DAV:   1    -0.442850422661E+02    0.21090E-01   -0.23855E-02  3264   0.101E+00    0.832E-02
RMM:   2    -0.442864578265E+02   -0.14156E-02   -0.73637E-03  2005   0.310E-01
   1707 T=   749. E= -.37271428E+02 F= -.44286458E+02 E0= -.44237153E+02  EK= 0.33898E+01 SP= 0.34E+01 SK= 0.21E+00 mag=      0.378
       N       E                     dE             d eps       ncg     rms          rms(c)
DAV:   1    -0.442600100767E+02    0.25032E-01   -0.21204E-02  3408   0.107E+00    0.107E-01
RMM:   2    -0.442616364457E+02   -0.16264E-02   -0.66816E-03  2016   0.284E-01
   1708 T=   786. E= -.37265472E+02 F= -.44261636E+02 E0= -.44212234E+02  EK= 0.35574E+01 SP= 0.32E+01 SK= 0.21E+00 mag=      0.350
       N       E                     dE             d eps       ncg     rms          rms(c)
DAV:   1    -0.442295348090E+02    0.30475E-01   -0.20391E-02  3360   0.103E+00    0.156E-01
RMM:   2    -0.442325966854E+02   -0.30619E-02   -0.76481E-03  1959   0.285E-01    0.130E-01
RMM:   3    -0.442369469418E+02   -0.43503E-02   -0.61402E-03  1824   0.140E-01    0.640E-02
RMM:   4    -0.442380206795E+02   -0.10737E-02   -0.19321E-03  1816   0.991E-02
   1709 T=   825. E= -.37264230E+02 F= -.44238021E+02 E0= -.44188077E+02  EK= 0.37323E+01 SP= 0.30E+01 SK= 0.21E+00 mag=      0.016
       N       E                     dE             d eps       ncg     rms          rms(c)
DAV:   1    -0.441992607115E+02    0.37686E-01   -0.36886E-02  3272   0.108E+00    0.192E-01
RMM:   2    -0.442031499471E+02   -0.38892E-02   -0.87903E-03  1843   0.274E-01    0.157E-01
RMM:   3    -0.442065783448E+02   -0.34284E-02   -0.38230E-03  1824   0.116E-01    0.119E-01
RMM:   4    -0.442099413715E+02   -0.33630E-02   -0.44827E-03  1885   0.104E-01    0.519E-02
RMM:   5    -0.442103736640E+02   -0.43229E-03   -0.58967E-04  1601   0.594E-02
   1710 T=   864. E= -.37262258E+02 F= -.44210374E+02 E0= -.44160552E+02  EK= 0.39104E+01 SP= 0.28E+01 SK= 0.20E+00 mag=     -0.085
       N       E                     dE             d eps       ncg     rms          rms(c)
DAV:   1    -0.441799658375E+02    0.29976E-01   -0.12387E-02  3136   0.110E+00    0.709E-02
RMM:   2    -0.441809177949E+02   -0.95196E-03   -0.52597E-03  2010   0.274E-01
   1711 T=   904. E= -.37257415E+02 F= -.44180918E+02 E0= -.44131027E+02  EK= 0.40911E+01 SP= 0.27E+01 SK= 0.18E+00 mag=      0.035
       N       E                     dE             d eps       ncg     rms          rms(c)
DAV:   1    -0.441469197148E+02    0.33046E-01   -0.22415E-02  3920   0.116E+00    0.890E-02
RMM:   2    -0.441484553175E+02   -0.15356E-02   -0.62834E-03  2011   0.260E-01
   1712 T=   942. E= -.37253342E+02 F= -.44148455E+02 E0= -.44098979E+02  EK= 0.42638E+01 SP= 0.25E+01 SK= 0.16E+00 mag=      0.288
       N       E                     dE             d eps       ncg     rms          rms(c)
DAV:   1    -0.441109717780E+02    0.35948E-01   -0.18805E-02  3280   0.110E+00    0.115E-01
RMM:   2    -0.441130149747E+02   -0.20432E-02   -0.66907E-03  2012   0.306E-01    0.958E-02
RMM:   3    -0.441148155453E+02   -0.18006E-02   -0.28135E-03  1912   0.135E-01    0.655E-02
RMM:   4    -0.441161529400E+02   -0.13374E-02   -0.25511E-03  1866   0.106E-01
   1713 T=   977. E= -.37254469E+02 F= -.44116153E+02 E0= -.44066362E+02  EK= 0.44203E+01 SP= 0.23E+01 SK= 0.12E+00 mag=      0.097
       N       E                     dE             d eps       ncg     rms          rms(c)
DAV:   1    -0.440748503333E+02    0.39965E-01   -0.32240E-02  3720   0.122E+00    0.143E-01
RMM:   2    -0.440773443494E+02   -0.24940E-02   -0.62048E-03  1883   0.269E-01    0.114E-01
RMM:   3    -0.440792291266E+02   -0.18848E-02   -0.25149E-03  1824   0.105E-01    0.837E-02
RMM:   4    -0.440807956825E+02   -0.15666E-02   -0.20790E-03  1824   0.845E-02
   1714 T=  1008. E= -.37250969E+02 F= -.44080796E+02 E0= -.44031018E+02  EK= 0.45603E+01 SP= 0.22E+01 SK= 0.91E-01 mag=     -0.132
       N       E                     dE             d eps       ncg     rms          rms(c)
DAV:   1    -0.440418587143E+02    0.37370E-01   -0.22092E-02  3688   0.116E+00    0.842E-02
RMM:   2    -0.440432535911E+02   -0.13949E-02   -0.55427E-03  1992   0.266E-01
   1715 T=  1034. E= -.37245112E+02 F= -.44043254E+02 E0= -.43993903E+02  EK= 0.46758E+01 SP= 0.21E+01 SK= 0.59E-01 mag=     -0.300
       N       E                     dE             d eps       ncg     rms          rms(c)
DAV:   1    -0.440033537092E+02    0.38505E-01   -0.29232E-02  4000   0.120E+00    0.751E-02
RMM:   2    -0.440047713924E+02   -0.14177E-02   -0.63209E-03  2012   0.283E-01
   1716 T=  1051. E= -.37243299E+02 F= -.44004771E+02 E0= -.43955358E+02  EK= 0.47556E+01 SP= 0.20E+01 SK= 0.32E-01 mag=     -0.334
       N       E                     dE             d eps       ncg     rms          rms(c)
DAV:   1    -0.439634613700E+02    0.39892E-01   -0.25696E-02  3696   0.120E+00    0.833E-02
RMM:   2    -0.439652958801E+02   -0.18345E-02   -0.70087E-03  2028   0.309E-01    0.674E-02
RMM:   3    -0.439659395564E+02   -0.64368E-03   -0.19443E-03  1955   0.121E-01
   1717 T=  1061. E= -.37242016E+02 F= -.43965940E+02 E0= -.43915964E+02  EK= 0.47991E+01 SP= 0.19E+01 SK= 0.12E-01 mag=     -0.125
       N       E                     dE             d eps       ncg     rms          rms(c)
DAV:   1    -0.439262519171E+02    0.39044E-01   -0.34616E-02  3656   0.125E+00    0.720E-02
RMM:   2    -0.439275825128E+02   -0.13306E-02   -0.50320E-03  1951   0.295E-01
   1718 T=  1064. E= -.37232960E+02 F= -.43927583E+02 E0= -.43877584E+02  EK= 0.48128E+01 SP= 0.19E+01 SK= 0.17E-02 mag=      0.253
       N       E                     dE             d eps       ncg     rms          rms(c)
DAV:   1    -0.438832574441E+02    0.42994E-01   -0.38273E-02  4008   0.129E+00    0.111E-01
RMM:   2    -0.438857187751E+02   -0.24613E-02   -0.76703E-03  2008   0.275E-01    0.950E-02
RMM:   3    -0.438872702198E+02   -0.15514E-02   -0.24151E-03  1830   0.113E-01
   1719 T=  1058. E= -.37223712E+02 F= -.43887270E+02 E0= -.43838420E+02  EK= 0.47857E+01 SP= 0.19E+01 SK= 0.74E-03 mag=      0.344
       N       E                     dE             d eps       ncg     rms          rms(c)
DAV:   1    -0.438498361300E+02    0.35883E-01   -0.32662E-02  3368   0.118E+00    0.954E-02
RMM:   2    -0.438514471406E+02   -0.16110E-02   -0.69337E-03  1980   0.305E-01
   1720 T=  1043. E= -.37218896E+02 F= -.43851447E+02 E0= -.43800939E+02  EK= 0.47209E+01 SP= 0.19E+01 SK= 0.87E-02 mag=      0.117
       N       E                     dE             d eps       ncg     rms          rms(c)
DAV:   1    -0.438124364559E+02    0.37400E-01   -0.58328E-02  4000   0.129E+00    0.923E-02
RMM:   2    -0.438143253714E+02   -0.18889E-02   -0.80772E-03  2062   0.292E-01    0.676E-02
RMM:   3    -0.438152913788E+02   -0.96601E-03   -0.23313E-03  1989   0.120E-01
   1721 T=  1022. E= -.37212564E+02 F= -.43815291E+02 E0= -.43764838E+02  EK= 0.46228E+01 SP= 0.20E+01 SK= 0.24E-01 mag=     -0.214
       N       E                     dE             d eps       ncg     rms          rms(c)
DAV:   1    -0.437773210951E+02    0.37004E-01   -0.24762E-02  3320   0.115E+00    0.127E-01
RMM:   2    -0.437794982020E+02   -0.21771E-02   -0.61718E-03  1918   0.304E-01    0.911E-02
RMM:   3    -0.437805744830E+02   -0.10763E-02   -0.24896E-03  1825   0.125E-01
   1722 T=   994. E= -.37206555E+02 F= -.43780574E+02 E0= -.43730877E+02  EK= 0.44963E+01 SP= 0.20E+01 SK= 0.44E-01 mag=     -0.384
       N       E                     dE             d eps       ncg     rms          rms(c)
DAV:   1    -0.437487569553E+02    0.30741E-01   -0.35996E-02  3624   0.118E+00    0.760E-02
RMM:   2    -0.437501306563E+02   -0.13737E-02   -0.53388E-03  1985   0.281E-01
   1723 T=   962. E= -.37197662E+02 F= -.43750131E+02 E0= -.43699640E+02  EK= 0.43535E+01 SP= 0.21E+01 SK= 0.66E-01 mag=     -0.315
       N       E                     dE             d eps       ncg     rms          rms(c)
DAV:   1    -0.437213240948E+02    0.27433E-01   -0.32618E-02  3936   0.117E+00    0.632E-02
RMM:   2    -0.437225806841E+02   -0.12566E-02   -0.59083E-03  2009   0.265E-01
   1724 T=   926. E= -.37193726E+02 F= -.43722581E+02 E0= -.43671262E+02  EK= 0.41914E+01 SP= 0.23E+01 SK= 0.87E-01 mag=     -0.005
       N       E                     dE             d eps       ncg     rms          rms(c)
DAV:   1    -0.436956083035E+02    0.25716E-01   -0.20408E-02  3024   0.113E+00    0.757E-02
RMM:   2    -0.436972042925E+02   -0.15960E-02   -0.72786E-03  2042   0.310E-01
   1725 T=   889. E= -.37187798E+02 F= -.43697204E+02 E0= -.43646999E+02  EK= 0.40229E+01 SP= 0.24E+01 SK= 0.10E+00 mag=      0.423
       N       E                     dE             d eps       ncg     rms          rms(c)
DAV:   1    -0.436725509430E+02    0.23057E-01   -0.30859E-02  4080   0.122E+00    0.108E-01
RMM:   2    -0.436747747035E+02   -0.22238E-02   -0.73839E-03  2032   0.293E-01    0.905E-02
RMM:   3    -0.436761159612E+02   -0.13413E-02   -0.27933E-03  1909   0.115E-01
   1726 T=   852. E= -.37180303E+02 F= -.43676116E+02 E0= -.43627248E+02  EK= 0.38554E+01 SP= 0.25E+01 SK= 0.12E+00 mag=      0.463
       N       E                     dE             d eps       ncg     rms          rms(c)
DAV:   1    -0.436609988546E+02    0.13776E-01   -0.31807E-02  3360   0.109E+00    0.739E-02
RMM:   2    -0.436622649340E+02   -0.12661E-02   -0.64711E-03  1954   0.284E-01
   1727 T=   816. E= -.37174754E+02 F= -.43662265E+02 E0= -.43610684E+02  EK= 0.36935E+01 SP= 0.27E+01 SK= 0.12E+00 mag=      0.099
       N       E                     dE             d eps       ncg     rms          rms(c)
DAV:   1    -0.436461161388E+02    0.14883E-01   -0.51065E-02  3840   0.112E+00    0.102E-01
RMM:   2    -0.436479770256E+02   -0.18609E-02   -0.66548E-03  2002   0.252E-01    0.821E-02
RMM:   3    -0.436492373052E+02   -0.12603E-02   -0.23966E-03  1878   0.104E-01
   1728 T=   782. E= -.37166323E+02 F= -.43649237E+02 E0= -.43598806E+02  EK= 0.35399E+01 SP= 0.28E+01 SK= 0.12E+00 mag=     -0.371
       N       E                     dE             d eps       ncg     rms          rms(c)
DAV:   1    -0.436378317316E+02    0.10145E-01   -0.17173E-02  3288   0.987E-01    0.125E-01
RMM:   2    -0.436398601629E+02   -0.20284E-02   -0.62604E-03  1841   0.277E-01    0.938E-02
RMM:   3    -0.436409974049E+02   -0.11372E-02   -0.21716E-03  1824   0.114E-01
   1729 T=   750. E= -.37161684E+02 F= -.43640997E+02 E0= -.43591757E+02  EK= 0.33953E+01 SP= 0.30E+01 SK= 0.12E+00 mag=     -0.552
       N       E                     dE             d eps       ncg     rms          rms(c)
DAV:   1    -0.436374996629E+02    0.23605E-02   -0.31649E-02  3464   0.101E+00    0.983E-02
RMM:   2    -0.436387842593E+02   -0.12846E-02   -0.50572E-03  1996   0.255E-01
   1730 T=   722. E= -.37156605E+02 F= -.43638784E+02 E0= -.43587453E+02  EK= 0.32677E+01 SP= 0.31E+01 SK= 0.11E+00 mag=     -0.342
       N       E                     dE             d eps       ncg     rms          rms(c)
DAV:   1    -0.436376859005E+02   -0.18624E-03   -0.38269E-02  3464   0.101E+00    0.847E-02
RMM:   2    -0.436389839017E+02   -0.12980E-02   -0.59541E-03  1993   0.258E-01
   1731 T=   697. E= -.37151283E+02 F= -.43638984E+02 E0= -.43587199E+02  EK= 0.31552E+01 SP= 0.32E+01 SK= 0.91E-01 mag=      0.214
       N       E                     dE             d eps       ncg     rms          rms(c)
DAV:   1    -0.436364223153E+02    0.12636E-02   -0.21174E-02  3360   0.949E-01    0.131E-01
RMM:   2    -0.436389657889E+02   -0.25435E-02   -0.70428E-03  1988   0.275E-01    0.111E-01
RMM:   3    -0.436406693599E+02   -0.17036E-02   -0.29171E-03  1882   0.115E-01
   1732 T=   676. E= -.37144726E+02 F= -.43640669E+02 E0= -.43591893E+02  EK= 0.30590E+01 SP= 0.34E+01 SK= 0.73E-01 mag=      0.532
       N       E                     dE             d eps       ncg     rms          rms(c)
DAV:   1    -0.436478385101E+02   -0.88727E-02   -0.35233E-02  3328   0.100E+00    0.101E-01
RMM:   2    -0.436494910155E+02   -0.16525E-02   -0.67618E-03  1895   0.264E-01
   1733 T=   659. E= -.37139369E+02 F= -.43649491E+02 E0= -.43598689E+02  EK= 0.29832E+01 SP= 0.35E+01 SK= 0.56E-01 mag=      0.463
       N       E                     dE             d eps       ncg     rms          rms(c)
DAV:   1    -0.436569236545E+02   -0.90851E-02   -0.44638E-02  3504   0.989E-01    0.118E-01
RMM:   2    -0.436590056317E+02   -0.20820E-02   -0.63822E-03  1994   0.252E-01    0.963E-02
RMM:   3    -0.436601693277E+02   -0.11637E-02   -0.20812E-03  1943   0.103E-01
   1734 T=   646. E= -.37134540E+02 F= -.43660169E+02 E0= -.43607733E+02  EK= 0.29235E+01 SP= 0.36E+01 SK= 0.39E-01 mag=     -0.005
       N       E                     dE             d eps       ncg     rms          rms(c)
DAV:   1    -0.436694789064E+02   -0.10473E-01   -0.25639E-02  3168   0.924E-01    0.119E-01
RMM:   2    -0.436714374582E+02   -0.19586E-02   -0.60533E-03  1887   0.250E-01    0.918E-02
RMM:   3    -0.436722918259E+02   -0.85437E-03   -0.17910E-03  1828   0.973E-02
   1735 T=   636. E= -.37130985E+02 F= -.43672292E+02 E0= -.43622073E+02  EK= 0.28791E+01 SP= 0.36E+01 SK= 0.24E-01 mag=     -0.487
       N       E                     dE             d eps       ncg     rms          rms(c)
DAV:   1    -0.436831248691E+02   -0.11687E-01   -0.47809E-02  3128   0.103E+00    0.147E-01
RMM:   2    -0.436852028988E+02   -0.20780E-02   -0.63480E-03  2010   0.293E-01    0.112E-01
RMM:   3    -0.436865429151E+02   -0.13400E-02   -0.17491E-03  1980   0.114E-01
   1736 T=   631. E= -.37126008E+02 F= -.43686543E+02 E0= -.43636341E+02  EK= 0.28535E+01 SP= 0.37E+01 SK= 0.12E-01 mag=     -0.480
       N       E                     dE             d eps       ncg     rms          rms(c)
DAV:   1    -0.437052098953E+02   -0.20007E-01   -0.21010E-02  3312   0.103E+00    0.782E-02
RMM:   2    -0.437060148974E+02   -0.80500E-03   -0.47522E-03  1938   0.252E-01
   1737 T=   629. E= -.37122464E+02 F= -.43706015E+02 E0= -.43653102E+02  EK= 0.28469E+01 SP= 0.37E+01 SK= 0.44E-02 mag=     -0.008
       N       E                     dE             d eps       ncg     rms          rms(c)
DAV:   1    -0.437178410944E+02   -0.12631E-01   -0.28251E-02  3496   0.983E-01    0.114E-01
RMM:   2    -0.437196636948E+02   -0.18226E-02   -0.68555E-03  1995   0.263E-01    0.929E-02
RMM:   3    -0.437210261073E+02   -0.13624E-02   -0.25917E-03  1915   0.113E-01
   1738 T=   631. E= -.37115112E+02 F= -.43721026E+02 E0= -.43670170E+02  EK= 0.28546E+01 SP= 0.38E+01 SK= 0.47E-03 mag=      0.477
       N       E                     dE             d eps       ncg     rms          rms(c)
DAV:   1    -0.437360992567E+02   -0.16436E-01   -0.17272E-02  3232   0.982E-01    0.130E-01
RMM:   2    -0.437374804746E+02   -0.13812E-02   -0.46896E-03  1896   0.256E-01
   1739 T=   636. E= -.37109793E+02 F= -.43737480E+02 E0= -.43688010E+02  EK= 0.28766E+01 SP= 0.38E+01 SK= 0.50E-03 mag=      0.791
       N       E                     dE             d eps       ncg     rms          rms(c)
DAV:   1    -0.437530110297E+02   -0.16912E-01   -0.18029E-02  3560   0.980E-01    0.107E-01
RMM:   2    -0.437546214088E+02   -0.16104E-02   -0.47689E-03  1995   0.230E-01
   1740 T=   644. E= -.37104737E+02 F= -.43754621E+02 E0= -.43704565E+02  EK= 0.29138E+01 SP= 0.37E+01 SK= 0.42E-02 mag=      0.728
       N       E                     dE             d eps       ncg     rms          rms(c)
DAV:   1    -0.437720851333E+02   -0.19074E-01   -0.11210E-02  2592   0.936E-01    0.791E-02
RMM:   2    -0.437731182113E+02   -0.10331E-02   -0.54514E-03  1999   0.285E-01
   1741 T=   655. E= -.37101880E+02 F= -.43773118E+02 E0= -.43719840E+02  EK= 0.29645E+01 SP= 0.37E+01 SK= 0.11E-01 mag=      0.226
       N       E                     dE             d eps       ncg     rms          rms(c)
DAV:   1    -0.437853008876E+02   -0.13216E-01   -0.20942E-02  3680   0.107E+00    0.909E-02
RMM:   2    -0.437866454116E+02   -0.13445E-02   -0.69664E-03  2004   0.301E-01
   1742 T=   669. E= -.37095699E+02 F= -.43786645E+02 E0= -.43734737E+02  EK= 0.30275E+01 SP= 0.36E+01 SK= 0.20E-01 mag=     -0.581
       N       E                     dE             d eps       ncg     rms          rms(c)
DAV:   1    -0.437857569232E+02   -0.45604E-03   -0.19504E-02  3256   0.965E-01    0.198E-01
RMM:   2    -0.437905270383E+02   -0.47701E-02   -0.92011E-03  1963   0.295E-01    0.164E-01
RMM:   3    -0.437963597158E+02   -0.58327E-02   -0.97583E-03  1827   0.155E-01    0.105E-01
RMM:   4    -0.437995437037E+02   -0.31840E-02   -0.61921E-03  1852   0.133E-01    0.607E-02
RMM:   5    -0.438007663000E+02   -0.12226E-02   -0.30730E-03  1912   0.942E-02
   1743 T=   685. E= -.37095418E+02 F= -.43800766E+02 E0= -.43747152E+02  EK= 0.30986E+01 SP= 0.36E+01 SK= 0.30E-01 mag=     -0.077
       N       E                     dE             d eps       ncg     rms          rms(c)
DAV:   1    -0.437932273092E+02    0.63164E-02   -0.45958E-02  3408   0.103E+00    0.221E-01
RMM:   2    -0.437990800437E+02   -0.58527E-02   -0.83516E-03  1851   0.256E-01    0.182E-01
RMM:   3    -0.438031879757E+02   -0.41079E-02   -0.42822E-03  1824   0.111E-01    0.139E-01
RMM:   4    -0.438080550749E+02   -0.48671E-02   -0.71665E-03  2048   0.115E-01    0.800E-02
RMM:   5    -0.438097573019E+02   -0.17022E-02   -0.29316E-03  1922   0.835E-02
   1744 T=   702. E= -.37094005E+02 F= -.43809757E+02 E0= -.43756469E+02  EK= 0.31781E+01 SP= 0.35E+01 SK= 0.41E-01 mag=      0.176
       N       E                     dE             d eps       ncg     rms          rms(c)
DAV:   1    -0.438140507256E+02   -0.59957E-02   -0.43987E-02  3304   0.107E+00    0.101E-01
RMM:   2    -0.438153971181E+02   -0.13464E-02   -0.69456E-03  1996   0.303E-01
   1745 T=   722. E= -.37090631E+02 F= -.43815397E+02 E0= -.43761259E+02  EK= 0.32679E+01 SP= 0.34E+01 SK= 0.50E-01 mag=      0.135
       N       E                     dE             d eps       ncg     rms          rms(c)
DAV:   1    -0.438154053208E+02   -0.13546E-02   -0.41081E-02  3552   0.105E+00    0.111E-01
RMM:   2    -0.438171551396E+02   -0.17498E-02   -0.76407E-03  2014   0.311E-01
   1746 T=   743. E= -.37088025E+02 F= -.43817155E+02 E0= -.43762899E+02  EK= 0.33632E+01 SP= 0.33E+01 SK= 0.59E-01 mag=     -0.167
       N       E                     dE             d eps       ncg     rms          rms(c)
DAV:   1    -0.438124818115E+02    0.29235E-02   -0.21600E-02  3360   0.109E+00    0.122E-01
RMM:   2    -0.438142238057E+02   -0.17420E-02   -0.62744E-03  2007   0.302E-01
   1747 T=   766. E= -.37083542E+02 F= -.43814224E+02 E0= -.43761357E+02  EK= 0.34643E+01 SP= 0.32E+01 SK= 0.65E-01 mag=     -0.579
       N       E                     dE             d eps       ncg     rms          rms(c)
DAV:   1    -0.438045891669E+02    0.78926E-02   -0.19707E-02  3280   0.111E+00    0.122E-01
RMM:   2    -0.438067184120E+02   -0.21292E-02   -0.70040E-03  1958   0.291E-01    0.103E-01
RMM:   3    -0.438077178778E+02   -0.99947E-03   -0.19743E-03  1902   0.112E-01
   1748 T=   789. E= -.37077708E+02 F= -.43807718E+02 E0= -.43756204E+02  EK= 0.35700E+01 SP= 0.31E+01 SK= 0.68E-01 mag=     -0.473
       N       E                     dE             d eps       ncg     rms          rms(c)
DAV:   1    -0.437962524565E+02    0.10466E-01   -0.39221E-02  3248   0.114E+00    0.127E-01
RMM:   2    -0.437981321841E+02   -0.18797E-02   -0.66893E-03  1959   0.319E-01    0.935E-02
RMM:   3    -0.437988108403E+02   -0.67866E-03   -0.14720E-03  1734   0.108E-01
   1749 T=   812. E= -.37074476E+02 F= -.43798811E+02 E0= -.43744195E+02  EK= 0.36750E+01 SP= 0.30E+01 SK= 0.68E-01 mag=      0.077
       N       E                     dE             d eps       ncg     rms          rms(c)
DAV:   1    -0.437776357898E+02    0.20496E-01   -0.61975E-02  3440   0.121E+00    0.141E-01
RMM:   2    -0.437800468120E+02   -0.24110E-02   -0.82342E-03  2002   0.316E-01    0.109E-01
RMM:   3    -0.437815067289E+02   -0.14599E-02   -0.23912E-03  1931   0.129E-01
   1750 T=   835. E= -.37067073E+02 F= -.43781507E+02 E0= -.43729328E+02  EK= 0.37775E+01 SP= 0.29E+01 SK= 0.64E-01 mag=      0.596
       N       E                     dE             d eps       ncg     rms          rms(c)
DAV:   1    -0.437569185713E+02    0.23128E-01   -0.28780E-02  3336   0.117E+00    0.142E-01
RMM:   2    -0.437590433251E+02   -0.21248E-02   -0.74143E-03  2003   0.304E-01    0.107E-01
RMM:   3    -0.437608034917E+02   -0.17602E-02   -0.26647E-03  1848   0.129E-01
   1751 T=   856. E= -.37061737E+02 F= -.43760803E+02 E0= -.43708522E+02  EK= 0.38734E+01 SP= 0.28E+01 SK= 0.59E-01 mag=      0.547
       N       E                     dE             d eps       ncg     rms          rms(c)
DAV:   1    -0.437359298758E+02    0.23113E-01   -0.29329E-02  3440   0.115E+00    0.977E-02
RMM:   2    -0.437370019696E+02   -0.10721E-02   -0.54193E-03  2001   0.275E-01
   1752 T=   876. E= -.37055715E+02 F= -.43737002E+02 E0= -.43682169E+02  EK= 0.39628E+01 SP= 0.27E+01 SK= 0.50E-01 mag=     -0.069
       N       E                     dE             d eps       ncg     rms          rms(c)
DAV:   1    -0.436976068129E+02    0.38323E-01   -0.38150E-02  3864   0.121E+00    0.159E-01
RMM:   2    -0.437009734556E+02   -0.33666E-02   -0.84920E-03  2008   0.286E-01    0.132E-01
RMM:   3    -0.437036678786E+02   -0.26944E-02   -0.35849E-03  1846   0.128E-01    0.106E-01
RMM:   4    -0.437065187581E+02   -0.28509E-02   -0.43098E-03  1935   0.106E-01    0.602E-02
RMM:   5    -0.437075069900E+02   -0.98823E-03   -0.19370E-03  1860   0.776E-02
   1753 T=   893. E= -.37051273E+02 F= -.43707507E+02 E0= -.43653057E+02  EK= 0.40379E+01 SP= 0.26E+01 SK= 0.41E-01 mag=     -0.123
       N       E                     dE             d eps       ncg     rms          rms(c)
DAV:   1    -0.436648964209E+02    0.41622E-01   -0.24469E-02  3344   0.110E+00    0.164E-01
RMM:   2    -0.436679459361E+02   -0.30495E-02   -0.70459E-03  1917   0.275E-01    0.131E-01
RMM:   3    -0.436700966308E+02   -0.21507E-02   -0.25967E-03  1830   0.104E-01    0.102E-01
RMM:   4    -0.436727740781E+02   -0.26774E-02   -0.37926E-03  1899   0.933E-02    0.449E-02
RMM:   5    -0.436731880998E+02   -0.41402E-03   -0.61062E-04  1627   0.578E-02
   1754 T=   905. E= -.37050180E+02 F= -.43673188E+02 E0= -.43618488E+02  EK= 0.40948E+01 SP= 0.25E+01 SK= 0.31E-01 mag=      0.085
       N       E                     dE             d eps       ncg     rms          rms(c)
DAV:   1    -0.436311214730E+02    0.41653E-01   -0.21488E-02  3744   0.112E+00    0.997E-02
RMM:   2    -0.436325140183E+02   -0.13925E-02   -0.52242E-03  1988   0.260E-01
   1755 T=   915. E= -.37043486E+02 F= -.43632514E+02 E0= -.43578681E+02  EK= 0.41387E+01 SP= 0.24E+01 SK= 0.22E-01 mag=      0.411
       N       E                     dE             d eps       ncg     rms          rms(c)
DAV:   1    -0.435832005001E+02    0.47921E-01   -0.22388E-02  3832   0.118E+00    0.157E-01
RMM:   2    -0.435863621283E+02   -0.31616E-02   -0.89529E-03  2016   0.288E-01    0.128E-01
RMM:   3    -0.435882777820E+02   -0.19157E-02   -0.25537E-03  1867   0.116E-01    0.109E-01
RMM:   4    -0.435921851357E+02   -0.39074E-02   -0.83262E-03  2112   0.127E-01    0.405E-02
RMM:   5    -0.435924135794E+02   -0.22844E-03   -0.54591E-04  1647   0.656E-02
   1756 T=   920. E= -.37042246E+02 F= -.43592414E+02 E0= -.43537901E+02  EK= 0.41638E+01 SP= 0.24E+01 SK= 0.13E-01 mag=      0.141
       N       E                     dE             d eps       ncg     rms          rms(c)
DAV:   1    -0.435375218624E+02    0.54663E-01   -0.27285E-02  3464   0.116E+00    0.173E-01
RMM:   2    -0.435408725888E+02   -0.33507E-02   -0.78093E-03  1914   0.270E-01    0.138E-01
RMM:   3    -0.435431094748E+02   -0.22369E-02   -0.24864E-03  1824   0.103E-01    0.114E-01
RMM:   4    -0.435468358976E+02   -0.37264E-02   -0.64030E-03  2013   0.104E-01    0.539E-02
RMM:   5    -0.435473072543E+02   -0.47136E-03   -0.50872E-04  1639   0.612E-02
   1757 T=   921. E= -.37040869E+02 F= -.43547307E+02 E0= -.43492908E+02  EK= 0.41688E+01 SP= 0.23E+01 SK= 0.71E-02 mag=     -0.145
       N       E                     dE             d eps       ncg     rms          rms(c)
DAV:   1    -0.434978326618E+02    0.49003E-01   -0.18024E-02  3656   0.113E+00    0.880E-02
RMM:   2    -0.434991296610E+02   -0.12970E-02   -0.51019E-03  2009   0.259E-01
   1758 T=   919. E= -.37035300E+02 F= -.43499130E+02 E0= -.43445069E+02  EK= 0.41592E+01 SP= 0.23E+01 SK= 0.27E-02 mag=     -0.325
       N       E                     dE             d eps       ncg     rms          rms(c)
DAV:   1    -0.434472679711E+02    0.50565E-01   -0.20527E-02  3824   0.116E+00    0.113E-01
RMM:   2    -0.434493641260E+02   -0.20962E-02   -0.75269E-03  2013   0.279E-01    0.915E-02
RMM:   3    -0.434503328139E+02   -0.96869E-03   -0.18938E-03  1862   0.106E-01
   1759 T=   913. E= -.37032458E+02 F= -.43450333E+02 E0= -.43396196E+02  EK= 0.41310E+01 SP= 0.23E+01 SK= 0.47E-03 mag=     -0.145
       N       E                     dE             d eps       ncg     rms          rms(c)
DAV:   1    -0.433985913102E+02    0.50773E-01   -0.31968E-02  3368   0.119E+00    0.118E-01
RMM:   2    -0.434011279769E+02   -0.25367E-02   -0.64939E-03  1951   0.298E-01    0.845E-02
RMM:   3    -0.434016824941E+02   -0.55452E-03   -0.15562E-03  1781   0.106E-01
   1760 T=   904. E= -.37029958E+02 F= -.43401682E+02 E0= -.43347495E+02  EK= 0.40881E+01 SP= 0.23E+01 SK= 0.49E-04 mag=      0.210
       N       E                     dE             d eps       ncg     rms          rms(c)
DAV:   1    -0.433475499161E+02    0.53578E-01   -0.71751E-02  3656   0.123E+00    0.126E-01
RMM:   2    -0.433497065843E+02   -0.21567E-02   -0.76849E-03  2041   0.321E-01    0.965E-02
RMM:   3    -0.433507478155E+02   -0.10412E-02   -0.18975E-03  1926   0.112E-01
   1761 T=   892. E= -.37022443E+02 F= -.43350748E+02 E0= -.43297329E+02  EK= 0.40349E+01 SP= 0.23E+01 SK= 0.11E-02 mag=      0.319
       N       E                     dE             d eps       ncg     rms          rms(c)
DAV:   1    -0.433025262277E+02    0.47180E-01   -0.46913E-02  3464   0.120E+00    0.790E-02
RMM:   2    -0.433037236772E+02   -0.11974E-02   -0.63461E-03  2010   0.290E-01
   1762 T=   878. E= -.37018417E+02 F= -.43303724E+02 E0= -.43249288E+02  EK= 0.39709E+01 SP= 0.23E+01 SK= 0.31E-02 mag=      0.139
       N       E                     dE             d eps       ncg     rms          rms(c)
DAV:   1    -0.432536832729E+02    0.48843E-01   -0.47346E-02  3880   0.119E+00    0.816E-02
RMM:   2    -0.432551524879E+02   -0.14692E-02   -0.73204E-03  2022   0.282E-01
   1763 T=   862. E= -.37013020E+02 F= -.43255152E+02 E0= -.43200910E+02  EK= 0.38977E+01 SP= 0.23E+01 SK= 0.54E-02 mag=     -0.246
       N       E                     dE             d eps       ncg     rms          rms(c)
DAV:   1    -0.432050459111E+02    0.48637E-01   -0.22875E-02  3536   0.110E+00    0.133E-01
RMM:   2    -0.432074280961E+02   -0.23822E-02   -0.77998E-03  2037   0.339E-01    0.108E-01
RMM:   3    -0.432094233542E+02   -0.19953E-02   -0.30005E-03  1915   0.132E-01    0.771E-02
RMM:   4    -0.432111135645E+02   -0.16902E-02   -0.27696E-03  1885   0.106E-01
   1764 T=   844. E= -.37011993E+02 F= -.43211114E+02 E0= -.43156726E+02  EK= 0.38179E+01 SP= 0.24E+01 SK= 0.77E-02 mag=     -0.161
       N       E                     dE             d eps       ncg     rms          rms(c)
DAV:   1    -0.431627908114E+02    0.46633E-01   -0.29250E-02  3624   0.115E+00    0.137E-01
RMM:   2    -0.431652340236E+02   -0.24432E-02   -0.78918E-03  1910   0.266E-01    0.106E-01
RMM:   3    -0.431671671475E+02   -0.19331E-02   -0.33431E-03  1824   0.111E-01    0.779E-02
RMM:   4    -0.431684610393E+02   -0.12939E-02   -0.19447E-03  1824   0.779E-02
   1765 T=   826. E= -.37008008E+02 F= -.43168461E+02 E0= -.43113907E+02  EK= 0.37381E+01 SP= 0.24E+01 SK= 0.94E-02 mag=      0.108
       N       E                     dE             d eps       ncg     rms          rms(c)
DAV:   1    -0.431260911992E+02    0.41076E-01   -0.23767E-02  3608   0.107E+00    0.964E-02
RMM:   2    -0.431274957918E+02   -0.14046E-02   -0.58601E-03  1918   0.256E-01
   1766 T=   809. E= -.37001391E+02 F= -.43127496E+02 E0= -.43073719E+02  EK= 0.36604E+01 SP= 0.25E+01 SK= 0.10E-01 mag=      0.414
       N       E                     dE             d eps       ncg     rms          rms(c)
DAV:   1    -0.430887226316E+02    0.37369E-01   -0.28976E-02  3680   0.109E+00    0.946E-02
RMM:   2    -0.430903148890E+02   -0.15923E-02   -0.58726E-03  2007   0.270E-01
   1767 T=   792. E= -.36997525E+02 F= -.43090315E+02 E0= -.43037065E+02  EK= 0.35837E+01 SP= 0.25E+01 SK= 0.10E-01 mag=      0.582
       N       E                     dE             d eps       ncg     rms          rms(c)
DAV:   1    -0.430567917915E+02    0.31931E-01   -0.20847E-02  3488   0.108E+00    0.968E-02
RMM:   2    -0.430584277167E+02   -0.16359E-02   -0.59782E-03  2013   0.286E-01
   1768 T=   777. E= -.36993980E+02 F= -.43058428E+02 E0= -.43004551E+02  EK= 0.35137E+01 SP= 0.25E+01 SK= 0.95E-02 mag=      0.412
       N       E                     dE             d eps       ncg     rms          rms(c)
DAV:   1    -0.430306344794E+02    0.26157E-01   -0.22491E-02  3368   0.111E+00    0.679E-02
RMM:   2    -0.430317917380E+02   -0.11573E-02   -0.66439E-03  2023   0.308E-01
   1769 T=   763. E= -.36988645E+02 F= -.43031792E+02 E0= -.42976927E+02  EK= 0.34540E+01 SP= 0.26E+01 SK= 0.80E-02 mag=     -0.074
       N       E                     dE             d eps       ncg     rms          rms(c)
DAV:   1    -0.430031165340E+02    0.27518E-01   -0.18627E-02  3432   0.102E+00    0.106E-01
RMM:   2    -0.430050695193E+02   -0.19530E-02   -0.71160E-03  2009   0.309E-01    0.873E-02
RMM:   3    -0.430061133968E+02   -0.10439E-02   -0.22704E-03  1946   0.117E-01
   1770 T=   752. E= -.36982437E+02 F= -.43006113E+02 E0= -.42952746E+02  EK= 0.34006E+01 SP= 0.26E+01 SK= 0.61E-02 mag=     -0.403
       N       E                     dE             d eps       ncg     rms          rms(c)
DAV:   1    -0.429845790578E+02    0.20490E-01   -0.24103E-02  3280   0.103E+00    0.107E-01
RMM:   2    -0.429859638305E+02   -0.13848E-02   -0.53827E-03  1938   0.262E-01
   1771 T=   742. E= -.36976038E+02 F= -.42985964E+02 E0= -.42932219E+02  EK= 0.33584E+01 SP= 0.26E+01 SK= 0.41E-02 mag=     -0.436
       N       E                     dE             d eps       ncg     rms          rms(c)
DAV:   1    -0.429682073229E+02    0.16372E-01   -0.33099E-02  3712   0.111E+00    0.926E-02
RMM:   2    -0.429698113804E+02   -0.16041E-02   -0.58052E-03  2023   0.252E-01
   1772 T=   735. E= -.36970268E+02 F= -.42969811E+02 E0= -.42915247E+02  EK= 0.33259E+01 SP= 0.27E+01 SK= 0.23E-02 mag=     -0.137
       N       E                     dE             d eps       ncg     rms          rms(c)
DAV:   1    -0.429563161944E+02    0.11891E-01   -0.13297E-02  2760   0.969E-01    0.895E-02
RMM:   2    -0.429575963612E+02   -0.12802E-02   -0.56927E-03  2030   0.285E-01
   1773 T=   730. E= -.36966309E+02 F= -.42957596E+02 E0= -.42903643E+02  EK= 0.33023E+01 SP= 0.27E+01 SK= 0.92E-03 mag=      0.336
       N       E                     dE             d eps       ncg     rms          rms(c)
DAV:   1    -0.429435844269E+02    0.12732E-01   -0.27559E-02  3752   0.122E+00    0.120E-01
RMM:   2    -0.429458849532E+02   -0.23005E-02   -0.89252E-03  2042   0.318E-01    0.969E-02
RMM:   3    -0.429471679102E+02   -0.12830E-02   -0.29991E-03  1910   0.128E-01
   1774 T=   727. E= -.36960352E+02 F= -.42947168E+02 E0= -.42894914E+02  EK= 0.32897E+01 SP= 0.27E+01 SK= 0.13E-03 mag=      0.417
       N       E                     dE             d eps       ncg     rms          rms(c)
DAV:   1    -0.429407882481E+02    0.50967E-02   -0.32699E-02  3288   0.112E+00    0.102E-01
RMM:   2    -0.429419208224E+02   -0.11326E-02   -0.49420E-03  1981   0.277E-01
   1775 T=   727. E= -.36955419E+02 F= -.42941921E+02 E0= -.42887779E+02  EK= 0.32886E+01 SP= 0.27E+01 SK= 0.61E-04 mag=      0.084
       N       E                     dE             d eps       ncg     rms          rms(c)
DAV:   1    -0.429331062004E+02    0.76820E-02   -0.46331E-02  3608   0.116E+00    0.122E-01
RMM:   2    -0.429352303922E+02   -0.21242E-02   -0.68671E-03  2004   0.271E-01    0.984E-02
RMM:   3    -0.429369330359E+02   -0.17026E-02   -0.24128E-03  1889   0.116E-01
   1776 T=   729. E= -.36948992E+02 F= -.42936933E+02 E0= -.42883694E+02  EK= 0.32968E+01 SP= 0.27E+01 SK= 0.72E-03 mag=     -0.215
       N       E                     dE             d eps       ncg     rms          rms(c)
DAV:   1    -0.429294175437E+02    0.58128E-02   -0.32755E-02  3312   0.103E+00    0.139E-01
RMM:   2    -0.429319936591E+02   -0.25761E-02   -0.63085E-03  1898   0.321E-01    0.109E-01
RMM:   3    -0.429331147259E+02   -0.11211E-02   -0.19061E-03  1821   0.116E-01
   1777 T=   732. E= -.36944696E+02 F= -.42933115E+02 E0= -.42880241E+02  EK= 0.33113E+01 SP= 0.27E+01 SK= 0.20E-02 mag=     -0.272
       N       E                     dE             d eps       ncg     rms          rms(c)
DAV:   1    -0.429300762834E+02    0.19174E-02   -0.51932E-02  3416   0.108E+00    0.130E-01
RMM:   2    -0.429316582978E+02   -0.15820E-02   -0.66418E-03  2014   0.297E-01
   1778 T=   737. E= -.36940179E+02 F= -.42931658E+02 E0= -.42878398E+02  EK= 0.33354E+01 SP= 0.27E+01 SK= 0.39E-02 mag=     -0.062
       N       E                     dE             d eps       ncg     rms          rms(c)
DAV:   1    -0.429288010371E+02    0.12752E-02   -0.46234E-02  3472   0.114E+00    0.103E-01
RMM:   2    -0.429302908686E+02   -0.14898E-02   -0.68314E-03  2033   0.295E-01
   1779 T=   744. E= -.36935753E+02 F= -.42930291E+02 E0= -.42877996E+02  EK= 0.33662E+01 SP= 0.26E+01 SK= 0.61E-02 mag=      0.334
       N       E                     dE             d eps       ncg     rms          rms(c)
DAV:   1    -0.429254800475E+02    0.33210E-02   -0.23393E-02  3472   0.106E+00    0.119E-01
RMM:   2    -0.429273553293E+02   -0.18753E-02   -0.77910E-03  2026   0.323E-01    0.945E-02
RMM:   3    -0.429283207140E+02   -0.96538E-03   -0.23240E-03  1925   0.125E-01
   1780 T=   752. E= -.36931157E+02 F= -.42928321E+02 E0= -.42877681E+02  EK= 0.34027E+01 SP= 0.26E+01 SK= 0.85E-02 mag=      0.438
       N       E                     dE             d eps       ncg     rms          rms(c)
DAV:   1    -0.429251535527E+02    0.22018E-02   -0.28151E-02  3424   0.110E+00    0.113E-01
RMM:   2    -0.429267023878E+02   -0.15488E-02   -0.56515E-03  1926   0.288E-01
   1781 T=   762. E= -.36924893E+02 F= -.42926702E+02 E0= -.42874770E+02  EK= 0.34467E+01 SP= 0.25E+01 SK= 0.11E-01 mag=      0.179
       N       E                     dE             d eps       ncg     rms          rms(c)
DAV:   1    -0.429192555322E+02    0.58980E-02   -0.31163E-02  3640   0.118E+00    0.123E-01
RMM:   2    -0.429214630337E+02   -0.22075E-02   -0.65304E-03  2042   0.279E-01    0.101E-01
RMM:   3    -0.429228349572E+02   -0.13719E-02   -0.18218E-03  1903   0.110E-01
   1782 T=   772. E= -.36919663E+02 F= -.42922835E+02 E0= -.42871573E+02  EK= 0.34920E+01 SP= 0.25E+01 SK= 0.13E-01 mag=     -0.150
       N       E                     dE             d eps       ncg     rms          rms(c)
DAV:   1    -0.429122514990E+02    0.92115E-02   -0.42642E-02  3384   0.108E+00    0.144E-01
RMM:   2    -0.429146791909E+02   -0.24277E-02   -0.71351E-03  1887   0.278E-01    0.111E-01
RMM:   3    -0.429158702288E+02   -0.11910E-02   -0.19806E-03  1832   0.107E-01
   1783 T=   782. E= -.36915842E+02 F= -.42915870E+02 E0= -.42865391E+02  EK= 0.35363E+01 SP= 0.24E+01 SK= 0.14E-01 mag=     -0.272
       N       E                     dE             d eps       ncg     rms          rms(c)
DAV:   1    -0.429058888285E+02    0.87904E-02   -0.57922E-02  3400   0.122E+00    0.126E-01
RMM:   2    -0.429077506116E+02   -0.18618E-02   -0.79953E-03  2056   0.342E-01    0.877E-02
RMM:   3    -0.429086857624E+02   -0.93515E-03   -0.19079E-03  1955   0.122E-01
   1784 T=   792. E= -.36912335E+02 F= -.42908686E+02 E0= -.42857922E+02  EK= 0.35828E+01 SP= 0.24E+01 SK= 0.15E-01 mag=     -0.098
       N       E                     dE             d eps       ncg     rms          rms(c)
DAV:   1    -0.428968051790E+02    0.10945E-01   -0.47472E-02  3256   0.115E+00    0.837E-02
RMM:   2    -0.428979485345E+02   -0.11434E-02   -0.65262E-03  2033   0.296E-01
   1785 T=   802. E= -.36905727E+02 F= -.42897949E+02 E0= -.42847881E+02  EK= 0.36304E+01 SP= 0.23E+01 SK= 0.15E-01 mag=      0.267
       N       E                     dE             d eps       ncg     rms          rms(c)
DAV:   1    -0.428774976496E+02    0.19308E-01   -0.37350E-02  3648   0.122E+00    0.127E-01
RMM:   2    -0.428797699869E+02   -0.22723E-02   -0.81746E-03  2062   0.300E-01    0.102E-01
RMM:   3    -0.428816744838E+02   -0.19045E-02   -0.32461E-03  1881   0.131E-01    0.827E-02
RMM:   4    -0.428836769657E+02   -0.20025E-02   -0.34800E-03  1924   0.985E-02    0.373E-02
RMM:   5    -0.428840401481E+02   -0.36318E-03   -0.78252E-04  1614   0.609E-02
   1786 T=   812. E= -.36901492E+02 F= -.42884040E+02 E0= -.42834112E+02  EK= 0.36728E+01 SP= 0.23E+01 SK= 0.15E-01 mag=      0.103
       N       E                     dE             d eps       ncg     rms          rms(c)
DAV:   1    -0.428626184848E+02    0.21058E-01   -0.23286E-02  3328   0.108E+00    0.111E-01
RMM:   2    -0.428639038389E+02   -0.12854E-02   -0.50463E-03  1932   0.260E-01
   1787 T=   820. E= -.36894538E+02 F= -.42863904E+02 E0= -.42815145E+02  EK= 0.37109E+01 SP= 0.22E+01 SK= 0.14E-01 mag=     -0.429
       N       E                     dE             d eps       ncg     rms          rms(c)
DAV:   1    -0.428310000065E+02    0.31618E-01   -0.35040E-02  4024   0.120E+00    0.189E-01
RMM:   2    -0.428349563423E+02   -0.39563E-02   -0.76913E-03  2000   0.271E-01    0.153E-01
RMM:   3    -0.428381387824E+02   -0.31824E-02   -0.30324E-03  1838   0.121E-01    0.126E-01
RMM:   4    -0.428429205745E+02   -0.47818E-02   -0.83176E-03  2081   0.127E-01    0.478E-02
RMM:   5    -0.428436016348E+02   -0.68106E-03   -0.16767E-03  1826   0.753E-02
   1788 T=   827. E= -.36891396E+02 F= -.42843602E+02 E0= -.42794407E+02  EK= 0.37432E+01 SP= 0.22E+01 SK= 0.12E-01 mag=     -0.076
       N       E                     dE             d eps       ncg     rms          rms(c)
DAV:   1    -0.428058278833E+02    0.37093E-01   -0.30870E-02  3224   0.108E+00    0.197E-01
RMM:   2    -0.428098929439E+02   -0.40651E-02   -0.10018E-02  1940   0.297E-01    0.153E-01
RMM:   3    -0.428130991933E+02   -0.32062E-02   -0.39383E-03  1827   0.133E-01    0.123E-01
RMM:   4    -0.428165698218E+02   -0.34706E-02   -0.43531E-03  1944   0.103E-01    0.672E-02
RMM:   5    -0.428177466063E+02   -0.11768E-02   -0.16503E-03  1823   0.714E-02
   1789 T=   832. E= -.36889886E+02 F= -.42817747E+02 E0= -.42769140E+02  EK= 0.37655E+01 SP= 0.22E+01 SK= 0.10E-01 mag=      0.158
       N       E                     dE             d eps       ncg     rms          rms(c)
DAV:   1    -0.427867092695E+02    0.29861E-01   -0.25745E-02  3608   0.111E+00    0.917E-02
RMM:   2    -0.427881720588E+02   -0.14628E-02   -0.59310E-03  1949   0.266E-01
   1790 T=   836. E= -.36884650E+02 F= -.42788172E+02 E0= -.42739922E+02  EK= 0.37843E+01 SP= 0.21E+01 SK= 0.87E-02 mag=      0.219
       N       E                     dE             d eps       ncg     rms          rms(c)
DAV:   1    -0.427546014023E+02    0.32108E-01   -0.24803E-02  3856   0.115E+00    0.905E-02
RMM:   2    -0.427562428177E+02   -0.16414E-02   -0.65042E-03  2035   0.273E-01
   1791 T=   839. E= -.36880518E+02 F= -.42756243E+02 E0= -.42708003E+02  EK= 0.37956E+01 SP= 0.21E+01 SK= 0.69E-02 mag=      0.091
       N       E                     dE             d eps       ncg     rms          rms(c)
DAV:   1    -0.427198908505E+02    0.34711E-01   -0.17876E-02  3560   0.111E+00    0.925E-02
RMM:   2    -0.427214489398E+02   -0.15581E-02   -0.64166E-03  2021   0.304E-01
   1792 T=   840. E= -.36876129E+02 F= -.42721449E+02 E0= -.42673616E+02  EK= 0.37998E+01 SP= 0.20E+01 SK= 0.53E-02 mag=     -0.180
       N       E                     dE             d eps       ncg     rms          rms(c)
DAV:   1    -0.426824837694E+02    0.37407E-01   -0.23400E-02  3568   0.116E+00    0.917E-02
RMM:   2    -0.426842073411E+02   -0.17236E-02   -0.72938E-03  2012   0.297E-01
   1793 T=   840. E= -.36870021E+02 F= -.42684207E+02 E0= -.42637690E+02  EK= 0.37985E+01 SP= 0.20E+01 SK= 0.39E-02 mag=     -0.484
       N       E                     dE             d eps       ncg     rms          rms(c)
DAV:   1    -0.426428789830E+02    0.39605E-01   -0.16932E-02  3440   0.107E+00    0.107E-01
RMM:   2    -0.426451039073E+02   -0.22249E-02   -0.77985E-03  2030   0.309E-01    0.904E-02
RMM:   3    -0.426465337654E+02   -0.14299E-02   -0.32447E-03  1861   0.123E-01
   1794 T=   838. E= -.36866149E+02 F= -.42646534E+02 E0= -.42600412E+02  EK= 0.37900E+01 SP= 0.20E+01 SK= 0.27E-02 mag=     -0.251
       N       E                     dE             d eps       ncg     rms          rms(c)
DAV:   1    -0.426044137507E+02    0.40690E-01   -0.49894E-02  3392   0.114E+00    0.119E-01
RMM:   2    -0.426074920311E+02   -0.30783E-02   -0.89143E-03  1964   0.332E-01    0.859E-02
RMM:   3    -0.426086167610E+02   -0.11247E-02   -0.28328E-03  1824   0.114E-01
   1795 T=   835. E= -.36860890E+02 F= -.42608617E+02 E0= -.42562094E+02  EK= 0.37781E+01 SP= 0.20E+01 SK= 0.18E-02 mag=      0.317
       N       E                     dE             d eps       ncg     rms          rms(c)
DAV:   1    -0.425613181632E+02    0.46174E-01   -0.95761E-02  3440   0.114E+00    0.166E-01
RMM:   2    -0.425648307725E+02   -0.35126E-02   -0.88189E-03  2027   0.303E-01    0.133E-01
RMM:   3    -0.425673871912E+02   -0.25564E-02   -0.32223E-03  1907   0.126E-01    0.106E-01
RMM:   4    -0.425700054753E+02   -0.26183E-02   -0.35232E-03  1896   0.102E-01    0.549E-02
RMM:   5    -0.425708248079E+02   -0.81933E-03   -0.14640E-03  1830   0.723E-02
   1796 T=   831. E= -.36857496E+02 F= -.42570825E+02 E0= -.42523921E+02  EK= 0.37603E+01 SP= 0.20E+01 SK= 0.11E-02 mag=      0.105
       N       E                     dE             d eps       ncg     rms          rms(c)
DAV:   1    -0.425273854292E+02    0.42620E-01   -0.33059E-02  3360   0.110E+00    0.126E-01
RMM:   2    -0.425295841431E+02   -0.21987E-02   -0.66237E-03  1960   0.247E-01    0.100E-01
RMM:   3    -0.425310336907E+02   -0.14495E-02   -0.20683E-03  1830   0.104E-01
   1797 T=   826. E= -.36852397E+02 F= -.42531034E+02 E0= -.42485347E+02  EK= 0.37386E+01 SP= 0.19E+01 SK= 0.68E-03 mag=     -0.416
       N       E                     dE             d eps       ncg     rms          rms(c)
DAV:   1    -0.424862000783E+02    0.43384E-01   -0.37105E-02  3640   0.109E+00    0.170E-01
RMM:   2    -0.424896006239E+02   -0.34005E-02   -0.79621E-03  1987   0.292E-01    0.138E-01
RMM:   3    -0.424926981428E+02   -0.30975E-02   -0.41525E-03  1831   0.133E-01    0.111E-01
RMM:   4    -0.424962251817E+02   -0.35270E-02   -0.74249E-03  2035   0.130E-01    0.536E-02
RMM:   5    -0.424967864580E+02   -0.56128E-03   -0.10328E-03  1724   0.709E-02
   1798 T=   821. E= -.36851185E+02 F= -.42496786E+02 E0= -.42450058E+02  EK= 0.37153E+01 SP= 0.19E+01 SK= 0.39E-03 mag=     -0.050
       N       E                     dE             d eps       ncg     rms          rms(c)
DAV:   1    -0.424532707115E+02    0.42954E-01   -0.27657E-02  3216   0.107E+00    0.166E-01
RMM:   2    -0.424562029637E+02   -0.29323E-02   -0.65092E-03  1899   0.236E-01    0.135E-01
RMM:   3    -0.424589429890E+02   -0.27400E-02   -0.33817E-03  1827   0.112E-01    0.107E-01
RMM:   4    -0.424610691840E+02   -0.21262E-02   -0.20423E-03  1849   0.823E-02    0.757E-02
RMM:   5    -0.424628334611E+02   -0.17643E-02   -0.31094E-03  1944   0.816E-02
   1799 T=   816. E= -.36849333E+02 F= -.42462833E+02 E0= -.42416425E+02  EK= 0.36906E+01 SP= 0.19E+01 SK= 0.22E-03 mag=      0.071
       N       E                     dE             d eps       ncg     rms          rms(c)
DAV:   1    -0.424313902618E+02    0.29679E-01   -0.25997E-02  3584   0.107E+00    0.494E-02
RMM:   2    -0.424322863365E+02   -0.89607E-03   -0.50426E-03  1986   0.264E-01
   1800 T=   811. E= -.36845363E+02 F= -.42432286E+02 E0= -.42385753E+02  EK= 0.36695E+01 SP= 0.19E+01 SK= 0.13E-03 mag=     -0.042
       N       E                     dE             d eps       ncg     rms          rms(c)
DAV:   1    -0.424030130959E+02    0.28377E-01   -0.28817E-02  3896   0.109E+00    0.612E-02
RMM:   2    -0.424042785999E+02   -0.12655E-02   -0.63780E-03  2014   0.270E-01
   1801 T=   807. E= -.36842066E+02 F= -.42404279E+02 E0= -.42358187E+02  EK= 0.36490E+01 SP= 0.19E+01 SK= 0.81E-04 mag=     -0.297
       N       E                     dE             d eps       ncg     rms          rms(c)
DAV:   1    -0.423781036876E+02    0.24909E-01   -0.14726E-02  3224   0.104E+00    0.932E-02
RMM:   2    -0.423796703667E+02   -0.15667E-02   -0.55381E-03  2023   0.273E-01
   1802 T=   803. E= -.36837464E+02 F= -.42379670E+02 E0= -.42334346E+02  EK= 0.36324E+01 SP= 0.19E+01 SK= 0.60E-04 mag=     -0.428
       N       E                     dE             d eps       ncg     rms          rms(c)
DAV:   1    -0.423609413476E+02    0.17162E-01   -0.26061E-02  3792   0.117E+00    0.706E-02
RMM:   2    -0.423623008764E+02   -0.13595E-02   -0.66876E-03  2018   0.291E-01
   1803 T=   801. E= -.36832716E+02 F= -.42362301E+02 E0= -.42316448E+02  EK= 0.36229E+01 SP= 0.19E+01 SK= 0.53E-04 mag=     -0.353
       N       E                     dE             d eps       ncg     rms          rms(c)
DAV:   1    -0.423482525817E+02    0.12689E-01   -0.14941E-02  3008   0.101E+00    0.539E-02
RMM:   2    -0.423494722849E+02   -0.12197E-02   -0.64412E-03  2007   0.296E-01
   1804 T=   800. E= -.36828324E+02 F= -.42349472E+02 E0= -.42303042E+02  EK= 0.36175E+01 SP= 0.19E+01 SK= 0.52E-04 mag=     -0.067
       N       E                     dE             d eps       ncg     rms          rms(c)
DAV:   1    -0.423384785968E+02    0.97740E-02   -0.20099E-02  3448   0.108E+00    0.707E-02
RMM:   2    -0.423398916113E+02   -0.14130E-02   -0.62984E-03  2010   0.268E-01
   1805 T=   799. E= -.36822489E+02 F= -.42339892E+02 E0= -.42293804E+02  EK= 0.36168E+01 SP= 0.19E+01 SK= 0.54E-04 mag=      0.323
       N       E                     dE             d eps       ncg     rms          rms(c)
DAV:   1    -0.423312453419E+02    0.72333E-02   -0.22583E-02  3424   0.107E+00    0.103E-01
RMM:   2    -0.423333218286E+02   -0.20765E-02   -0.68804E-03  2032   0.304E-01    0.873E-02
RMM:   3    -0.423351198370E+02   -0.17980E-02   -0.37021E-03  1869   0.127E-01
   1806 T=   800. E= -.36818088E+02 F= -.42335120E+02 E0= -.42289678E+02  EK= 0.36196E+01 SP= 0.19E+01 SK= 0.55E-04 mag=      0.258
       N       E                     dE             d eps       ncg     rms          rms(c)
DAV:   1    -0.423339984039E+02   -0.67658E-03   -0.39358E-02  3368   0.107E+00    0.888E-02
RMM:   2    -0.423356305505E+02   -0.16321E-02   -0.63100E-03  1916   0.283E-01
   1807 T=   802. E= -.36811731E+02 F= -.42335631E+02 E0= -.42289185E+02  EK= 0.36296E+01 SP= 0.19E+01 SK= 0.50E-04 mag=     -0.196
       N       E                     dE             d eps       ncg     rms          rms(c)
DAV:   1    -0.423303019625E+02    0.36964E-02   -0.59912E-02  3776   0.115E+00    0.163E-01
RMM:   2    -0.423337790172E+02   -0.34771E-02   -0.80442E-03  2015   0.271E-01    0.135E-01
RMM:   3    -0.423370532909E+02   -0.32743E-02   -0.35930E-03  1835   0.118E-01    0.102E-01
RMM:   4    -0.423399576311E+02   -0.29043E-02   -0.43934E-03  1914   0.104E-01    0.458E-02
RMM:   5    -0.423405499088E+02   -0.59228E-03   -0.13702E-03  1816   0.678E-02
   1808 T=   805. E= -.36807439E+02 F= -.42340550E+02 E0= -.42293940E+02  EK= 0.36416E+01 SP= 0.19E+01 SK= 0.38E-04 mag=     -0.072
       N       E                     dE             d eps       ncg     rms          rms(c)
DAV:   1    -0.423391278660E+02    0.82977E-03   -0.33156E-02  3288   0.103E+00    0.164E-01
RMM:   2    -0.423425923709E+02   -0.34645E-02   -0.79686E-03  1897   0.250E-01    0.132E-01
RMM:   3    -0.423453690100E+02   -0.27766E-02   -0.31895E-03  1825   0.106E-01    0.986E-02
RMM:   4    -0.423478631397E+02   -0.24941E-02   -0.36960E-03  1842   0.880E-02    0.448E-02
RMM:   5    -0.423482544091E+02   -0.39127E-03   -0.59612E-04  1591   0.522E-02
   1809 T=   807. E= -.36806651E+02 F= -.42348254E+02 E0= -.42301531E+02  EK= 0.36525E+01 SP= 0.19E+01 SK= 0.20E-04 mag=      0.076
       N       E                     dE             d eps       ncg     rms          rms(c)
DAV:   1    -0.423566933695E+02   -0.88302E-02   -0.25974E-02  3696   0.108E+00    0.764E-02
RMM:   2    -0.423579738948E+02   -0.12805E-02   -0.52089E-03  1962   0.250E-01
   1810 T=   811. E= -.36802440E+02 F= -.42357974E+02 E0= -.42311522E+02  EK= 0.36679E+01 SP= 0.19E+01 SK= 0.45E-05 mag=      0.207
       N       E                     dE             d eps       ncg     rms          rms(c)
DAV:   1    -0.423673308670E+02   -0.10637E-01   -0.23337E-02  3832   0.113E+00    0.100E-01
RMM:   2    -0.423694871518E+02   -0.21563E-02   -0.70837E-03  2056   0.276E-01    0.809E-02
RMM:   3    -0.423705751180E+02   -0.10880E-02   -0.22212E-03  1872   0.110E-01
   1811 T=   814. E= -.36799686E+02 F= -.42370575E+02 E0= -.42324043E+02  EK= 0.36836E+01 SP= 0.19E+01 SK= 0.14E-05 mag=      0.170
       N       E                     dE             d eps       ncg     rms          rms(c)
DAV:   1    -0.423839095004E+02   -0.14422E-01   -0.37348E-02  3432   0.109E+00    0.898E-02
RMM:   2    -0.423859779519E+02   -0.20685E-02   -0.51255E-03  1927   0.249E-01    0.590E-02
RMM:   3    -0.423863492735E+02   -0.37132E-03   -0.13158E-03  1625   0.918E-02
   1812 T=   818. E= -.36798565E+02 F= -.42386349E+02 E0= -.42339421E+02  EK= 0.36991E+01 SP= 0.19E+01 SK= 0.29E-04 mag=     -0.068
       N       E                     dE             d eps       ncg     rms          rms(c)
DAV:   1    -0.423980628101E+02   -0.12085E-01   -0.54351E-02  3624   0.115E+00    0.109E-01
RMM:   2    -0.423999390502E+02   -0.18762E-02   -0.65327E-03  2052   0.286E-01    0.822E-02
RMM:   3    -0.424008150854E+02   -0.87604E-03   -0.17924E-03  1926   0.106E-01
   1813 T=   821. E= -.36793063E+02 F= -.42400815E+02 E0= -.42354373E+02  EK= 0.37158E+01 SP= 0.19E+01 SK= 0.11E-03 mag=     -0.209
       N       E                     dE             d eps       ncg     rms          rms(c)
DAV:   1    -0.424165679741E+02   -0.16629E-01   -0.30156E-02  3496   0.112E+00    0.653E-02
RMM:   2    -0.424178684089E+02   -0.13004E-02   -0.56942E-03  1996   0.268E-01
   1814 T=   825. E= -.36789124E+02 F= -.42417868E+02 E0= -.42370916E+02  EK= 0.37310E+01 SP= 0.19E+01 SK= 0.28E-03 mag=     -0.185
       N       E                     dE             d eps       ncg     rms          rms(c)
DAV:   1    -0.424308691252E+02   -0.14301E-01   -0.36306E-02  3952   0.119E+00    0.683E-02
RMM:   2    -0.424323671275E+02   -0.14980E-02   -0.72099E-03  2074   0.281E-01
   1815 T=   827. E= -.36784770E+02 F= -.42432367E+02 E0= -.42385354E+02  EK= 0.37411E+01 SP= 0.19E+01 SK= 0.55E-03 mag=      0.020
       N       E                     dE             d eps       ncg     rms          rms(c)
DAV:   1    -0.424433533961E+02   -0.12484E-01   -0.21166E-02  3680   0.108E+00    0.100E-01
RMM:   2    -0.424453288880E+02   -0.19755E-02   -0.75734E-03  2101   0.323E-01    0.811E-02
RMM:   3    -0.424465314390E+02   -0.12026E-02   -0.24500E-03  1921   0.123E-01
   1816 T=   828. E= -.36782276E+02 F= -.42446531E+02 E0= -.42399874E+02  EK= 0.37460E+01 SP= 0.19E+01 SK= 0.94E-03 mag=      0.147
       N       E                     dE             d eps       ncg     rms          rms(c)
DAV:   1    -0.424577473385E+02   -0.12418E-01   -0.31623E-02  3744   0.114E+00    0.987E-02
RMM:   2    -0.424598162895E+02   -0.20690E-02   -0.66081E-03  1907   0.265E-01    0.749E-02
RMM:   3    -0.424604983011E+02   -0.68201E-03   -0.15219E-03  1694   0.983E-02
   1817 T=   829. E= -.36777987E+02 F= -.42460498E+02 E0= -.42413592E+02  EK= 0.37492E+01 SP= 0.19E+01 SK= 0.15E-02 mag=      0.067
       N       E                     dE             d eps       ncg     rms          rms(c)
DAV:   1    -0.424708988683E+02   -0.11083E-01   -0.41073E-02  3672   0.111E+00    0.930E-02
RMM:   2    -0.424727437544E+02   -0.18449E-02   -0.65172E-03  2049   0.270E-01    0.703E-02
RMM:   3    -0.424735335601E+02   -0.78981E-03   -0.18547E-03  1855   0.106E-01
   1818 T=   828. E= -.36773989E+02 F= -.42473534E+02 E0= -.42426778E+02  EK= 0.37479E+01 SP= 0.19E+01 SK= 0.21E-02 mag=     -0.115
       N       E                     dE             d eps       ncg     rms          rms(c)
DAV:   1    -0.424841711257E+02   -0.11427E-01   -0.25883E-02  3624   0.109E+00    0.795E-02
RMM:   2    -0.424854643443E+02   -0.12932E-02   -0.54159E-03  2010   0.261E-01
   1819 T=   827. E= -.36769783E+02 F= -.42485464E+02 E0= -.42439126E+02  EK= 0.37424E+01 SP= 0.20E+01 SK= 0.28E-02 mag=     -0.275
       N       E                     dE             d eps       ncg     rms          rms(c)
DAV:   1    -0.424940147079E+02   -0.98436E-02   -0.30535E-02  4000   0.115E+00    0.865E-02
RMM:   2    -0.424956669921E+02   -0.16523E-02   -0.65016E-03  2074   0.267E-01
   1820 T=   825. E= -.36765882E+02 F= -.42495667E+02 E0= -.42449360E+02  EK= 0.37318E+01 SP= 0.20E+01 SK= 0.36E-02 mag=     -0.284
       N       E                     dE             d eps       ncg     rms          rms(c)
DAV:   1    -0.425042556669E+02   -0.10241E-01   -0.20732E-02  3504   0.109E+00    0.959E-02
RMM:   2    -0.425061457323E+02   -0.18901E-02   -0.67904E-03  2047   0.300E-01    0.772E-02
RMM:   3    -0.425074352854E+02   -0.12896E-02   -0.23757E-03  1915   0.119E-01
   1821 T=   822. E= -.36764271E+02 F= -.42507435E+02 E0= -.42461025E+02  EK= 0.37177E+01 SP= 0.20E+01 SK= 0.44E-02 mag=     -0.023
       N       E                     dE             d eps       ncg     rms          rms(c)
DAV:   1    -0.425153869301E+02   -0.92412E-02   -0.23573E-02  3552   0.112E+00    0.112E-01
RMM:   2    -0.425172476443E+02   -0.18607E-02   -0.47467E-03  1931   0.267E-01    0.856E-02
RMM:   3    -0.425179707542E+02   -0.72311E-03   -0.11735E-03  1583   0.954E-02
   1822 T=   819. E= -.36758392E+02 F= -.42517971E+02 E0= -.42471992E+02  EK= 0.37042E+01 SP= 0.21E+01 SK= 0.51E-02 mag=      0.177
       N       E                     dE             d eps       ncg     rms          rms(c)
DAV:   1    -0.425283569236E+02   -0.11109E-01   -0.32911E-02  3544   0.109E+00    0.110E-01
RMM:   2    -0.425297692972E+02   -0.14124E-02   -0.56093E-03  2017   0.263E-01
   1823 T=   816. E= -.36752373E+02 F= -.42529769E+02 E0= -.42483908E+02  EK= 0.36901E+01 SP= 0.21E+01 SK= 0.58E-02 mag=      0.213
       N       E                     dE             d eps       ncg     rms          rms(c)
DAV:   1    -0.425425404679E+02   -0.14184E-01   -0.28823E-02  3864   0.110E+00    0.799E-02
RMM:   2    -0.425438827715E+02   -0.13423E-02   -0.57925E-03  2028   0.260E-01
   1824 T=   812. E= -.36750111E+02 F= -.42543883E+02 E0= -.42498034E+02  EK= 0.36729E+01 SP= 0.21E+01 SK= 0.63E-02 mag=      0.060
       N       E                     dE             d eps       ncg     rms          rms(c)
DAV:   1    -0.425586708587E+02   -0.16130E-01   -0.21486E-02  3616   0.107E+00    0.760E-02
RMM:   2    -0.425599028805E+02   -0.12320E-02   -0.64756E-03  2056   0.303E-01
   1825 T=   808. E= -.36747068E+02 F= -.42559903E+02 E0= -.42514325E+02  EK= 0.36573E+01 SP= 0.21E+01 SK= 0.68E-02 mag=     -0.205
       N       E                     dE             d eps       ncg     rms          rms(c)
DAV:   1    -0.425746421115E+02   -0.15971E-01   -0.23244E-02  3288   0.111E+00    0.976E-02
RMM:   2    -0.425764262697E+02   -0.17842E-02   -0.65208E-03  2034   0.275E-01
   1826 T=   806. E= -.36740865E+02 F= -.42576426E+02 E0= -.42531408E+02  EK= 0.36444E+01 SP= 0.22E+01 SK= 0.71E-02 mag=     -0.384
       N       E                     dE             d eps       ncg     rms          rms(c)
DAV:   1    -0.425944150208E+02   -0.19773E-01   -0.15848E-02  3512   0.104E+00    0.114E-01
RMM:   2    -0.425964008066E+02   -0.19858E-02   -0.62314E-03  1998   0.284E-01    0.904E-02
RMM:   3    -0.425978629275E+02   -0.14621E-02   -0.25158E-03  1860   0.114E-01
   1827 T=   803. E= -.36738371E+02 F= -.42597863E+02 E0= -.42552744E+02  EK= 0.36323E+01 SP= 0.22E+01 SK= 0.73E-02 mag=     -0.118
       N       E                     dE             d eps       ncg     rms          rms(c)
DAV:   1    -0.426183655251E+02   -0.21965E-01   -0.25923E-02  3368   0.107E+00    0.120E-01
RMM:   2    -0.426204998369E+02   -0.21343E-02   -0.50217E-03  1967   0.276E-01    0.945E-02
RMM:   3    -0.426211349988E+02   -0.63516E-03   -0.11590E-03  1572   0.958E-02
   1828 T=   801. E= -.36733009E+02 F= -.42621135E+02 E0= -.42576268E+02  EK= 0.36247E+01 SP= 0.23E+01 SK= 0.74E-02 mag=      0.196
       N       E                     dE             d eps       ncg     rms          rms(c)
DAV:   1    -0.426447767962E+02   -0.24277E-01   -0.52062E-02  3664   0.109E+00    0.132E-01
RMM:   2    -0.426465186962E+02   -0.17419E-02   -0.71106E-03  2047   0.276E-01
   1829 T=   800. E= -.36726855E+02 F= -.42646519E+02 E0= -.42602070E+02  EK= 0.36199E+01 SP= 0.23E+01 SK= 0.74E-02 mag=      0.364
       N       E                     dE             d eps       ncg     rms          rms(c)
DAV:   1    -0.426744346452E+02   -0.29658E-01   -0.36674E-02  3704   0.107E+00    0.110E-01
RMM:   2    -0.426760252609E+02   -0.15906E-02   -0.60883E-03  2024   0.268E-01
   1830 T=   799. E= -.36725089E+02 F= -.42676025E+02 E0= -.42631370E+02  EK= 0.36148E+01 SP= 0.23E+01 SK= 0.74E-02 mag=      0.287
       N       E                     dE             d eps       ncg     rms          rms(c)
DAV:   1    -0.427075362778E+02   -0.33102E-01   -0.21708E-02  3616   0.106E+00    0.860E-02
RMM:   2    -0.427087296885E+02   -0.11934E-02   -0.64010E-03  2012   0.297E-01
   1831 T=   799. E= -.36722796E+02 F= -.42708730E+02 E0= -.42663918E+02  EK= 0.36136E+01 SP= 0.24E+01 SK= 0.73E-02 mag=     -0.014
       N       E                     dE             d eps       ncg     rms          rms(c)
DAV:   1    -0.427392812788E+02   -0.31745E-01   -0.20572E-02  3040   0.111E+00    0.928E-02
RMM:   2    -0.427409436957E+02   -0.16624E-02   -0.66586E-03  2040   0.283E-01
   1832 T=   799. E= -.36716767E+02 F= -.42740944E+02 E0= -.42696652E+02  EK= 0.36159E+01 SP= 0.24E+01 SK= 0.73E-02 mag=     -0.371
       N       E                     dE             d eps       ncg     rms          rms(c)
DAV:   1    -0.427700236679E+02   -0.30742E-01   -0.17343E-02  3360   0.104E+00    0.141E-01
RMM:   2    -0.427726183226E+02   -0.25947E-02   -0.69811E-03  1996   0.294E-01    0.115E-01
RMM:   3    -0.427758978184E+02   -0.32795E-02   -0.55617E-03  1824   0.142E-01    0.607E-02
RMM:   4    -0.427768404402E+02   -0.94262E-03   -0.19474E-03  1824   0.983E-02
   1833 T=   800. E= -.36715402E+02 F= -.42776840E+02 E0= -.42732269E+02  EK= 0.36171E+01 SP= 0.24E+01 SK= 0.72E-02 mag=     -0.052
       N       E                     dE             d eps       ncg     rms          rms(c)
DAV:   1    -0.428033220479E+02   -0.27424E-01   -0.21837E-02  3488   0.109E+00    0.166E-01
RMM:   2    -0.428064796337E+02   -0.31576E-02   -0.59422E-03  1860   0.249E-01    0.134E-01
RMM:   3    -0.428090819887E+02   -0.26024E-02   -0.26629E-03  1824   0.104E-01    0.982E-02
RMM:   4    -0.428115767234E+02   -0.24947E-02   -0.39570E-03  1916   0.955E-02    0.377E-02
RMM:   5    -0.428118421383E+02   -0.26541E-03   -0.58131E-04  1571   0.534E-02
   1834 T=   800. E= -.36712991E+02 F= -.42811842E+02 E0= -.42767354E+02  EK= 0.36186E+01 SP= 0.25E+01 SK= 0.72E-02 mag=      0.032
       N       E                     dE             d eps       ncg     rms          rms(c)
DAV:   1    -0.428451263807E+02   -0.33550E-01   -0.12733E-02  3280   0.104E+00    0.696E-02
RMM:   2    -0.428462354270E+02   -0.11090E-02   -0.53236E-03  2017   0.268E-01
   1835 T=   801. E= -.36707608E+02 F= -.42846235E+02 E0= -.42801811E+02  EK= 0.36225E+01 SP= 0.25E+01 SK= 0.72E-02 mag=     -0.067
       N       E                     dE             d eps       ncg     rms          rms(c)
DAV:   1    -0.428781599476E+02   -0.33034E-01   -0.19999E-02  4136   0.115E+00    0.967E-02
RMM:   2    -0.428796857182E+02   -0.15258E-02   -0.51423E-03  2011   0.245E-01
   1836 T=   801. E= -.36703500E+02 F= -.42879686E+02 E0= -.42835471E+02  EK= 0.36240E+01 SP= 0.25E+01 SK= 0.73E-02 mag=     -0.203
       N       E                     dE             d eps       ncg     rms          rms(c)
DAV:   1    -0.429123076456E+02   -0.34148E-01   -0.16249E-02  3000   0.104E+00    0.835E-02
RMM:   2    -0.429137658372E+02   -0.14582E-02   -0.62678E-03  2031   0.299E-01
   1837 T=   801. E= -.36700376E+02 F= -.42913766E+02 E0= -.42869783E+02  EK= 0.36250E+01 SP= 0.26E+01 SK= 0.73E-02 mag=     -0.259
       N       E                     dE             d eps       ncg     rms          rms(c)
DAV:   1    -0.429457124525E+02   -0.33405E-01   -0.25382E-02  4008   0.115E+00    0.458E-02
RMM:   2    -0.429468191755E+02   -0.11067E-02   -0.66623E-03  2035   0.292E-01
   1838 T=   802. E= -.36695209E+02 F= -.42946819E+02 E0= -.42902859E+02  EK= 0.36269E+01 SP= 0.26E+01 SK= 0.74E-02 mag=     -0.186
       N       E                     dE             d eps       ncg     rms          rms(c)
DAV:   1    -0.429753125510E+02   -0.29600E-01   -0.13046E-02  3072   0.106E+00    0.712E-02
RMM:   2    -0.429767222799E+02   -0.14097E-02   -0.68779E-03  2033   0.300E-01
   1839 T=   802. E= -.36688688E+02 F= -.42976722E+02 E0= -.42932757E+02  EK= 0.36268E+01 SP= 0.27E+01 SK= 0.75E-02 mag=     -0.006
       N       E                     dE             d eps       ncg     rms          rms(c)
DAV:   1    -0.430024186847E+02   -0.27106E-01   -0.20398E-02  3832   0.116E+00    0.101E-01
RMM:   2    -0.430042954306E+02   -0.18767E-02   -0.67314E-03  2033   0.287E-01    0.818E-02
RMM:   3    -0.430055586231E+02   -0.12632E-02   -0.24907E-03  1881   0.114E-01
   1840 T=   801. E= -.36683728E+02 F= -.43005559E+02 E0= -.42961788E+02  EK= 0.36239E+01 SP= 0.27E+01 SK= 0.75E-02 mag=      0.041
       N       E                     dE             d eps       ncg     rms          rms(c)
DAV:   1    -0.430283696885E+02   -0.24074E-01   -0.31764E-02  3408   0.106E+00    0.112E-01
RMM:   2    -0.430308065741E+02   -0.24369E-02   -0.59803E-03  1885   0.273E-01    0.896E-02
RMM:   3    -0.430314810505E+02   -0.67448E-03   -0.12550E-03  1690   0.932E-02
   1841 T=   800. E= -.36679225E+02 F= -.43031481E+02 E0= -.42987817E+02  EK= 0.36176E+01 SP= 0.27E+01 SK= 0.76E-02 mag=      0.021
       N       E                     dE             d eps       ncg     rms          rms(c)
DAV:   1    -0.430540597346E+02   -0.23253E-01   -0.63089E-02  3608   0.110E+00    0.110E-01
RMM:   2    -0.430555413593E+02   -0.14816E-02   -0.70273E-03  2016   0.287E-01
   1842 T=   798. E= -.36673785E+02 F= -.43055541E+02 E0= -.43011972E+02  EK= 0.36104E+01 SP= 0.28E+01 SK= 0.75E-02 mag=     -0.043
       N       E                     dE             d eps       ncg     rms          rms(c)
DAV:   1    -0.430762791306E+02   -0.22219E-01   -0.47506E-02  3544   0.113E+00    0.742E-02
RMM:   2    -0.430775638760E+02   -0.12847E-02   -0.66916E-03  2017   0.296E-01
   1843 T=   796. E= -.36670768E+02 F= -.43077564E+02 E0= -.43034195E+02  EK= 0.35991E+01 SP= 0.28E+01 SK= 0.74E-02 mag=     -0.110
       N       E                     dE             d eps       ncg     rms          rms(c)
DAV:   1    -0.430958803484E+02   -0.19601E-01   -0.24327E-02  3528   0.109E+00    0.610E-02
RMM:   2    -0.430970046388E+02   -0.11243E-02   -0.75843E-03  2035   0.321E-01
   1844 T=   793. E= -.36666052E+02 F= -.43097005E+02 E0= -.43053800E+02  EK= 0.35875E+01 SP= 0.28E+01 SK= 0.71E-02 mag=     -0.136
       N       E                     dE             d eps       ncg     rms          rms(c)
DAV:   1    -0.431108846716E+02   -0.15004E-01   -0.22921E-02  3288   0.114E+00    0.872E-02
RMM:   2    -0.431124285588E+02   -0.15439E-02   -0.71623E-03  2104   0.295E-01
   1845 T=   790. E= -.36658585E+02 F= -.43112429E+02 E0= -.43069355E+02  EK= 0.35756E+01 SP= 0.29E+01 SK= 0.67E-02 mag=     -0.089
       N       E                     dE             d eps       ncg     rms          rms(c)
DAV:   1    -0.431242675954E+02   -0.13383E-01   -0.17053E-02  3480   0.107E+00    0.106E-01
RMM:   2    -0.431260520259E+02   -0.17844E-02   -0.64324E-03  2003   0.303E-01
   1846 T=   787. E= -.36652242E+02 F= -.43126052E+02 E0= -.43083062E+02  EK= 0.35619E+01 SP= 0.29E+01 SK= 0.63E-02 mag=      0.013
       N       E                     dE             d eps       ncg     rms          rms(c)
DAV:   1    -0.431380967933E+02   -0.13829E-01   -0.21459E-02  3728   0.113E+00    0.549E-02
RMM:   2    -0.431392056345E+02   -0.11088E-02   -0.62118E-03  1983   0.285E-01
   1847 T=   784. E= -.36647885E+02 F= -.43139206E+02 E0= -.43096296E+02  EK= 0.35473E+01 SP= 0.29E+01 SK= 0.57E-02 mag=      0.117
       N       E                     dE             d eps       ncg     rms          rms(c)
DAV:   1    -0.431463183842E+02   -0.82216E-02   -0.18163E-02  3136   0.105E+00    0.696E-02
RMM:   2    -0.431477028875E+02   -0.13845E-02   -0.81019E-03  2062   0.301E-01
   1848 T=   781. E= -.36641826E+02 F= -.43147703E+02 E0= -.43104927E+02  EK= 0.35316E+01 SP= 0.30E+01 SK= 0.50E-02 mag=      0.164
       N       E                     dE             d eps       ncg     rms          rms(c)
DAV:   1    -0.431492464413E+02   -0.29281E-02   -0.24460E-02  3720   0.108E+00    0.133E-01
RMM:   2    -0.431518795565E+02   -0.26331E-02   -0.77971E-03  1992   0.291E-01    0.111E-01
RMM:   3    -0.431542276386E+02   -0.23481E-02   -0.35380E-03  1845   0.120E-01    0.802E-02
RMM:   4    -0.431561286606E+02   -0.19010E-02   -0.44761E-03  1859   0.102E-01    0.201E-02
RMM:   5    -0.431561760479E+02   -0.47387E-04   -0.36202E-04  1542   0.478E-02
   1849 T=   777. E= -.36639438E+02 F= -.43156176E+02 E0= -.43113285E+02  EK= 0.35145E+01 SP= 0.30E+01 SK= 0.42E-02 mag=      0.030
       N       E                     dE             d eps       ncg     rms          rms(c)
DAV:   1    -0.431536114313E+02    0.25172E-02   -0.26586E-02  3368   0.105E+00    0.148E-01
RMM:   2    -0.431564265202E+02   -0.28151E-02   -0.86606E-03  1901   0.259E-01    0.122E-01
RMM:   3    -0.431589863329E+02   -0.25598E-02   -0.35722E-03  1824   0.107E-01    0.892E-02
RMM:   4    -0.431611615831E+02   -0.21753E-02   -0.37886E-03  1839   0.912E-02    0.333E-02
RMM:   5    -0.431613417967E+02   -0.18021E-03   -0.46095E-04  1568   0.514E-02
   1850 T=   773. E= -.36637780E+02 F= -.43161342E+02 E0= -.43118456E+02  EK= 0.34959E+01 SP= 0.30E+01 SK= 0.34E-02 mag=     -0.039
       N       E                     dE             d eps       ncg     rms          rms(c)
DAV:   1    -0.431637000168E+02   -0.25384E-02   -0.13561E-02  3288   0.102E+00    0.477E-02
RMM:   2    -0.431644070647E+02   -0.70705E-03   -0.42530E-03  2007   0.251E-01
   1851 T=   769. E= -.36633171E+02 F= -.43164407E+02 E0= -.43121484E+02  EK= 0.34813E+01 SP= 0.30E+01 SK= 0.26E-02 mag=     -0.036
       N       E                     dE             d eps       ncg     rms          rms(c)
DAV:   1    -0.431638167582E+02   -0.11674E-03   -0.15915E-02  3656   0.106E+00    0.677E-02
RMM:   2    -0.431651548917E+02   -0.13381E-02   -0.65666E-03  1991   0.254E-01
   1852 T=   766. E= -.36629415E+02 F= -.43165155E+02 E0= -.43122174E+02  EK= 0.34669E+01 SP= 0.31E+01 SK= 0.18E-02 mag=      0.020
       N       E                     dE             d eps       ncg     rms          rms(c)
DAV:   1    -0.431650917405E+02   -0.12750E-02   -0.19099E-02  3280   0.107E+00    0.733E-02
RMM:   2    -0.431659698441E+02   -0.87810E-03   -0.52658E-03  2008   0.282E-01
   1853 T=   764. E= -.36626372E+02 F= -.43165970E+02 E0= -.43122947E+02  EK= 0.34554E+01 SP= 0.31E+01 SK= 0.11E-02 mag=      0.102
       N       E                     dE             d eps       ncg     rms          rms(c)
DAV:   1    -0.431644979700E+02    0.59377E-03   -0.34033E-02  3872   0.112E+00    0.405E-02
RMM:   2    -0.431655008161E+02   -0.10028E-02   -0.64772E-03  2043   0.278E-01
   1854 T=   762. E= -.36620426E+02 F= -.43165501E+02 E0= -.43122454E+02  EK= 0.34495E+01 SP= 0.31E+01 SK= 0.54E-03 mag=      0.156
       N       E                     dE             d eps       ncg     rms          rms(c)
DAV:   1    -0.431627172450E+02    0.17807E-02   -0.13875E-02  3184   0.103E+00    0.559E-02
RMM:   2    -0.431636707848E+02   -0.95354E-03   -0.55523E-03  2012   0.287E-01
   1855 T=   762. E= -.36614886E+02 F= -.43163671E+02 E0= -.43120482E+02  EK= 0.34459E+01 SP= 0.31E+01 SK= 0.18E-03 mag=      0.141
       N       E                     dE             d eps       ncg     rms          rms(c)
DAV:   1    -0.431592643541E+02    0.34529E-02   -0.15735E-02  3256   0.108E+00    0.758E-02
RMM:   2    -0.431605223887E+02   -0.12580E-02   -0.55080E-03  2002   0.269E-01
   1856 T=   762. E= -.36608511E+02 F= -.43160522E+02 E0= -.43117132E+02  EK= 0.34458E+01 SP= 0.31E+01 SK= 0.97E-05 mag=      0.030
       N       E                     dE             d eps       ncg     rms          rms(c)
DAV:   1    -0.431575688148E+02    0.16955E-02   -0.16617E-02  3408   0.106E+00    0.528E-02
RMM:   2    -0.431585056453E+02   -0.93683E-03   -0.56268E-03  1976   0.296E-01
   1857 T=   763. E= -.36603035E+02 F= -.43158506E+02 E0= -.43115073E+02  EK= 0.34501E+01 SP= 0.31E+01 SK= 0.48E-04 mag=     -0.140
       N       E                     dE             d eps       ncg     rms          rms(c)
DAV:   1    -0.431538188457E+02    0.37500E-02   -0.18101E-02  3408   0.108E+00    0.608E-02
RMM:   2    -0.431548880890E+02   -0.10692E-02   -0.61684E-03  2040   0.277E-01
   1858 T=   764. E= -.36596173E+02 F= -.43154888E+02 E0= -.43111668E+02  EK= 0.34581E+01 SP= 0.31E+01 SK= 0.27E-03 mag=     -0.278
       N       E                     dE             d eps       ncg     rms          rms(c)
DAV:   1    -0.431484405996E+02    0.53782E-02   -0.17800E-02  3240   0.105E+00    0.963E-02
RMM:   2    -0.431501105955E+02   -0.16700E-02   -0.66781E-03  1998   0.287E-01
   1859 T=   767. E= -.36588767E+02 F= -.43150111E+02 E0= -.43106888E+02  EK= 0.34693E+01 SP= 0.31E+01 SK= 0.66E-03 mag=     -0.274
       N       E                     dE             d eps       ncg     rms          rms(c)
DAV:   1    -0.431467702581E+02    0.16703E-02   -0.21554E-02  3624   0.110E+00    0.885E-02
RMM:   2    -0.431483012595E+02   -0.15310E-02   -0.70424E-03  2046   0.298E-01
   1860 T=   770. E= -.36582983E+02 F= -.43148301E+02 E0= -.43104551E+02  EK= 0.34855E+01 SP= 0.31E+01 SK= 0.11E-02 mag=     -0.090
       N       E                     dE             d eps       ncg     rms          rms(c)
DAV:   1    -0.431465509865E+02    0.21927E-03   -0.19901E-02  3144   0.102E+00    0.489E-02
RMM:   2    -0.431476501859E+02   -0.10992E-02   -0.73516E-03  2044   0.317E-01
   1861 T=   775. E= -.36577750E+02 F= -.43147650E+02 E0= -.43103968E+02  EK= 0.35055E+01 SP= 0.31E+01 SK= 0.17E-02 mag=      0.208
       N       E                     dE             d eps       ncg     rms          rms(c)
DAV:   1    -0.431415513120E+02    0.49997E-02   -0.23021E-02  3568   0.107E+00    0.105E-01
RMM:   2    -0.431434440793E+02   -0.18928E-02   -0.75426E-03  1993   0.285E-01    0.863E-02
RMM:   3    -0.431446633914E+02   -0.12193E-02   -0.27743E-03  1902   0.114E-01
   1862 T=   780. E= -.36571753E+02 F= -.43144663E+02 E0= -.43101588E+02  EK= 0.35268E+01 SP= 0.30E+01 SK= 0.22E-02 mag=      0.208
       N       E                     dE             d eps       ncg     rms          rms(c)
DAV:   1    -0.431438773567E+02   -0.43328E-03   -0.30736E-02  3288   0.107E+00    0.669E-02
RMM:   2    -0.431448253396E+02   -0.94798E-03   -0.51143E-03  1937   0.277E-01
   1863 T=   785. E= -.36566637E+02 F= -.43144825E+02 E0= -.43100862E+02  EK= 0.35527E+01 SP= 0.30E+01 SK= 0.27E-02 mag=     -0.069
       N       E                     dE             d eps       ncg     rms          rms(c)
DAV:   1    -0.431409952085E+02    0.28821E-02   -0.48996E-02  3824   0.113E+00    0.897E-02
RMM:   2    -0.431424350252E+02   -0.14398E-02   -0.61644E-03  2001   0.261E-01
   1864 T=   791. E= -.36559321E+02 F= -.43142435E+02 E0= -.43099586E+02  EK= 0.35800E+01 SP= 0.30E+01 SK= 0.30E-02 mag=     -0.447
       N       E                     dE             d eps       ncg     rms          rms(c)
DAV:   1    -0.431372070592E+02    0.37881E-02   -0.16473E-02  3280   0.100E+00    0.132E-01
RMM:   2    -0.431394610488E+02   -0.22540E-02   -0.66700E-03  2066   0.290E-01    0.107E-01
RMM:   3    -0.431416603914E+02   -0.21993E-02   -0.31072E-03  1877   0.136E-01    0.734E-02
RMM:   4    -0.431432769518E+02   -0.16166E-02   -0.29835E-03  1882   0.107E-01
   1865 T=   797. E= -.36559147E+02 F= -.43143277E+02 E0= -.43099563E+02  EK= 0.36045E+01 SP= 0.30E+01 SK= 0.32E-02 mag=     -0.124
       N       E                     dE             d eps       ncg     rms          rms(c)
DAV:   1    -0.431374077705E+02    0.42526E-02   -0.28059E-02  3656   0.114E+00    0.137E-01
RMM:   2    -0.431394073598E+02   -0.19996E-02   -0.50736E-03  1951   0.246E-01    0.108E-01
RMM:   3    -0.431411228365E+02   -0.17155E-02   -0.22525E-03  1825   0.101E-01
   1866 T=   803. E= -.36553817E+02 F= -.43141123E+02 E0= -.43098450E+02  EK= 0.36317E+01 SP= 0.30E+01 SK= 0.32E-02 mag=      0.324
       N       E                     dE             d eps       ncg     rms          rms(c)
DAV:   1    -0.431360828958E+02    0.33245E-02   -0.44311E-02  3688   0.109E+00    0.140E-01
RMM:   2    -0.431385481724E+02   -0.24653E-02   -0.74513E-03  1902   0.279E-01    0.109E-01
RMM:   3    -0.431402198120E+02   -0.16716E-02   -0.29236E-03  1832   0.115E-01
   1867 T=   809. E= -.36550306E+02 F= -.43140220E+02 E0= -.43097851E+02  EK= 0.36583E+01 SP= 0.29E+01 SK= 0.30E-02 mag=      0.411
       N       E                     dE             d eps       ncg     rms          rms(c)
DAV:   1    -0.431398801944E+02   -0.13320E-02   -0.20247E-02  3560   0.107E+00    0.112E-01
RMM:   2    -0.431408904329E+02   -0.10102E-02   -0.54164E-03  1919   0.256E-01
   1868 T=   814. E= -.36549537E+02 F= -.43140890E+02 E0= -.43097008E+02  EK= 0.36828E+01 SP= 0.29E+01 SK= 0.27E-02 mag=      0.090
       N       E                     dE             d eps       ncg     rms          rms(c)
DAV:   1    -0.431347551731E+02    0.51250E-02   -0.39517E-02  3968   0.115E+00    0.105E-01
RMM:   2    -0.431362070659E+02   -0.14519E-02   -0.64316E-03  2007   0.260E-01
   1869 T=   819. E= -.36545457E+02 F= -.43136207E+02 E0= -.43093577E+02  EK= 0.37039E+01 SP= 0.29E+01 SK= 0.23E-02 mag=     -0.492
       N       E                     dE             d eps       ncg     rms          rms(c)
DAV:   1    -0.431212763844E+02    0.13479E-01   -0.17719E-02  3408   0.104E+00    0.198E-01
RMM:   2    -0.431257330419E+02   -0.44567E-02   -0.78465E-03  1999   0.299E-01    0.161E-01
RMM:   3    -0.431294201871E+02   -0.36871E-02   -0.44058E-03  1844   0.135E-01    0.119E-01
RMM:   4    -0.431330826609E+02   -0.36625E-02   -0.56885E-03  1995   0.126E-01    0.572E-02
RMM:   5    -0.431339588102E+02   -0.87615E-03   -0.18698E-03  1873   0.790E-02
   1870 T=   822. E= -.36547152E+02 F= -.43133959E+02 E0= -.43090316E+02  EK= 0.37195E+01 SP= 0.29E+01 SK= 0.18E-02 mag=     -0.025
       N       E                     dE             d eps       ncg     rms          rms(c)
DAV:   1    -0.431112397595E+02    0.21843E-01   -0.34012E-02  3616   0.113E+00    0.224E-01
RMM:   2    -0.431170868811E+02   -0.58471E-02   -0.79165E-03  1925   0.272E-01    0.184E-01
RMM:   3    -0.431233672812E+02   -0.62804E-02   -0.72946E-03  1826   0.140E-01    0.107E-01
RMM:   4    -0.431264808308E+02   -0.31135E-02   -0.45014E-03  1854   0.122E-01    0.634E-02
RMM:   5    -0.431275541597E+02   -0.10733E-02   -0.24089E-03  1882   0.844E-02
   1871 T=   825. E= -.36545584E+02 F= -.43127554E+02 E0= -.43083943E+02  EK= 0.37318E+01 SP= 0.28E+01 SK= 0.13E-02 mag=      0.034
       N       E                     dE             d eps       ncg     rms          rms(c)
DAV:   1    -0.431166198750E+02    0.98610E-02   -0.27338E-02  3736   0.110E+00    0.742E-02
RMM:   2    -0.431177503697E+02   -0.11305E-02   -0.53545E-03  1956   0.261E-01
   1872 T=   827. E= -.36542246E+02 F= -.43117750E+02 E0= -.43074358E+02  EK= 0.37397E+01 SP= 0.28E+01 SK= 0.86E-03 mag=     -0.216
       N       E                     dE             d eps       ncg     rms          rms(c)
DAV:   1    -0.431005986368E+02    0.16021E-01   -0.29156E-02  4016   0.113E+00    0.110E-01
RMM:   2    -0.431027149649E+02   -0.21163E-02   -0.65082E-03  1993   0.272E-01    0.935E-02
RMM:   3    -0.431038294251E+02   -0.11145E-02   -0.18790E-03  1924   0.109E-01
   1873 T=   827. E= -.36540084E+02 F= -.43103829E+02 E0= -.43061315E+02  EK= 0.37392E+01 SP= 0.28E+01 SK= 0.50E-03 mag=     -0.197
       N       E                     dE             d eps       ncg     rms          rms(c)
DAV:   1    -0.430877242772E+02    0.14991E-01   -0.35504E-02  3456   0.119E+00    0.879E-02
RMM:   2    -0.430891283460E+02   -0.14041E-02   -0.59095E-03  1939   0.283E-01
   1874 T=   826. E= -.36537768E+02 F= -.43089128E+02 E0= -.43045595E+02  EK= 0.37351E+01 SP= 0.28E+01 SK= 0.24E-03 mag=      0.062
       N       E                     dE             d eps       ncg     rms          rms(c)
DAV:   1    -0.430658558960E+02    0.21868E-01   -0.50657E-02  4048   0.120E+00    0.104E-01
RMM:   2    -0.430676317520E+02   -0.17759E-02   -0.68522E-03  1998   0.271E-01
   1875 T=   824. E= -.36530546E+02 F= -.43067632E+02 E0= -.43024799E+02  EK= 0.37260E+01 SP= 0.28E+01 SK= 0.80E-04 mag=      0.378
       N       E                     dE             d eps       ncg     rms          rms(c)
DAV:   1    -0.430405296370E+02    0.25326E-01   -0.17164E-02  3336   0.111E+00    0.119E-01
RMM:   2    -0.430425841983E+02   -0.20546E-02   -0.74161E-03  2034   0.355E-01    0.951E-02
RMM:   3    -0.430438226558E+02   -0.12385E-02   -0.24091E-03  1935   0.136E-01
   1876 T=   819. E= -.36528011E+02 F= -.43043823E+02 E0= -.43001224E+02  EK= 0.37073E+01 SP= 0.28E+01 SK= 0.11E-04 mag=      0.232
       N       E                     dE             d eps       ncg     rms          rms(c)
DAV:   1    -0.430159332725E+02    0.26651E-01   -0.36235E-02  3760   0.120E+00    0.923E-02
RMM:   2    -0.430172385800E+02   -0.13053E-02   -0.63219E-03  1926   0.275E-01
   1877 T=   815. E= -.36523545E+02 F= -.43017239E+02 E0= -.42973981E+02  EK= 0.36855E+01 SP= 0.28E+01 SK= 0.15E-05 mag=     -0.271
       N       E                     dE             d eps       ncg     rms          rms(c)
DAV:   1    -0.429755295917E+02    0.40404E-01   -0.44239E-02  3904   0.121E+00    0.178E-01
RMM:   2    -0.429795840067E+02   -0.40544E-02   -0.86805E-03  2001   0.270E-01    0.148E-01
RMM:   3    -0.429844856689E+02   -0.49017E-02   -0.60546E-03  1833   0.135E-01    0.960E-02
RMM:   4    -0.429867920656E+02   -0.23064E-02   -0.40851E-03  1840   0.111E-01    0.361E-02
RMM:   5    -0.429871299361E+02   -0.33787E-03   -0.10005E-03  1703   0.659E-02
   1878 T=   808. E= -.36520513E+02 F= -.42987130E+02 E0= -.42943569E+02  EK= 0.36571E+01 SP= 0.28E+01 SK= 0.18E-04 mag=     -0.031
       N       E                     dE             d eps       ncg     rms          rms(c)
DAV:   1    -0.429423785295E+02    0.44414E-01   -0.22690E-02  3344   0.107E+00    0.174E-01
RMM:   2    -0.429459999099E+02   -0.36214E-02   -0.84541E-03  1877   0.288E-01    0.139E-01
RMM:   3    -0.429489431080E+02   -0.29432E-02   -0.33255E-03  1824   0.116E-01    0.107E-01
RMM:   4    -0.429516624554E+02   -0.27193E-02   -0.44009E-03  1977   0.104E-01    0.471E-02
RMM:   5    -0.429520835394E+02   -0.42108E-03   -0.68337E-04  1632   0.570E-02
   1879 T=   800. E= -.36518943E+02 F= -.42952084E+02 E0= -.42908523E+02  EK= 0.36213E+01 SP= 0.28E+01 SK= 0.29E-04 mag=      0.078
       N       E                     dE             d eps       ncg     rms          rms(c)
DAV:   1    -0.429121435283E+02    0.39519E-01   -0.18638E-02  3768   0.108E+00    0.670E-02
RMM:   2    -0.429133170208E+02   -0.11735E-02   -0.56788E-03  1967   0.249E-01
   1880 T=   792. E= -.36514910E+02 F= -.42913317E+02 E0= -.42869647E+02  EK= 0.35843E+01 SP= 0.28E+01 SK= 0.20E-04 mag=      0.055
       N       E                     dE             d eps       ncg     rms          rms(c)
DAV:   1    -0.428713888140E+02    0.40755E-01   -0.22384E-02  3912   0.121E+00    0.586E-02
RMM:   2    -0.428725136400E+02   -0.11248E-02   -0.58767E-03  2005   0.275E-01
   1881 T=   783. E= -.36512282E+02 F= -.42872514E+02 E0= -.42828686E+02  EK= 0.35447E+01 SP= 0.28E+01 SK= 0.16E-05 mag=     -0.070
       N       E                     dE             d eps       ncg     rms          rms(c)
DAV:   1    -0.428287217702E+02    0.42667E-01   -0.19043E-02  3288   0.108E+00    0.734E-02
RMM:   2    -0.428299378961E+02   -0.12161E-02   -0.64359E-03  2021   0.312E-01
   1882 T=   775. E= -.36507094E+02 F= -.42829938E+02 E0= -.42786173E+02  EK= 0.35076E+01 SP= 0.28E+01 SK= 0.17E-04 mag=     -0.222
       N       E                     dE             d eps       ncg     rms          rms(c)
DAV:   1    -0.427856495730E+02    0.43072E-01   -0.24927E-02  3624   0.117E+00    0.734E-02
RMM:   2    -0.427871176721E+02   -0.14681E-02   -0.69755E-03  2038   0.298E-01
   1883 T=   768. E= -.36500005E+02 F= -.42787118E+02 E0= -.42743472E+02  EK= 0.34749E+01 SP= 0.28E+01 SK= 0.14E-03 mag=     -0.309
       N       E                     dE             d eps       ncg     rms          rms(c)
DAV:   1    -0.427446462297E+02    0.41003E-01   -0.13324E-02  3544   0.106E+00    0.526E-02
RMM:   2    -0.427458631742E+02   -0.12169E-02   -0.66013E-03  2037   0.308E-01
   1884 T=   761. E= -.36495034E+02 F= -.42745863E+02 E0= -.42701898E+02  EK= 0.34450E+01 SP= 0.28E+01 SK= 0.44E-03 mag=     -0.243
       N       E                     dE             d eps       ncg     rms          rms(c)
DAV:   1    -0.427049591345E+02    0.39687E-01   -0.18811E-02  3280   0.114E+00    0.555E-02
RMM:   2    -0.427059550177E+02   -0.99588E-03   -0.58969E-03  1993   0.290E-01
   1885 T=   756. E= -.36489254E+02 F= -.42705955E+02 E0= -.42661460E+02  EK= 0.34214E+01 SP= 0.28E+01 SK= 0.10E-02 mag=     -0.011
       N       E                     dE             d eps       ncg     rms          rms(c)
DAV:   1    -0.426652665645E+02    0.39693E-01   -0.18124E-02  3424   0.105E+00    0.856E-02
RMM:   2    -0.426669095167E+02   -0.16430E-02   -0.67335E-03  1995   0.293E-01
   1886 T=   753. E= -.36481397E+02 F= -.42666910E+02 E0= -.42622719E+02  EK= 0.34051E+01 SP= 0.28E+01 SK= 0.19E-02 mag=      0.255
       N       E                     dE             d eps       ncg     rms          rms(c)
DAV:   1    -0.426321079855E+02    0.33159E-01   -0.26808E-02  3784   0.115E+00    0.866E-02
RMM:   2    -0.426335843494E+02   -0.14764E-02   -0.70391E-03  2043   0.314E-01
   1887 T=   751. E= -.36475387E+02 F= -.42633584E+02 E0= -.42589414E+02  EK= 0.33977E+01 SP= 0.28E+01 SK= 0.32E-02 mag=      0.409
       N       E                     dE             d eps       ncg     rms          rms(c)
DAV:   1    -0.426034413062E+02    0.28667E-01   -0.27438E-02  3504   0.102E+00    0.814E-02
RMM:   2    -0.426049355032E+02   -0.14942E-02   -0.68814E-03  2005   0.305E-01
   1888 T=   751. E= -.36470536E+02 F= -.42604936E+02 E0= -.42560176E+02  EK= 0.33990E+01 SP= 0.27E+01 SK= 0.48E-02 mag=      0.279
       N       E                     dE             d eps       ncg     rms          rms(c)
DAV:   1    -0.425805396209E+02    0.22902E-01   -0.18117E-02  3328   0.107E+00    0.876E-02
RMM:   2    -0.425819533203E+02   -0.14137E-02   -0.65275E-03  1999   0.287E-01
   1889 T=   754. E= -.36465456E+02 F= -.42581953E+02 E0= -.42536679E+02  EK= 0.34112E+01 SP= 0.27E+01 SK= 0.67E-02 mag=     -0.114
       N       E                     dE             d eps       ncg     rms          rms(c)
DAV:   1    -0.425610342311E+02    0.19505E-01   -0.18618E-02  3656   0.104E+00    0.127E-01
RMM:   2    -0.425635101253E+02   -0.24759E-02   -0.71425E-03  1998   0.303E-01    0.107E-01
RMM:   3    -0.425658045086E+02   -0.22944E-02   -0.37763E-03  1855   0.125E-01    0.735E-02
RMM:   4    -0.425674113018E+02   -0.16068E-02   -0.32178E-03  1849   0.994E-02
   1890 T=   759. E= -.36462775E+02 F= -.42567411E+02 E0= -.42521956E+02  EK= 0.34346E+01 SP= 0.27E+01 SK= 0.87E-02 mag=     -0.083
       N       E                     dE             d eps       ncg     rms          rms(c)
DAV:   1    -0.425525332514E+02    0.13271E-01   -0.26195E-02  3352   0.106E+00    0.153E-01
RMM:   2    -0.425554353794E+02   -0.29021E-02   -0.59293E-03  1846   0.249E-01    0.124E-01
RMM:   3    -0.425578803419E+02   -0.24450E-02   -0.28601E-03  1824   0.106E-01    0.854E-02
RMM:   4    -0.425597647753E+02   -0.18844E-02   -0.25145E-03  1825   0.857E-02    0.403E-02
RMM:   5    -0.425600437109E+02   -0.27894E-03   -0.42140E-04  1536   0.457E-02
   1891 T=   767. E= -.36460871E+02 F= -.42560044E+02 E0= -.42514204E+02  EK= 0.34690E+01 SP= 0.26E+01 SK= 0.11E-01 mag=      0.046
       N       E                     dE             d eps       ncg     rms          rms(c)
DAV:   1    -0.425596104396E+02    0.15434E-03   -0.19133E-02  3472   0.101E+00    0.794E-02
RMM:   2    -0.425606346046E+02   -0.10242E-02   -0.45007E-03  1895   0.243E-01
   1892 T=   778. E= -.36455922E+02 F= -.42560635E+02 E0= -.42514638E+02  EK= 0.35184E+01 SP= 0.26E+01 SK= 0.12E-01 mag=      0.188
       N       E                     dE             d eps       ncg     rms          rms(c)
DAV:   1    -0.425672524275E+02   -0.76420E-02   -0.21157E-02  3872   0.109E+00    0.106E-01
RMM:   2    -0.425691089428E+02   -0.18565E-02   -0.65559E-03  2010   0.262E-01    0.857E-02
RMM:   3    -0.425700186029E+02   -0.90966E-03   -0.18984E-03  1871   0.104E-01
   1893 T=   791. E= -.36452552E+02 F= -.42570019E+02 E0= -.42523776E+02  EK= 0.35782E+01 SP= 0.25E+01 SK= 0.13E-01 mag=      0.076
       N       E                     dE             d eps       ncg     rms          rms(c)
DAV:   1    -0.425872677502E+02   -0.18159E-01   -0.29371E-02  3264   0.107E+00    0.108E-01
RMM:   2    -0.425893589728E+02   -0.20912E-02   -0.50588E-03  1923   0.263E-01    0.776E-02
RMM:   3    -0.425897356840E+02   -0.37671E-03   -0.10933E-03  1596   0.895E-02
   1894 T=   806. E= -.36451655E+02 F= -.42589736E+02 E0= -.42543178E+02  EK= 0.36477E+01 SP= 0.25E+01 SK= 0.13E-01 mag=     -0.146
       N       E                     dE             d eps       ncg     rms          rms(c)
DAV:   1    -0.426151228850E+02   -0.25764E-01   -0.52621E-02  3640   0.109E+00    0.121E-01
RMM:   2    -0.426168003589E+02   -0.16775E-02   -0.68240E-03  2018   0.295E-01
   1895 T=   824. E= -.36445564E+02 F= -.42616800E+02 E0= -.42570254E+02  EK= 0.37301E+01 SP= 0.24E+01 SK= 0.12E-01 mag=     -0.353
       N       E                     dE             d eps       ncg     rms          rms(c)
DAV:   1    -0.426518744995E+02   -0.36752E-01   -0.33306E-02  3624   0.108E+00    0.111E-01
RMM:   2    -0.426537780294E+02   -0.19035E-02   -0.63343E-03  2033   0.279E-01    0.888E-02
RMM:   3    -0.426550864544E+02   -0.13084E-02   -0.20399E-03  1953   0.118E-01
   1896 T=   844. E= -.36444526E+02 F= -.42655086E+02 E0= -.42608102E+02  EK= 0.38169E+01 SP= 0.24E+01 SK= 0.10E-01 mag=     -0.177
       N       E                     dE             d eps       ncg     rms          rms(c)
DAV:   1    -0.426981997329E+02   -0.44422E-01   -0.27089E-02  3256   0.110E+00    0.143E-01
RMM:   2    -0.426999568974E+02   -0.17572E-02   -0.58359E-03  1853   0.269E-01
   1897 T=   864. E= -.36439176E+02 F= -.42699957E+02 E0= -.42652523E+02  EK= 0.39105E+01 SP= 0.23E+01 SK= 0.77E-02 mag=      0.265
       N       E                     dE             d eps       ncg     rms          rms(c)
DAV:   1    -0.427413047184E+02   -0.43105E-01   -0.42425E-02  3968   0.120E+00    0.203E-01
RMM:   2    -0.427462588737E+02   -0.49542E-02   -0.89326E-03  1991   0.268E-01    0.166E-01
RMM:   3    -0.427510211542E+02   -0.47623E-02   -0.42884E-03  1824   0.124E-01    0.125E-01
RMM:   4    -0.427551100706E+02   -0.40889E-02   -0.62238E-03  1927   0.119E-01    0.393E-02
RMM:   5    -0.427554054256E+02   -0.29535E-03   -0.79233E-04  1664   0.645E-02
   1898 T=   885. E= -.36436155E+02 F= -.42755405E+02 E0= -.42707433E+02  EK= 0.40055E+01 SP= 0.23E+01 SK= 0.46E-02 mag=      0.080
       N       E                     dE             d eps       ncg     rms          rms(c)
DAV:   1    -0.428007000482E+02   -0.45590E-01   -0.31788E-02  3352   0.110E+00    0.232E-01
RMM:   2    -0.428060236068E+02   -0.53236E-02   -0.10732E-02  1868   0.276E-01    0.181E-01
RMM:   3    -0.428098342428E+02   -0.38106E-02   -0.33608E-03  1832   0.115E-01    0.141E-01
RMM:   4    -0.428146715389E+02   -0.48373E-02   -0.64351E-03  1994   0.115E-01    0.585E-02
RMM:   5    -0.428152402940E+02   -0.56876E-03   -0.80998E-04  1671   0.666E-02
   1899 T=   905. E= -.36435674E+02 F= -.42815240E+02 E0= -.42766932E+02  EK= 0.40926E+01 SP= 0.23E+01 SK= 0.18E-02 mag=     -0.078
       N       E                     dE             d eps       ncg     rms          rms(c)
DAV:   1    -0.428781371523E+02   -0.63466E-01   -0.23755E-02  3528   0.115E+00    0.902E-02
RMM:   2    -0.428794585711E+02   -0.13214E-02   -0.57530E-03  2035   0.291E-01
   1900 T=   923. E= -.36430976E+02 F= -.42879459E+02 E0= -.42830923E+02  EK= 0.41755E+01 SP= 0.23E+01 SK= 0.17E-03 mag=     -0.175
       N       E                     dE             d eps       ncg     rms          rms(c)
DAV:   1    -0.429441700226E+02   -0.66033E-01   -0.24345E-02  3840   0.119E+00    0.112E-01
RMM:   2    -0.429465785005E+02   -0.24085E-02   -0.82004E-03  2059   0.303E-01    0.864E-02
RMM:   3    -0.429477052758E+02   -0.11268E-02   -0.22928E-03  1866   0.115E-01
   1901 T=   938. E= -.36427502E+02 F= -.42947705E+02 E0= -.42898761E+02  EK= 0.42455E+01 SP= 0.23E+01 SK= 0.47E-03 mag=     -0.131
       N       E                     dE             d eps       ncg     rms          rms(c)
DAV:   1    -0.430180411759E+02   -0.71463E-01   -0.27574E-02  3360   0.121E+00    0.104E-01
RMM:   2    -0.430199506418E+02   -0.19095E-02   -0.46269E-03  1953   0.269E-01    0.653E-02
RMM:   3    -0.430204017581E+02   -0.45112E-03   -0.13077E-03  1708   0.990E-02
   1902 T=   950. E= -.36426210E+02 F= -.43020402E+02 E0= -.42970924E+02  EK= 0.42995E+01 SP= 0.23E+01 SK= 0.36E-02 mag=      0.067
       N       E                     dE             d eps       ncg     rms          rms(c)
DAV:   1    -0.430909219714E+02   -0.70971E-01   -0.44458E-02  3696   0.118E+00    0.905E-02
RMM:   2    -0.430923829961E+02   -0.14610E-02   -0.60658E-03  2037   0.291E-01
   1903 T=   959. E= -.36419299E+02 F= -.43092383E+02 E0= -.43042911E+02  EK= 0.43382E+01 SP= 0.23E+01 SK= 0.10E-01 mag=      0.296
       N       E                     dE             d eps       ncg     rms          rms(c)
DAV:   1    -0.431621852730E+02   -0.71263E-01   -0.32636E-02  3832   0.122E+00    0.116E-01
RMM:   2    -0.431641922034E+02   -0.20069E-02   -0.68999E-03  2072   0.301E-01    0.907E-02
RMM:   3    -0.431651081105E+02   -0.91591E-03   -0.19579E-03  1961   0.119E-01
   1904 T=   962. E= -.36416394E+02 F= -.43165108E+02 E0= -.43115427E+02  EK= 0.43521E+01 SP= 0.24E+01 SK= 0.20E-01 mag=      0.203
       N       E                     dE             d eps       ncg     rms          rms(c)
DAV:   1    -0.432358845928E+02   -0.71692E-01   -0.28759E-02  3296   0.124E+00    0.102E-01
RMM:   2    -0.432375608198E+02   -0.16762E-02   -0.62127E-03  1941   0.288E-01
   1905 T=   961. E= -.36410333E+02 F= -.43237561E+02 E0= -.43186933E+02  EK= 0.43472E+01 SP= 0.24E+01 SK= 0.35E-01 mag=     -0.142
       N       E                     dE             d eps       ncg     rms          rms(c)
DAV:   1    -0.432990204719E+02   -0.63136E-01   -0.47747E-02  3976   0.129E+00    0.155E-01
RMM:   2    -0.433022010867E+02   -0.31806E-02   -0.84756E-03  2038   0.287E-01    0.126E-01
RMM:   3    -0.433051589099E+02   -0.29578E-02   -0.36006E-03  1876   0.125E-01    0.955E-02
RMM:   4    -0.433074550676E+02   -0.22962E-02   -0.34855E-03  1835   0.986E-02    0.349E-02
RMM:   5    -0.433076932027E+02   -0.23814E-03   -0.61206E-04  1601   0.536E-02
   1906 T=   955. E= -.36403916E+02 F= -.43307693E+02 E0= -.43256714E+02  EK= 0.43191E+01 SP= 0.25E+01 SK= 0.52E-01 mag=     -0.100
       N       E                     dE             d eps       ncg     rms          rms(c)
DAV:   1    -0.433664896322E+02   -0.59035E-01   -0.24020E-02  3352   0.112E+00    0.157E-01
RMM:   2    -0.433694801940E+02   -0.29906E-02   -0.86645E-03  1866   0.285E-01    0.120E-01
RMM:   3    -0.433715937107E+02   -0.21135E-02   -0.28460E-03  1824   0.113E-01    0.889E-02
RMM:   4    -0.433732929247E+02   -0.16992E-02   -0.24058E-03  1827   0.868E-02
   1907 T=   942. E= -.36400944E+02 F= -.43373293E+02 E0= -.43321926E+02  EK= 0.42636E+01 SP= 0.26E+01 SK= 0.71E-01 mag=      0.079
       N       E                     dE             d eps       ncg     rms          rms(c)
DAV:   1    -0.434334158185E+02   -0.61822E-01   -0.20426E-02  3752   0.119E+00    0.908E-02
RMM:   2    -0.434349328061E+02   -0.15170E-02   -0.65438E-03  2030   0.264E-01
   1908 T=   926. E= -.36395387E+02 F= -.43434933E+02 E0= -.43383874E+02  EK= 0.41901E+01 SP= 0.28E+01 SK= 0.91E-01 mag=      0.306
       N       E                     dE             d eps       ncg     rms          rms(c)
DAV:   1    -0.434917154781E+02   -0.58300E-01   -0.24732E-02  3800   0.116E+00    0.778E-02
RMM:   2    -0.434931387165E+02   -0.14232E-02   -0.56309E-03  2034   0.278E-01
   1909 T=   906. E= -.36393014E+02 F= -.43493139E+02 E0= -.43442189E+02  EK= 0.40967E+01 SP= 0.29E+01 SK= 0.11E+00 mag=      0.455
       N       E                     dE             d eps       ncg     rms          rms(c)
DAV:   1    -0.435444812814E+02   -0.52766E-01   -0.21870E-02  3520   0.114E+00    0.897E-02
RMM:   2    -0.435462856375E+02   -0.18044E-02   -0.68929E-03  2017   0.304E-01    0.730E-02
RMM:   3    -0.435471340026E+02   -0.84837E-03   -0.19596E-03  1981   0.120E-01
   1910 T=   882. E= -.36390652E+02 F= -.43547134E+02 E0= -.43495327E+02  EK= 0.39896E+01 SP= 0.30E+01 SK= 0.13E+00 mag=      0.226
       N       E                     dE             d eps       ncg     rms          rms(c)
DAV:   1    -0.435953566495E+02   -0.49071E-01   -0.24815E-02  3512   0.114E+00    0.763E-02
RMM:   2    -0.435964354352E+02   -0.10788E-02   -0.42256E-03  1984   0.281E-01
   1911 T=   857. E= -.36381798E+02 F= -.43596435E+02 E0= -.43544197E+02  EK= 0.38788E+01 SP= 0.32E+01 SK= 0.14E+00 mag=     -0.283
       N       E                     dE             d eps       ncg     rms          rms(c)
DAV:   1    -0.436338586303E+02   -0.38502E-01   -0.26729E-02  3952   0.118E+00    0.133E-01
RMM:   2    -0.436363406030E+02   -0.24820E-02   -0.63169E-03  1973   0.246E-01    0.111E-01
RMM:   3    -0.436386657799E+02   -0.23252E-02   -0.28758E-03  1824   0.110E-01    0.844E-02
RMM:   4    -0.436406254967E+02   -0.19597E-02   -0.31837E-03  1889   0.918E-02    0.430E-02
RMM:   5    -0.436411269903E+02   -0.50149E-03   -0.11399E-03  1733   0.633E-02
   1912 T=   831. E= -.36375583E+02 F= -.43641127E+02 E0= -.43588400E+02  EK= 0.37589E+01 SP= 0.34E+01 SK= 0.15E+00 mag=     -0.061
       N       E                     dE             d eps       ncg     rms          rms(c)
DAV:   1    -0.436749747639E+02   -0.34349E-01   -0.18056E-02  2496   0.102E+00    0.132E-01
RMM:   2    -0.436772097658E+02   -0.22350E-02   -0.54959E-03  1934   0.246E-01    0.105E-01
RMM:   3    -0.436785330414E+02   -0.13233E-02   -0.19038E-03  1864   0.977E-02
   1913 T=   803. E= -.36370346E+02 F= -.43678533E+02 E0= -.43627040E+02  EK= 0.36328E+01 SP= 0.35E+01 SK= 0.15E+00 mag=      0.415
       N       E                     dE             d eps       ncg     rms          rms(c)
DAV:   1    -0.437078522946E+02   -0.30643E-01   -0.32388E-02  3808   0.107E+00    0.156E-01
RMM:   2    -0.437104260139E+02   -0.25737E-02   -0.61983E-03  1965   0.265E-01    0.123E-01
RMM:   3    -0.437123698169E+02   -0.19438E-02   -0.24886E-03  1844   0.115E-01    0.965E-02
RMM:   4    -0.437144127510E+02   -0.20429E-02   -0.25528E-03  1868   0.956E-02    0.574E-02
RMM:   5    -0.437150920710E+02   -0.67932E-03   -0.77527E-04  1608   0.610E-02
   1914 T=   775. E= -.36368635E+02 F= -.43715092E+02 E0= -.43662379E+02  EK= 0.35076E+01 SP= 0.37E+01 SK= 0.15E+00 mag=      0.086
       N       E                     dE             d eps       ncg     rms          rms(c)
DAV:   1    -0.437396977714E+02   -0.25285E-01   -0.17382E-02  3072   0.103E+00    0.135E-01
RMM:   2    -0.437420282937E+02   -0.23305E-02   -0.52202E-03  1898   0.233E-01    0.113E-01
RMM:   3    -0.437435974832E+02   -0.15692E-02   -0.18086E-03  1823   0.108E-01
   1915 T=   749. E= -.36361964E+02 F= -.43743597E+02 E0= -.43692271E+02  EK= 0.33876E+01 SP= 0.39E+01 SK= 0.14E+00 mag=     -0.465
       N       E                     dE             d eps       ncg     rms          rms(c)
DAV:   1    -0.437647475392E+02   -0.22719E-01   -0.35845E-02  3640   0.109E+00    0.165E-01
RMM:   2    -0.437673380426E+02   -0.25905E-02   -0.62091E-03  2002   0.290E-01    0.129E-01
RMM:   3    -0.437694174563E+02   -0.20794E-02   -0.24250E-03  1929   0.122E-01    0.108E-01
RMM:   4    -0.437726277374E+02   -0.32103E-02   -0.52519E-03  1986   0.119E-01    0.519E-02
RMM:   5    -0.437731057162E+02   -0.47798E-03   -0.68641E-04  1642   0.704E-02
   1916 T=   724. E= -.36359870E+02 F= -.43773106E+02 E0= -.43720157E+02  EK= 0.32745E+01 SP= 0.40E+01 SK= 0.13E+00 mag=     -0.090
       N       E                     dE             d eps       ncg     rms          rms(c)
DAV:   1    -0.437881772237E+02   -0.15549E-01   -0.20295E-02  2984   0.986E-01    0.164E-01
RMM:   2    -0.437906567009E+02   -0.24795E-02   -0.55460E-03  1887   0.214E-01    0.129E-01
RMM:   3    -0.437929792512E+02   -0.23226E-02   -0.28090E-03  1826   0.109E-01    0.105E-01
RMM:   4    -0.437948674212E+02   -0.18882E-02   -0.16227E-03  1823   0.756E-02    0.711E-02
RMM:   5    -0.437962306632E+02   -0.13632E-02   -0.19732E-03  1841   0.674E-02
   1917 T=   700. E= -.36357504E+02 F= -.43796231E+02 E0= -.43743604E+02  EK= 0.31676E+01 SP= 0.42E+01 SK= 0.11E+00 mag=      0.105
       N       E                     dE             d eps       ncg     rms          rms(c)
DAV:   1    -0.438154115571E+02   -0.20544E-01   -0.17623E-02  3520   0.975E-01    0.642E-02
RMM:   2    -0.438161127392E+02   -0.70118E-03   -0.37333E-03  1969   0.232E-01
   1918 T=   679. E= -.36352390E+02 F= -.43816113E+02 E0= -.43763406E+02  EK= 0.30739E+01 SP= 0.43E+01 SK= 0.96E-01 mag=      0.099
       N       E                     dE             d eps       ncg     rms          rms(c)
DAV:   1    -0.438319523237E+02   -0.16541E-01   -0.18447E-02  3648   0.985E-01    0.592E-02
RMM:   2    -0.438329479516E+02   -0.99563E-03   -0.50179E-03  1997   0.248E-01
   1919 T=   661. E= -.36347419E+02 F= -.43832948E+02 E0= -.43780385E+02  EK= 0.29916E+01 SP= 0.44E+01 SK= 0.76E-01 mag=     -0.075
       N       E                     dE             d eps       ncg     rms          rms(c)
DAV:   1    -0.438453063953E+02   -0.13354E-01   -0.87859E-03  2592   0.949E-01    0.772E-02
RMM:   2    -0.438463776872E+02   -0.10713E-02   -0.50131E-03  2010   0.263E-01
   1920 T=   646. E= -.36342405E+02 F= -.43846378E+02 E0= -.43794361E+02  EK= 0.29213E+01 SP= 0.45E+01 SK= 0.56E-01 mag=     -0.288
       N       E                     dE             d eps       ncg     rms          rms(c)
DAV:   1    -0.438562303444E+02   -0.10924E-01   -0.17267E-02  3504   0.102E+00    0.765E-02
RMM:   2    -0.438573049159E+02   -0.10746E-02   -0.49968E-03  1963   0.250E-01
   1921 T=   633. E= -.36336098E+02 F= -.43857305E+02 E0= -.43805959E+02  EK= 0.28654E+01 SP= 0.46E+01 SK= 0.38E-01 mag=     -0.425
       N       E                     dE             d eps       ncg     rms          rms(c)
DAV:   1    -0.438643121817E+02   -0.80818E-02   -0.12075E-02  3008   0.922E-01    0.774E-02
RMM:   2    -0.438655305672E+02   -0.12184E-02   -0.50003E-03  1982   0.268E-01
   1922 T=   624. E= -.36329221E+02 F= -.43865531E+02 E0= -.43814494E+02  EK= 0.28232E+01 SP= 0.47E+01 SK= 0.22E-01 mag=     -0.380
       N       E                     dE             d eps       ncg     rms          rms(c)
DAV:   1    -0.438706135444E+02   -0.63014E-02   -0.12228E-02  3008   0.962E-01    0.813E-02
RMM:   2    -0.438717880257E+02   -0.11745E-02   -0.47695E-03  1981   0.252E-01
   1923 T=   618. E= -.36322211E+02 F= -.43871788E+02 E0= -.43820631E+02  EK= 0.27952E+01 SP= 0.47E+01 SK= 0.10E-01 mag=     -0.129
       N       E                     dE             d eps       ncg     rms          rms(c)
DAV:   1    -0.438746364692E+02   -0.40229E-02   -0.11125E-02  3176   0.939E-01    0.790E-02
RMM:   2    -0.438758482953E+02   -0.12118E-02   -0.47468E-03  1988   0.258E-01
   1924 T=   615. E= -.36315131E+02 F= -.43875848E+02 E0= -.43825145E+02  EK= 0.27811E+01 SP= 0.48E+01 SK= 0.28E-02 mag=      0.198
       N       E                     dE             d eps       ncg     rms          rms(c)
DAV:   1    -0.438761360689E+02   -0.14996E-02   -0.18554E-02  3328   0.972E-01    0.882E-02
RMM:   2    -0.438774409703E+02   -0.13049E-02   -0.57805E-03  1979   0.280E-01
   1925 T=   615. E= -.36307725E+02 F= -.43877441E+02 E0= -.43827824E+02  EK= 0.27808E+01 SP= 0.48E+01 SK= 0.16E-04 mag=      0.464
       N       E                     dE             d eps       ncg     rms          rms(c)
DAV:   1    -0.438718614784E+02    0.42746E-02   -0.21614E-02  3464   0.936E-01    0.136E-01
RMM:   2    -0.438741799848E+02   -0.23185E-02   -0.62373E-03  1972   0.262E-01    0.114E-01
RMM:   3    -0.438766242505E+02   -0.24443E-02   -0.33086E-03  1847   0.118E-01    0.838E-02
RMM:   4    -0.438787928005E+02   -0.21686E-02   -0.40589E-03  1909   0.101E-01    0.322E-02
RMM:   5    -0.438789436989E+02   -0.15090E-03   -0.44565E-04  1620   0.562E-02
   1926 T=   617. E= -.36305634E+02 F= -.43878944E+02 E0= -.43828934E+02  EK= 0.27911E+01 SP= 0.48E+01 SK= 0.20E-02 mag=      0.054
       N       E                     dE             d eps       ncg     rms          rms(c)
DAV:   1    -0.438670915491E+02    0.11701E-01   -0.21956E-02  3112   0.917E-01    0.164E-01
RMM:   2    -0.438702016103E+02   -0.31101E-02   -0.66751E-03  1849   0.219E-01    0.139E-01
RMM:   3    -0.438737980605E+02   -0.35965E-02   -0.45642E-03  1824   0.105E-01    0.970E-02
RMM:   4    -0.438763236816E+02   -0.25256E-02   -0.36249E-03  1836   0.984E-02    0.508E-02
RMM:   5    -0.438768495054E+02   -0.52582E-03   -0.90058E-04  1633   0.584E-02
   1927 T=   622. E= -.36304451E+02 F= -.43876850E+02 E0= -.43827389E+02  EK= 0.28127E+01 SP= 0.48E+01 SK= 0.85E-02 mag=     -0.042
       N       E                     dE             d eps       ncg     rms          rms(c)
DAV:   1    -0.438721102978E+02    0.42134E-02   -0.82516E-03  3064   0.922E-01    0.550E-02
RMM:   2    -0.438728805291E+02   -0.77023E-03   -0.38061E-03  1994   0.229E-01
   1928 T=   630. E= -.36300531E+02 F= -.43872881E+02 E0= -.43823877E+02  EK= 0.28511E+01 SP= 0.47E+01 SK= 0.19E-01 mag=      0.131
       N       E                     dE             d eps       ncg     rms          rms(c)
DAV:   1    -0.438648372417E+02    0.72731E-02   -0.12302E-02  3552   0.100E+00    0.856E-02
RMM:   2    -0.438661942049E+02   -0.13570E-02   -0.47446E-03  2000   0.239E-01
   1929 T=   642. E= -.36295226E+02 F= -.43866194E+02 E0= -.43818312E+02  EK= 0.29039E+01 SP= 0.46E+01 SK= 0.33E-01 mag=      0.395
       N       E                     dE             d eps       ncg     rms          rms(c)
DAV:   1    -0.438570966166E+02    0.77406E-02   -0.12812E-02  2800   0.913E-01    0.110E-01
RMM:   2    -0.438586765082E+02   -0.15799E-02   -0.48772E-03  1992   0.262E-01
   1930 T=   657. E= -.36290782E+02 F= -.43858677E+02 E0= -.43811726E+02  EK= 0.29704E+01 SP= 0.45E+01 SK= 0.49E-01 mag=      0.489
       N       E                     dE             d eps       ncg     rms          rms(c)
DAV:   1    -0.438515049980E+02    0.55916E-02   -0.15245E-02  3424   0.104E+00    0.683E-02
RMM:   2    -0.438525794324E+02   -0.10744E-02   -0.52779E-03  1987   0.264E-01
   1931 T=   675. E= -.36286736E+02 F= -.43852579E+02 E0= -.43805344E+02  EK= 0.30530E+01 SP= 0.44E+01 SK= 0.66E-01 mag=      0.312
       N       E                     dE             d eps       ncg     rms          rms(c)
DAV:   1    -0.438428035898E+02    0.87014E-02   -0.10909E-02  2896   0.948E-01    0.520E-02
RMM:   2    -0.438437375157E+02   -0.93393E-03   -0.53287E-03  1996   0.275E-01
   1932 T=   696. E= -.36280472E+02 F= -.43843738E+02 E0= -.43796596E+02  EK= 0.31496E+01 SP= 0.43E+01 SK= 0.82E-01 mag=     -0.107
       N       E                     dE             d eps       ncg     rms          rms(c)
DAV:   1    -0.438281262323E+02    0.14677E-01   -0.12693E-02  3048   0.102E+00    0.114E-01
RMM:   2    -0.438300982046E+02   -0.19720E-02   -0.63063E-03  1999   0.275E-01    0.972E-02
RMM:   3    -0.438316128630E+02   -0.15147E-02   -0.28845E-03  1863   0.122E-01
   1933 T=   720. E= -.36273985E+02 F= -.43831613E+02 E0= -.43785580E+02  EK= 0.32567E+01 SP= 0.42E+01 SK= 0.97E-01 mag=     -0.155
       N       E                     dE             d eps       ncg     rms          rms(c)
DAV:   1    -0.438185049535E+02    0.11593E-01   -0.27773E-02  3208   0.101E+00    0.901E-02
RMM:   2    -0.438201855222E+02   -0.16806E-02   -0.58535E-03  1909   0.278E-01
   1934 T=   746. E= -.36268984E+02 F= -.43820186E+02 E0= -.43773993E+02  EK= 0.33750E+01 SP= 0.41E+01 SK= 0.11E+00 mag=      0.127
       N       E                     dE             d eps       ncg     rms          rms(c)
DAV:   1    -0.437997239671E+02    0.18781E-01   -0.48612E-02  3584   0.109E+00    0.153E-01
RMM:   2    -0.438025587170E+02   -0.28347E-02   -0.72054E-03  2007   0.267E-01    0.123E-01
RMM:   3    -0.438059822736E+02   -0.34236E-02   -0.38335E-03  1886   0.126E-01    0.793E-02
RMM:   4    -0.438073202295E+02   -0.13380E-02   -0.21651E-03  1824   0.912E-02
   1935 T=   774. E= -.36265254E+02 F= -.43807320E+02 E0= -.43761478E+02  EK= 0.35010E+01 SP= 0.39E+01 SK= 0.12E+00 mag=      0.056
       N       E                     dE             d eps       ncg     rms          rms(c)
DAV:   1    -0.437835151912E+02    0.22467E-01   -0.21283E-02  3176   0.993E-01    0.160E-01
RMM:   2    -0.437873110410E+02   -0.37958E-02   -0.93817E-03  1872   0.249E-01    0.124E-01
RMM:   3    -0.437909115062E+02   -0.36005E-02   -0.65521E-03  1824   0.125E-01    0.763E-02
RMM:   4    -0.437919622703E+02   -0.10508E-02   -0.19656E-03  1822   0.808E-02
   1936 T=   802. E= -.36263820E+02 F= -.43791962E+02 E0= -.43746453E+02  EK= 0.36300E+01 SP= 0.38E+01 SK= 0.12E+00 mag=     -0.050
       N       E                     dE             d eps       ncg     rms          rms(c)
DAV:   1    -0.437720913200E+02    0.18820E-01   -0.20942E-02  3512   0.111E+00    0.106E-01
RMM:   2    -0.437742150907E+02   -0.21238E-02   -0.67883E-03  1846   0.259E-01    0.687E-02
RMM:   3    -0.437752562574E+02   -0.10412E-02   -0.28457E-03  1824   0.116E-01
   1937 T=   832. E= -.36260542E+02 F= -.43775256E+02 E0= -.43730175E+02  EK= 0.37645E+01 SP= 0.36E+01 SK= 0.11E+00 mag=     -0.128
       N       E                     dE             d eps       ncg     rms          rms(c)
DAV:   1    -0.437556876879E+02    0.18527E-01   -0.21758E-02  3408   0.105E+00    0.759E-02
RMM:   2    -0.437568708900E+02   -0.11832E-02   -0.51515E-03  1854   0.275E-01
   1938 T=   862. E= -.36254999E+02 F= -.43756871E+02 E0= -.43711978E+02  EK= 0.39012E+01 SP= 0.35E+01 SK= 0.11E+00 mag=     -0.123
       N       E                     dE             d eps       ncg     rms          rms(c)
DAV:   1    -0.437338508404E+02    0.21837E-01   -0.24575E-02  3728   0.115E+00    0.899E-02
RMM:   2    -0.437354216626E+02   -0.15708E-02   -0.61453E-03  1999   0.252E-01
   1939 T=   891. E= -.36249679E+02 F= -.43735422E+02 E0= -.43690800E+02  EK= 0.40322E+01 SP= 0.34E+01 SK= 0.94E-01 mag=     -0.010
       N       E                     dE             d eps       ncg     rms          rms(c)
DAV:   1    -0.437119699944E+02    0.21881E-01   -0.14923E-02  3240   0.113E+00    0.880E-02
RMM:   2    -0.437133048517E+02   -0.13349E-02   -0.57196E-03  2019   0.306E-01
   1940 T=   919. E= -.36243201E+02 F= -.43713305E+02 E0= -.43669004E+02  EK= 0.41569E+01 SP= 0.32E+01 SK= 0.77E-01 mag=      0.141
       N       E                     dE             d eps       ncg     rms          rms(c)
DAV:   1    -0.436876854510E+02    0.24285E-01   -0.26019E-02  3608   0.122E+00    0.631E-02
RMM:   2    -0.436890364337E+02   -0.13510E-02   -0.68149E-03  2014   0.298E-01
   1941 T=   944. E= -.36235726E+02 F= -.43689036E+02 E0= -.43645004E+02  EK= 0.42691E+01 SP= 0.31E+01 SK= 0.59E-01 mag=      0.219
       N       E                     dE             d eps       ncg     rms          rms(c)
DAV:   1    -0.436584186748E+02    0.29267E-01   -0.16992E-02  3312   0.110E+00    0.886E-02
RMM:   2    -0.436601412945E+02   -0.17226E-02   -0.77681E-03  2007   0.322E-01
   1942 T=   964. E= -.36228517E+02 F= -.43660141E+02 E0= -.43616257E+02  EK= 0.43604E+01 SP= 0.30E+01 SK= 0.41E-01 mag=      0.153
       N       E                     dE             d eps       ncg     rms          rms(c)
DAV:   1    -0.436252167155E+02    0.33202E-01   -0.24165E-02  3736   0.120E+00    0.119E-01
RMM:   2    -0.436276086599E+02   -0.23919E-02   -0.78077E-03  2011   0.302E-01    0.976E-02
RMM:   3    -0.436294259866E+02   -0.18173E-02   -0.30476E-03  1907   0.126E-01    0.712E-02
RMM:   4    -0.436308279679E+02   -0.14020E-02   -0.24790E-03  1833   0.921E-02
   1943 T=   979. E= -.36225365E+02 F= -.43630828E+02 E0= -.43587001E+02  EK= 0.44272E+01 SP= 0.30E+01 SK= 0.25E-01 mag=      0.001
       N       E                     dE             d eps       ncg     rms          rms(c)
DAV:   1    -0.435876807290E+02    0.41745E-01   -0.33454E-02  3392   0.116E+00    0.158E-01
RMM:   2    -0.435910080305E+02   -0.33273E-02   -0.96001E-03  1935   0.292E-01    0.128E-01
RMM:   3    -0.435935767624E+02   -0.25687E-02   -0.36648E-03  1824   0.118E-01    0.983E-02
RMM:   4    -0.435960555126E+02   -0.24788E-02   -0.40814E-03  1849   0.982E-02    0.422E-02
RMM:   5    -0.435963094871E+02   -0.25397E-03   -0.47656E-04  1606   0.567E-02
   1944 T=   987. E= -.36222799E+02 F= -.43596309E+02 E0= -.43552601E+02  EK= 0.44648E+01 SP= 0.29E+01 SK= 0.12E-01 mag=     -0.018
       N       E                     dE             d eps       ncg     rms          rms(c)
DAV:   1    -0.435571295927E+02    0.38926E-01   -0.16064E-02  3440   0.115E+00    0.571E-02
RMM:   2    -0.435581471516E+02   -0.10176E-02   -0.52750E-03  2039   0.272E-01
   1945 T=   990. E= -.36216510E+02 F= -.43558147E+02 E0= -.43514541E+02  EK= 0.44772E+01 SP= 0.29E+01 SK= 0.36E-02 mag=      0.064
       N       E                     dE             d eps       ncg     rms          rms(c)
DAV:   1    -0.435137466923E+02    0.43383E-01   -0.23304E-02  4048   0.125E+00    0.732E-02
RMM:   2    -0.435154013069E+02   -0.16546E-02   -0.62630E-03  1996   0.277E-01
   1946 T=   985. E= -.36211528E+02 F= -.43515401E+02 E0= -.43471982E+02  EK= 0.44576E+01 SP= 0.28E+01 SK= 0.11E-03 mag=      0.179
       N       E                     dE             d eps       ncg     rms          rms(c)
DAV:   1    -0.434664604049E+02    0.47286E-01   -0.16927E-02  2856   0.113E+00    0.104E-01
RMM:   2    -0.434683619680E+02   -0.19016E-02   -0.69261E-03  2013   0.315E-01    0.829E-02
RMM:   3    -0.434697286459E+02   -0.13667E-02   -0.23738E-03  1918   0.130E-01
   1947 T=   974. E= -.36208759E+02 F= -.43469729E+02 E0= -.43426334E+02  EK= 0.44074E+01 SP= 0.29E+01 SK= 0.14E-02 mag=      0.061
       N       E                     dE             d eps       ncg     rms          rms(c)
DAV:   1    -0.434168560664E+02    0.51506E-01   -0.35578E-02  3600   0.120E+00    0.103E-01
RMM:   2    -0.434189638171E+02   -0.21078E-02   -0.54312E-03  1900   0.295E-01    0.844E-02
RMM:   3    -0.434197826762E+02   -0.81886E-03   -0.13650E-03  1559   0.106E-01
   1948 T=   958. E= -.36200984E+02 F= -.43419783E+02 E0= -.43376352E+02  EK= 0.43346E+01 SP= 0.29E+01 SK= 0.66E-02 mag=     -0.078
       N       E                     dE             d eps       ncg     rms          rms(c)
DAV:   1    -0.433642236447E+02    0.54740E-01   -0.36512E-02  3592   0.115E+00    0.976E-02
RMM:   2    -0.433656815549E+02   -0.14579E-02   -0.61483E-03  2018   0.281E-01
   1949 T=   937. E= -.36192649E+02 F= -.43365682E+02 E0= -.43322307E+02  EK= 0.42379E+01 SP= 0.29E+01 SK= 0.14E-01 mag=     -0.167
       N       E                     dE             d eps       ncg     rms          rms(c)
DAV:   1    -0.433079805224E+02    0.56243E-01   -0.29679E-02  3752   0.116E+00    0.765E-02
RMM:   2    -0.433091766940E+02   -0.11962E-02   -0.60848E-03  2031   0.273E-01
   1950 T=   910. E= -.36188179E+02 F= -.43309177E+02 E0= -.43265638E+02  EK= 0.41187E+01 SP= 0.30E+01 SK= 0.23E-01 mag=     -0.157
       N       E                     dE             d eps       ncg     rms          rms(c)
DAV:   1    -0.432487616561E+02    0.59219E-01   -0.23974E-02  3680   0.116E+00    0.682E-02
RMM:   2    -0.432498636153E+02   -0.11020E-02   -0.67394E-03  2044   0.318E-01
   1951 T=   881. E= -.36181880E+02 F= -.43249864E+02 E0= -.43206113E+02  EK= 0.39866E+01 SP= 0.30E+01 SK= 0.32E-01 mag=     -0.038
       N       E                     dE             d eps       ncg     rms          rms(c)
DAV:   1    -0.431844175516E+02    0.64344E-01   -0.26928E-02  3392   0.117E+00    0.770E-02
RMM:   2    -0.431859409419E+02   -0.15234E-02   -0.60861E-03  2019   0.290E-01
   1952 T=   850. E= -.36172865E+02 F= -.43185941E+02 E0= -.43142154E+02  EK= 0.38456E+01 SP= 0.31E+01 SK= 0.38E-01 mag=      0.131
       N       E                     dE             d eps       ncg     rms          rms(c)
DAV:   1    -0.431183343048E+02    0.66083E-01   -0.12433E-02  3336   0.110E+00    0.104E-01
RMM:   2    -0.431200633061E+02   -0.17290E-02   -0.67950E-03  2065   0.319E-01
   1953 T=   818. E= -.36164562E+02 F= -.43120063E+02 E0= -.43076293E+02  EK= 0.36992E+01 SP= 0.32E+01 SK= 0.42E-01 mag=      0.225
       N       E                     dE             d eps       ncg     rms          rms(c)
DAV:   1    -0.430545376977E+02    0.63797E-01   -0.23381E-02  3728   0.115E+00    0.548E-02
RMM:   2    -0.430556608978E+02   -0.11232E-02   -0.61253E-03  1990   0.302E-01
   1954 T=   785. E= -.36158580E+02 F= -.43055661E+02 E0= -.43011523E+02  EK= 0.35533E+01 SP= 0.33E+01 SK= 0.42E-01 mag=      0.183
       N       E                     dE             d eps       ncg     rms          rms(c)
DAV:   1    -0.429878645793E+02    0.66673E-01   -0.19201E-02  3208   0.105E+00    0.666E-02
RMM:   2    -0.429891452017E+02   -0.12806E-02   -0.69235E-03  2019   0.299E-01
   1955 T=   754. E= -.36152215E+02 F= -.42989145E+02 E0= -.42944671E+02  EK= 0.34108E+01 SP= 0.34E+01 SK= 0.39E-01 mag=      0.002
       N       E                     dE             d eps       ncg     rms          rms(c)
DAV:   1    -0.429188585674E+02    0.69006E-01   -0.23498E-02  3688   0.110E+00    0.119E-01
RMM:   2    -0.429211300367E+02   -0.22715E-02   -0.71649E-03  2021   0.293E-01    0.999E-02
RMM:   3    -0.429227936728E+02   -0.16636E-02   -0.27069E-03  1889   0.117E-01
   1956 T=   724. E= -.36146159E+02 F= -.42922794E+02 E0= -.42878219E+02  EK= 0.32761E+01 SP= 0.35E+01 SK= 0.33E-01 mag=     -0.050
       N       E                     dE             d eps       ncg     rms          rms(c)
DAV:   1    -0.428543523731E+02    0.66778E-01   -0.47803E-02  3368   0.104E+00    0.126E-01
RMM:   2    -0.428574935833E+02   -0.31412E-02   -0.77381E-03  1898   0.311E-01    0.103E-01
RMM:   3    -0.428584025004E+02   -0.90892E-03   -0.18633E-03  1794   0.103E-01
   1957 T=   697. E= -.36140746E+02 F= -.42858403E+02 E0= -.42813464E+02  EK= 0.31531E+01 SP= 0.35E+01 SK= 0.25E-01 mag=      0.004
       N       E                     dE             d eps       ncg     rms          rms(c)
DAV:   1    -0.427942984421E+02    0.63195E-01   -0.86202E-02  3408   0.105E+00    0.123E-01
RMM:   2    -0.427962131606E+02   -0.19147E-02   -0.90510E-03  2052   0.312E-01    0.816E-02
RMM:   3    -0.427968847856E+02   -0.67162E-03   -0.17097E-03  1976   0.110E-01
   1958 T=   673. E= -.36136552E+02 F= -.42796885E+02 E0= -.42751652E+02  EK= 0.30439E+01 SP= 0.36E+01 SK= 0.16E-01 mag=      0.080
       N       E                     dE             d eps       ncg     rms          rms(c)
DAV:   1    -0.427367260499E+02    0.59487E-01   -0.54146E-02  3280   0.112E+00    0.911E-02
RMM:   2    -0.427379993753E+02   -0.12733E-02   -0.66358E-03  2019   0.288E-01
   1959 T=   652. E= -.36131677E+02 F= -.42737999E+02 E0= -.42692561E+02  EK= 0.29514E+01 SP= 0.36E+01 SK= 0.81E-02 mag=      0.133
       N       E                     dE             d eps       ncg     rms          rms(c)
DAV:   1    -0.426800279989E+02    0.56698E-01   -0.42052E-02  3664   0.101E+00    0.950E-02
RMM:   2    -0.426813825271E+02   -0.13545E-02   -0.59682E-03  2003   0.258E-01
   1960 T=   636. E= -.36125650E+02 F= -.42681383E+02 E0= -.42635606E+02  EK= 0.28767E+01 SP= 0.37E+01 SK= 0.24E-02 mag=      0.114
       N       E                     dE             d eps       ncg     rms          rms(c)
DAV:   1    -0.426280822501E+02    0.51946E-01   -0.18547E-02  3168   0.964E-01    0.114E-01
RMM:   2    -0.426300223416E+02   -0.19401E-02   -0.63660E-03  2006   0.282E-01    0.919E-02
RMM:   3    -0.426316356521E+02   -0.16133E-02   -0.24059E-03  1922   0.111E-01
   1961 T=   623. E= -.36123433E+02 F= -.42631636E+02 E0= -.42585480E+02  EK= 0.28201E+01 SP= 0.37E+01 SK= 0.14E-04 mag=      0.008
       N       E                     dE             d eps       ncg     rms          rms(c)
DAV:   1    -0.425848266167E+02    0.45196E-01   -0.26735E-02  3328   0.950E-01    0.107E-01
RMM:   2    -0.425862096590E+02   -0.13830E-02   -0.43260E-03  1860   0.253E-01
   1962 T=   616. E= -.36117220E+02 F= -.42586210E+02 E0= -.42539815E+02  EK= 0.27872E+01 SP= 0.37E+01 SK= 0.19E-02 mag=     -0.142
       N       E                     dE             d eps       ncg     rms          rms(c)
DAV:   1    -0.425364150512E+02    0.48412E-01   -0.36899E-02  3648   0.101E+00    0.192E-01
RMM:   2    -0.425404084662E+02   -0.39934E-02   -0.77230E-03  1945   0.242E-01    0.159E-01
RMM:   3    -0.425469755475E+02   -0.65671E-02   -0.73466E-03  1824   0.136E-01    0.888E-02
RMM:   4    -0.425486050171E+02   -0.16295E-02   -0.29451E-03  1824   0.105E-01
   1963 T=   613. E= -.36114364E+02 F= -.42548605E+02 E0= -.42501802E+02  EK= 0.27746E+01 SP= 0.37E+01 SK= 0.86E-02 mag=     -0.047
       N       E                     dE             d eps       ncg     rms          rms(c)
DAV:   1    -0.425037303066E+02    0.43245E-01   -0.36641E-02  3232   0.914E-01    0.208E-01
RMM:   2    -0.425079890666E+02   -0.42588E-02   -0.10279E-02  1845   0.242E-01    0.167E-01
RMM:   3    -0.425129865711E+02   -0.49975E-02   -0.60862E-03  1824   0.110E-01    0.117E-01
RMM:   4    -0.425159411965E+02   -0.29546E-02   -0.37606E-03  1824   0.914E-02    0.577E-02
RMM:   5    -0.425163468218E+02   -0.40563E-03   -0.58664E-04  1580   0.538E-02
   1964 T=   615. E= -.36113515E+02 F= -.42516347E+02 E0= -.42469215E+02  EK= 0.27813E+01 SP= 0.36E+01 SK= 0.20E-01 mag=      0.037
       N       E                     dE             d eps       ncg     rms          rms(c)
DAV:   1    -0.424903594277E+02    0.25582E-01   -0.17169E-02  3272   0.945E-01    0.790E-02
RMM:   2    -0.424910043150E+02   -0.64489E-03   -0.35650E-03  1922   0.227E-01
   1965 T=   622. E= -.36110160E+02 F= -.42491004E+02 E0= -.42443561E+02  EK= 0.28138E+01 SP= 0.35E+01 SK= 0.36E-01 mag=      0.082
       N       E                     dE             d eps       ncg     rms          rms(c)
DAV:   1    -0.424702645493E+02    0.20095E-01   -0.15959E-02  3568   0.996E-01    0.873E-02
RMM:   2    -0.424718832578E+02   -0.16187E-02   -0.61555E-03  1974   0.252E-01
   1966 T=   634. E= -.36105984E+02 F= -.42471883E+02 E0= -.42424130E+02  EK= 0.28698E+01 SP= 0.34E+01 SK= 0.55E-01 mag=      0.071
       N       E                     dE             d eps       ncg     rms          rms(c)
DAV:   1    -0.424592644807E+02    0.11000E-01   -0.12360E-02  3120   0.940E-01    0.112E-01
RMM:   2    -0.424609816984E+02   -0.17172E-02   -0.52374E-03  1998   0.273E-01
   1967 T=   652. E= -.36102513E+02 F= -.42460982E+02 E0= -.42412882E+02  EK= 0.29499E+01 SP= 0.33E+01 SK= 0.76E-01 mag=      0.009
       N       E                     dE             d eps       ncg     rms          rms(c)
DAV:   1    -0.424603959872E+02   -0.11315E-02   -0.19222E-02  3448   0.110E+00    0.819E-02
RMM:   2    -0.424613571111E+02   -0.96112E-03   -0.66024E-03  2002   0.304E-01
   1968 T=   676. E= -.36099979E+02 F= -.42461357E+02 E0= -.42412908E+02  EK= 0.30569E+01 SP= 0.32E+01 SK= 0.98E-01 mag=     -0.088
       N       E                     dE             d eps       ncg     rms          rms(c)
DAV:   1    -0.424650605175E+02   -0.46645E-02   -0.20483E-02  3352   0.963E-01    0.925E-02
RMM:   2    -0.424664698643E+02   -0.14093E-02   -0.73182E-03  1994   0.302E-01
   1969 T=   705. E= -.36094312E+02 F= -.42466470E+02 E0= -.42417852E+02  EK= 0.31878E+01 SP= 0.31E+01 SK= 0.12E+00 mag=     -0.181
       N       E                     dE             d eps       ncg     rms          rms(c)
DAV:   1    -0.424741049747E+02   -0.90445E-02   -0.20222E-02  3464   0.109E+00    0.140E-01
RMM:   2    -0.424769419880E+02   -0.28370E-02   -0.72342E-03  1997   0.278E-01    0.119E-01
RMM:   3    -0.424808740523E+02   -0.39321E-02   -0.59798E-03  1824   0.147E-01    0.554E-02
RMM:   4    -0.424817814832E+02   -0.90743E-03   -0.23061E-03  1824   0.985E-02
   1970 T=   738. E= -.36092999E+02 F= -.42481781E+02 E0= -.42432678E+02  EK= 0.33396E+01 SP= 0.29E+01 SK= 0.13E+00 mag=     -0.070
       N       E                     dE             d eps       ncg     rms          rms(c)
DAV:   1    -0.424930418161E+02   -0.12168E-01   -0.26523E-02  3280   0.105E+00    0.168E-01
RMM:   2    -0.424967941477E+02   -0.37523E-02   -0.96855E-03  1877   0.288E-01    0.138E-01
RMM:   3    -0.425011086528E+02   -0.43145E-02   -0.58925E-03  1824   0.115E-01    0.874E-02
RMM:   4    -0.425032613542E+02   -0.21527E-02   -0.38685E-03  1824   0.100E-01    0.307E-02
RMM:   5    -0.425033879889E+02   -0.12663E-03   -0.44662E-04  1606   0.535E-02
   1971 T=   776. E= -.36092023E+02 F= -.42503388E+02 E0= -.42453986E+02  EK= 0.35104E+01 SP= 0.28E+01 SK= 0.14E+00 mag=      0.061
       N       E                     dE             d eps       ncg     rms          rms(c)
DAV:   1    -0.425303736776E+02   -0.27112E-01   -0.14311E-02  3136   0.107E+00    0.664E-02
RMM:   2    -0.425313038656E+02   -0.93019E-03   -0.50319E-03  1984   0.262E-01
   1972 T=   818. E= -.36087594E+02 F= -.42531304E+02 E0= -.42481715E+02  EK= 0.37015E+01 SP= 0.26E+01 SK= 0.14E+00 mag=      0.156
       N       E                     dE             d eps       ncg     rms          rms(c)
DAV:   1    -0.425633146296E+02   -0.32941E-01   -0.22345E-02  3856   0.116E+00    0.926E-02
RMM:   2    -0.425650210744E+02   -0.17064E-02   -0.59876E-03  1978   0.265E-01
   1973 T=   863. E= -.36084369E+02 F= -.42565021E+02 E0= -.42515163E+02  EK= 0.39037E+01 SP= 0.24E+01 SK= 0.13E+00 mag=      0.146
       N       E                     dE             d eps       ncg     rms          rms(c)
DAV:   1    -0.426048559559E+02   -0.41541E-01   -0.18431E-02  2944   0.113E+00    0.883E-02
RMM:   2    -0.426062462784E+02   -0.13903E-02   -0.61634E-03  2073   0.317E-01
   1974 T=   909. E= -.36083360E+02 F= -.42606246E+02 E0= -.42556046E+02  EK= 0.41122E+01 SP= 0.23E+01 SK= 0.12E+00 mag=      0.018
       N       E                     dE             d eps       ncg     rms          rms(c)
DAV:   1    -0.426507234012E+02   -0.45867E-01   -0.29759E-02  3976   0.123E+00    0.459E-02
RMM:   2    -0.426518845059E+02   -0.11611E-02   -0.65369E-03  2028   0.291E-01
   1975 T=   955. E= -.36080623E+02 F= -.42651885E+02 E0= -.42601604E+02  EK= 0.43213E+01 SP= 0.22E+01 SK= 0.94E-01 mag=     -0.170
       N       E                     dE             d eps       ncg     rms          rms(c)
DAV:   1    -0.426960308377E+02   -0.45307E-01   -0.19032E-02  3152   0.121E+00    0.771E-02
RMM:   2    -0.426976435478E+02   -0.16127E-02   -0.76212E-03  2073   0.326E-01
   1976 T=   999. E= -.36075414E+02 F= -.42697644E+02 E0= -.42647439E+02  EK= 0.45197E+01 SP= 0.20E+01 SK= 0.68E-01 mag=     -0.319
       N       E                     dE             d eps       ncg     rms          rms(c)
DAV:   1    -0.427409697585E+02   -0.44939E-01   -0.31084E-02  3816   0.129E+00    0.122E-01
RMM:   2    -0.427433980034E+02   -0.24282E-02   -0.75337E-03  2046   0.312E-01    0.101E-01
RMM:   3    -0.427458447738E+02   -0.24468E-02   -0.41915E-03  1831   0.138E-01    0.626E-02
RMM:   4    -0.427469553479E+02   -0.11106E-02   -0.25109E-03  1824   0.975E-02
   1977 T=  1038. E= -.36073449E+02 F= -.42746955E+02 E0= -.42696172E+02  EK= 0.46964E+01 SP= 0.19E+01 SK= 0.41E-01 mag=     -0.075
       N       E                     dE             d eps       ncg     rms          rms(c)
DAV:   1    -0.427859622903E+02   -0.40118E-01   -0.30148E-02  3384   0.124E+00    0.151E-01
RMM:   2    -0.427891828585E+02   -0.32206E-02   -0.85893E-03  1953   0.303E-01    0.123E-01
RMM:   3    -0.427923216091E+02   -0.31388E-02   -0.47912E-03  1824   0.128E-01    0.846E-02
RMM:   4    -0.427941601429E+02   -0.18385E-02   -0.33477E-03  1824   0.102E-01    0.339E-02
RMM:   5    -0.427943487218E+02   -0.18858E-03   -0.43608E-04  1575   0.544E-02
   1978 T=  1070. E= -.36072367E+02 F= -.42794349E+02 E0= -.42743459E+02  EK= 0.48396E+01 SP= 0.19E+01 SK= 0.18E-01 mag=      0.072
       N       E                     dE             d eps       ncg     rms          rms(c)
DAV:   1    -0.428377519935E+02   -0.43592E-01   -0.24753E-02  3352   0.127E+00    0.570E-02
RMM:   2    -0.428388626237E+02   -0.11106E-02   -0.55311E-03  2069   0.282E-01
   1979 T=  1093. E= -.36067118E+02 F= -.42838863E+02 E0= -.42787903E+02  EK= 0.49461E+01 SP= 0.18E+01 SK= 0.37E-02 mag=      0.091
       N       E                     dE             d eps       ncg     rms          rms(c)
DAV:   1    -0.428779219773E+02   -0.40170E-01   -0.30473E-02  4056   0.136E+00    0.746E-02
RMM:   2    -0.428794931857E+02   -0.15712E-02   -0.63726E-03  2095   0.290E-01
   1980 T=  1106. E= -.36064498E+02 F= -.42879493E+02 E0= -.42828437E+02  EK= 0.50020E+01 SP= 0.18E+01 SK= 0.33E-03 mag=     -0.004
       N       E                     dE             d eps       ncg     rms          rms(c)
DAV:   1    -0.429141471743E+02   -0.36225E-01   -0.18150E-02  3000   0.124E+00    0.803E-02
RMM:   2    -0.429159183606E+02   -0.17712E-02   -0.78127E-03  2130   0.340E-01
   1981 T=  1107. E= -.36061056E+02 F= -.42915918E+02 E0= -.42864891E+02  EK= 0.50077E+01 SP= 0.18E+01 SK= 0.98E-02 mag=     -0.139
       N       E                     dE             d eps       ncg     rms          rms(c)
DAV:   1    -0.429458857469E+02   -0.31739E-01   -0.44090E-02  3920   0.138E+00    0.540E-02
RMM:   2    -0.429472559525E+02   -0.13702E-02   -0.72514E-03  2091   0.327E-01
   1982 T=  1097. E= -.36054650E+02 F= -.42947256E+02 E0= -.42896417E+02  EK= 0.49642E+01 SP= 0.19E+01 SK= 0.32E-01 mag=     -0.242
       N       E                     dE             d eps       ncg     rms          rms(c)
DAV:   1    -0.429686681532E+02   -0.22782E-01   -0.28944E-02  3320   0.123E+00    0.683E-02
RMM:   2    -0.429704668478E+02   -0.17987E-02   -0.88785E-03  2125   0.342E-01
   1983 T=  1076. E= -.36047631E+02 F= -.42970467E+02 E0= -.42919744E+02  EK= 0.48695E+01 SP= 0.20E+01 SK= 0.65E-01 mag=     -0.232
       N       E                     dE             d eps       ncg     rms          rms(c)
DAV:   1    -0.429862561817E+02   -0.17588E-01   -0.32464E-02  3784   0.133E+00    0.945E-02
RMM:   2    -0.429881004422E+02   -0.18443E-02   -0.75935E-03  2101   0.327E-01    0.737E-02
RMM:   3    -0.429890417612E+02   -0.94132E-03   -0.21461E-03  1955   0.128E-01
   1984 T=  1046. E= -.36042099E+02 F= -.42989042E+02 E0= -.42938080E+02  EK= 0.47308E+01 SP= 0.21E+01 SK= 0.10E+00 mag=     -0.053
       N       E                     dE             d eps       ncg     rms          rms(c)
DAV:   1    -0.429985400413E+02   -0.10440E-01   -0.28073E-02  3424   0.123E+00    0.830E-02
RMM:   2    -0.430003427247E+02   -0.18027E-02   -0.57638E-03  1961   0.304E-01    0.692E-02
RMM:   3    -0.430008350034E+02   -0.49228E-03   -0.13976E-03  1637   0.107E-01
   1985 T=  1007. E= -.36035322E+02 F= -.43000835E+02 E0= -.42950093E+02  EK= 0.45567E+01 SP= 0.23E+01 SK= 0.15E+00 mag=      0.139
       N       E                     dE             d eps       ncg     rms          rms(c)
DAV:   1    -0.430045475709E+02   -0.42048E-02   -0.46856E-02  3704   0.129E+00    0.991E-02
RMM:   2    -0.430061042451E+02   -0.15567E-02   -0.69117E-03  2093   0.304E-01
   1986 T=   963. E= -.36025933E+02 F= -.43006104E+02 E0= -.42955524E+02  EK= 0.43581E+01 SP= 0.24E+01 SK= 0.19E+00 mag=      0.242
       N       E                     dE             d eps       ncg     rms          rms(c)
DAV:   1    -0.430059256001E+02   -0.13780E-02   -0.37368E-02  3696   0.122E+00    0.810E-02
RMM:   2    -0.430074020962E+02   -0.14765E-02   -0.66981E-03  2067   0.294E-01
   1987 T=   915. E= -.36021462E+02 F= -.43007402E+02 E0= -.42956747E+02  EK= 0.41392E+01 SP= 0.26E+01 SK= 0.22E+00 mag=      0.198
       N       E                     dE             d eps       ncg     rms          rms(c)
DAV:   1    -0.430038191859E+02    0.21064E-02   -0.24509E-02  3712   0.117E+00    0.409E-02
RMM:   2    -0.430049291785E+02   -0.11100E-02   -0.67027E-03  2057   0.317E-01
   1988 T=   865. E= -.36017427E+02 F= -.43004929E+02 E0= -.42954163E+02  EK= 0.39135E+01 SP= 0.28E+01 SK= 0.24E+00 mag=      0.011
       N       E                     dE             d eps       ncg     rms          rms(c)
DAV:   1    -0.429961065707E+02    0.77126E-02   -0.24606E-02  3416   0.118E+00    0.681E-02
RMM:   2    -0.429973901308E+02   -0.12836E-02   -0.61222E-03  2052   0.292E-01
   1989 T=   816. E= -.36009971E+02 F= -.42997390E+02 E0= -.42946906E+02  EK= 0.36912E+01 SP= 0.30E+01 SK= 0.25E+00 mag=     -0.227
       N       E                     dE             d eps       ncg     rms          rms(c)
DAV:   1    -0.429844377472E+02    0.11669E-01   -0.15878E-02  3464   0.109E+00    0.112E-01
RMM:   2    -0.429864310187E+02   -0.19933E-02   -0.66123E-03  2025   0.298E-01    0.936E-02
RMM:   3    -0.429882222752E+02   -0.17913E-02   -0.30309E-03  1826   0.121E-01
   1990 T=   768. E= -.36004836E+02 F= -.42988222E+02 E0= -.42937935E+02  EK= 0.34760E+01 SP= 0.33E+01 SK= 0.25E+00 mag=     -0.110
       N       E                     dE             d eps       ncg     rms          rms(c)
DAV:   1    -0.429744975095E+02    0.11934E-01   -0.33054E-02  3360   0.106E+00    0.114E-01
RMM:   2    -0.429770213342E+02   -0.25238E-02   -0.63728E-03  1953   0.291E-01    0.934E-02
RMM:   3    -0.429777349892E+02   -0.71365E-03   -0.13636E-03  1697   0.968E-02
   1991 T=   724. E= -.35999001E+02 F= -.42977735E+02 E0= -.42927335E+02  EK= 0.32755E+01 SP= 0.35E+01 SK= 0.24E+00 mag=      0.122
       N       E                     dE             d eps       ncg     rms          rms(c)
DAV:   1    -0.429647063146E+02    0.12315E-01   -0.71228E-02  3504   0.105E+00    0.120E-01
RMM:   2    -0.429666455773E+02   -0.19393E-02   -0.81590E-03  2019   0.304E-01    0.823E-02
RMM:   3    -0.429673957348E+02   -0.75016E-03   -0.18689E-03  1956   0.107E-01
   1992 T=   684. E= -.35994149E+02 F= -.42967396E+02 E0= -.42917290E+02  EK= 0.30928E+01 SP= 0.37E+01 SK= 0.21E+00 mag=      0.258
       N       E                     dE             d eps       ncg     rms          rms(c)
DAV:   1    -0.429571237387E+02    0.95218E-02   -0.41563E-02  3416   0.113E+00    0.862E-02
RMM:   2    -0.429581820022E+02   -0.10583E-02   -0.56708E-03  2025   0.277E-01
   1993 T=   648. E= -.35989242E+02 F= -.42958182E+02 E0= -.42907852E+02  EK= 0.29315E+01 SP= 0.39E+01 SK= 0.18E+00 mag=      0.222
       N       E                     dE             d eps       ncg     rms          rms(c)
DAV:   1    -0.429485065638E+02    0.86172E-02   -0.31417E-02  3704   0.995E-01    0.639E-02
RMM:   2    -0.429493655803E+02   -0.85902E-03   -0.51918E-03  2005   0.251E-01
   1994 T=   617. E= -.35984412E+02 F= -.42949366E+02 E0= -.42898906E+02  EK= 0.27918E+01 SP= 0.40E+01 SK= 0.15E+00 mag=      0.009
       N       E                     dE             d eps       ncg     rms          rms(c)
DAV:   1    -0.429398201100E+02    0.86865E-02   -0.12887E-02  3288   0.924E-01    0.968E-02
RMM:   2    -0.429413673846E+02   -0.15473E-02   -0.57883E-03  1999   0.260E-01
   1995 T=   591. E= -.35979321E+02 F= -.42941367E+02 E0= -.42891278E+02  EK= 0.26746E+01 SP= 0.42E+01 SK= 0.11E+00 mag=     -0.234
       N       E                     dE             d eps       ncg     rms          rms(c)
DAV:   1    -0.429373632827E+02    0.24568E-02   -0.18265E-02  3656   0.972E-01    0.895E-02
RMM:   2    -0.429384959112E+02   -0.11326E-02   -0.54161E-03  2012   0.267E-01
   1996 T=   571. E= -.35975147E+02 F= -.42938496E+02 E0= -.42888605E+02  EK= 0.25829E+01 SP= 0.43E+01 SK= 0.74E-01 mag=     -0.393
       N       E                     dE             d eps       ncg     rms          rms(c)
DAV:   1    -0.429368278487E+02    0.53543E-03   -0.14816E-02  3072   0.873E-01    0.794E-02
RMM:   2    -0.429379477063E+02   -0.11199E-02   -0.53881E-03  1995   0.266E-01
   1997 T=   556. E= -.35969955E+02 F= -.42937948E+02 E0= -.42887961E+02  EK= 0.25154E+01 SP= 0.44E+01 SK= 0.44E-01 mag=     -0.350
       N       E                     dE             d eps       ncg     rms          rms(c)
DAV:   1    -0.429385841312E+02   -0.17563E-02   -0.12151E-02  3096   0.906E-01    0.952E-02
RMM:   2    -0.429400214433E+02   -0.14373E-02   -0.53629E-03  2000   0.245E-01
   1998 T=   546. E= -.35963842E+02 F= -.42940021E+02 E0= -.42889704E+02  EK= 0.24719E+01 SP= 0.45E+01 SK= 0.21E-01 mag=     -0.077
       N       E                     dE             d eps       ncg     rms          rms(c)
DAV:   1    -0.429441352298E+02   -0.55511E-02   -0.11677E-02  3424   0.898E-01    0.109E-01
RMM:   2    -0.429458289186E+02   -0.16937E-02   -0.53300E-03  2026   0.266E-01
   1999 T=   542. E= -.35957734E+02 F= -.42945829E+02 E0= -.42895909E+02  EK= 0.24521E+01 SP= 0.45E+01 SK= 0.58E-02 mag=      0.228
       N       E                     dE             d eps       ncg     rms          rms(c)
DAV:   1    -0.429567678984E+02   -0.12633E-01   -0.20152E-02  3448   0.926E-01    0.947E-02
RMM:   2    -0.429581479943E+02   -0.13801E-02   -0.64600E-03  1977   0.279E-01
   2000 T=   543. E= -.35954107E+02 F= -.42958148E+02 E0= -.42908532E+02  EK= 0.24560E+01 SP= 0.45E+01 SK= 0.62E-04 mag=      0.432
