Na36
1.0
  11.1722875500000001    0.0000000300000000    0.0000000000000000
  -5.5861391999999981    9.7248895500000003    0.0000000000000000
   0.0000000000000000    0.0000000000000000   12.4925770600000003
Na
36
direct
   0.1092497966666667    0.2184992633333333    0.2500000000000000 Na
   0.1092497966666667    0.5518325966666666    0.2500000000000000 Na
   0.1092497966666667    0.8851659299999999    0.2500000000000000 Na
   0.4425831300000000    0.2184992633333333    0.2500000000000000 Na
   0.4425831300000000    0.5518325966666666    0.2500000000000000 Na
   0.4425831300000000    0.8851659300000000    0.2500000000000000 Na
   0.7759164633333333    0.2184992633333333    0.2500000000000000 Na
   0.7759164633333333    0.5518325966666666    0.2500000000000000 Na
   0.7759164633333334    0.8851659300000001    0.2500000000000000 Na
   0.2240835366666667    0.1148340700000000    0.7500000000000000 Na
   0.2240835366666667    0.4481674033333333    0.7500000000000000 Na
   0.2240835366666667    0.7815007366666666    0.7500000000000000 Na
   0.5574168700000000    0.1148340700000000    0.7500000000000000 Na
   0.5574168700000000    0.4481674033333333    0.7500000000000000 Na
   0.5574168700000001    0.7815007366666666    0.7500000000000000 Na
   0.8907502033333333    0.1148340700000000    0.7500000000000000 Na
   0.8907502033333332    0.4481674033333333    0.7500000000000000 Na
   0.8907502033333333    0.7815007366666666    0.7500000000000000 Na
   0.0000000000000000    0.0000000000000000    0.5000000000000000 Na
   0.0000000000000000    0.3333333333333333    0.5000000000000000 Na
   0.0000000000000001    0.6666666666666666    0.5000000000000000 Na
   0.3333333333333333    0.0000000000000000    0.5000000000000000 Na
   0.3333333333333333    0.3333333333333333    0.5000000000000000 Na
   0.3333333333333334    0.6666666666666666    0.5000000000000000 Na
   0.6666666666666666    0.0000000000000000    0.5000000000000000 Na
   0.6666666666666666    0.3333333333333334    0.5000000000000000 Na
   0.6666666666666666    0.6666666666666666    0.5000000000000000 Na
   0.0000000000000000    0.0000000000000000    0.0000000000000000 Na
   0.0000000000000000    0.3333333333333333    0.0000000000000000 Na
   0.0000000000000001    0.6666666666666666    0.0000000000000000 Na
   0.3333333333333333    0.0000000000000000    0.0000000000000000 Na
   0.3333333333333333    0.3333333333333333    0.0000000000000000 Na
   0.3333333333333334    0.6666666666666666    0.0000000000000000 Na
   0.6666666666666666    0.0000000000000000    0.0000000000000000 Na
   0.6666666666666666    0.3333333333333334    0.0000000000000000 Na
   0.6666666666666666    0.6666666666666666    0.0000000000000000 Na
