Li27 Ga81
1.0
  12.2146439999999998    0.0000000000000000    0.0000000000000007
  -0.0000000000000007   12.2146439999999998    0.0000000000000007
   0.0000000000000000    0.0000000000000000   12.2146439999999998
Li Ga
27 81
direct
   0.0000000000000000    0.0000000000000000    0.0000000000000000 Li
   0.0000000000000000    0.0000000000000000    0.3333333333333333 Li
   0.0000000000000000    0.0000000000000000    0.6666666666666666 Li
   0.0000000000000000    0.3333333333333333    0.0000000000000000 Li
   0.0000000000000000    0.3333333333333333    0.3333333333333333 Li
   0.0000000000000000    0.3333333333333333    0.6666666666666666 Li
   0.0000000000000000    0.6666666666666666    0.0000000000000000 Li
   0.0000000000000000    0.6666666666666666    0.3333333333333333 Li
   0.0000000000000000    0.6666666666666666    0.6666666666666666 Li
   0.3333333333333333    0.0000000000000000    0.0000000000000000 Li
   0.3333333333333333    0.0000000000000000    0.3333333333333333 Li
   0.3333333333333333    0.0000000000000000    0.6666666666666666 Li
   0.3333333333333333    0.3333333333333333    0.0000000000000000 Li
   0.3333333333333333    0.3333333333333333    0.3333333333333333 Li
   0.3333333333333333    0.3333333333333333    0.6666666666666666 Li
   0.3333333333333333    0.6666666666666666    0.0000000000000000 Li
   0.3333333333333333    0.6666666666666666    0.3333333333333333 Li
   0.3333333333333333    0.6666666666666666    0.6666666666666665 Li
   0.6666666666666666    0.0000000000000000    0.0000000000000000 Li
   0.6666666666666666    0.0000000000000000    0.3333333333333333 Li
   0.6666666666666666    0.0000000000000000    0.6666666666666666 Li
   0.6666666666666666    0.3333333333333333    0.0000000000000000 Li
   0.6666666666666666    0.3333333333333333    0.3333333333333333 Li
   0.6666666666666666    0.3333333333333333    0.6666666666666665 Li
   0.6666666666666666    0.6666666666666666    0.0000000000000000 Li
   0.6666666666666666    0.6666666666666666    0.3333333333333333 Li
   0.6666666666666666    0.6666666666666666    0.6666666666666665 Li
   0.1666666666666667    0.0000000000000000    0.1666666666666667 Ga
   0.1666666666666667    0.0000000000000000    0.4999999999999999 Ga
   0.1666666666666667    0.0000000000000000    0.8333333333333333 Ga
   0.1666666666666667    0.3333333333333333    0.1666666666666667 Ga
   0.1666666666666667    0.3333333333333333    0.4999999999999999 Ga
   0.1666666666666667    0.3333333333333333    0.8333333333333333 Ga
   0.1666666666666667    0.6666666666666666    0.1666666666666667 Ga
   0.1666666666666667    0.6666666666666666    0.4999999999999999 Ga
   0.1666666666666667    0.6666666666666666    0.8333333333333333 Ga
   0.5000000000000000    0.0000000000000000    0.1666666666666667 Ga
   0.5000000000000000    0.0000000000000000    0.4999999999999999 Ga
   0.5000000000000000    0.0000000000000000    0.8333333333333333 Ga
   0.5000000000000000    0.3333333333333333    0.1666666666666667 Ga
   0.5000000000000000    0.3333333333333333    0.4999999999999999 Ga
   0.5000000000000000    0.3333333333333333    0.8333333333333333 Ga
   0.4999999999999999    0.6666666666666666    0.1666666666666667 Ga
   0.4999999999999999    0.6666666666666666    0.5000000000000000 Ga
   0.4999999999999999    0.6666666666666666    0.8333333333333333 Ga
   0.8333333333333333    0.0000000000000000    0.1666666666666667 Ga
   0.8333333333333333    0.0000000000000000    0.4999999999999999 Ga
   0.8333333333333333    0.0000000000000000    0.8333333333333333 Ga
   0.8333333333333333    0.3333333333333333    0.1666666666666667 Ga
   0.8333333333333333    0.3333333333333333    0.5000000000000000 Ga
   0.8333333333333333    0.3333333333333333    0.8333333333333333 Ga
   0.8333333333333333    0.6666666666666666    0.1666666666666666 Ga
   0.8333333333333333    0.6666666666666666    0.4999999999999999 Ga
   0.8333333333333333    0.6666666666666666    0.8333333333333331 Ga
   0.0000000000000000    0.1666666666666667    0.1666666666666667 Ga
   0.0000000000000000    0.1666666666666667    0.4999999999999999 Ga
   0.0000000000000000    0.1666666666666667    0.8333333333333333 Ga
   0.0000000000000000    0.5000000000000000    0.1666666666666667 Ga
   0.0000000000000000    0.5000000000000000    0.4999999999999999 Ga
   0.0000000000000000    0.5000000000000000    0.8333333333333333 Ga
   0.0000000000000000    0.8333333333333333    0.1666666666666667 Ga
   0.0000000000000000    0.8333333333333333    0.4999999999999999 Ga
   0.0000000000000000    0.8333333333333333    0.8333333333333333 Ga
   0.3333333333333333    0.1666666666666667    0.1666666666666667 Ga
   0.3333333333333333    0.1666666666666667    0.4999999999999999 Ga
   0.3333333333333333    0.1666666666666667    0.8333333333333333 Ga
   0.3333333333333334    0.5000000000000000    0.1666666666666667 Ga
   0.3333333333333334    0.5000000000000000    0.4999999999999999 Ga
   0.3333333333333334    0.5000000000000000    0.8333333333333333 Ga
   0.3333333333333333    0.8333333333333333    0.1666666666666667 Ga
   0.3333333333333333    0.8333333333333333    0.5000000000000000 Ga
   0.3333333333333333    0.8333333333333333    0.8333333333333333 Ga
   0.6666666666666666    0.1666666666666667    0.1666666666666667 Ga
   0.6666666666666666    0.1666666666666667    0.4999999999999999 Ga
   0.6666666666666666    0.1666666666666667    0.8333333333333333 Ga
   0.6666666666666666    0.5000000000000000    0.1666666666666667 Ga
   0.6666666666666666    0.5000000000000000    0.5000000000000000 Ga
   0.6666666666666666    0.5000000000000000    0.8333333333333333 Ga
   0.6666666666666666    0.8333333333333333    0.1666666666666666 Ga
   0.6666666666666666    0.8333333333333333    0.4999999999999999 Ga
   0.6666666666666666    0.8333333333333333    0.8333333333333331 Ga
   0.1666666666666667    0.1666666666666667    0.0000000000000000 Ga
   0.1666666666666667    0.1666666666666667    0.3333333333333333 Ga
   0.1666666666666667    0.1666666666666667    0.6666666666666666 Ga
   0.1666666666666667    0.5000000000000000    0.0000000000000000 Ga
   0.1666666666666667    0.5000000000000000    0.3333333333333333 Ga
   0.1666666666666667    0.5000000000000000    0.6666666666666666 Ga
   0.1666666666666667    0.8333333333333333    0.0000000000000000 Ga
   0.1666666666666667    0.8333333333333333    0.3333333333333333 Ga
   0.1666666666666667    0.8333333333333333    0.6666666666666665 Ga
   0.5000000000000000    0.1666666666666667    0.0000000000000000 Ga
   0.5000000000000000    0.1666666666666667    0.3333333333333333 Ga
   0.5000000000000000    0.1666666666666667    0.6666666666666666 Ga
   0.5000000000000000    0.5000000000000000    0.0000000000000000 Ga
   0.5000000000000000    0.5000000000000000    0.3333333333333333 Ga
   0.5000000000000000    0.5000000000000000    0.6666666666666665 Ga
   0.4999999999999999    0.8333333333333333    0.0000000000000000 Ga
   0.4999999999999999    0.8333333333333333    0.3333333333333333 Ga
   0.4999999999999999    0.8333333333333333    0.6666666666666665 Ga
   0.8333333333333333    0.1666666666666667    0.0000000000000000 Ga
   0.8333333333333333    0.1666666666666667    0.3333333333333333 Ga
   0.8333333333333333    0.1666666666666667    0.6666666666666665 Ga
   0.8333333333333333    0.5000000000000000    0.0000000000000000 Ga
   0.8333333333333333    0.5000000000000000    0.3333333333333333 Ga
   0.8333333333333333    0.5000000000000000    0.6666666666666665 Ga
   0.8333333333333333    0.8333333333333333    0.0000000000000000 Ga
   0.8333333333333333    0.8333333333333333    0.3333333333333333 Ga
   0.8333333333333333    0.8333333333333333    0.6666666666666665 Ga
