Li96
1.0
  12.0638338696015772    0.0000000000000000    2.4729897915611940
   5.7784425703705384   10.5898780086587365    2.4729878907314666
   0.0000000000000000    0.0000000000000000   15.3308155799999994
Li
96
direct
   0.1942569800000000    0.1942569800000000    0.3344576249999999 Li
   0.1942569800000000    0.1942569800000000    0.8344576250000000 Li
   0.1942569799999999    0.4442569800000000    0.3344576250000000 Li
   0.1942569799999999    0.4442569800000000    0.8344576250000000 Li
   0.1942569800000000    0.6942569800000000    0.3344576250000000 Li
   0.1942569800000000    0.6942569800000000    0.8344576250000000 Li
   0.1942569800000000    0.9442569800000000    0.3344576250000000 Li
   0.1942569800000000    0.9442569800000000    0.8344576250000000 Li
   0.4442569800000000    0.1942569800000000    0.3344576249999999 Li
   0.4442569800000000    0.1942569800000000    0.8344576250000000 Li
   0.4442569800000000    0.4442569800000000    0.3344576250000000 Li
   0.4442569800000000    0.4442569800000000    0.8344576250000000 Li
   0.4442569800000000    0.6942569800000000    0.3344576250000000 Li
   0.4442569800000000    0.6942569800000000    0.8344576249999999 Li
   0.4442569800000000    0.9442569800000000    0.3344576250000000 Li
   0.4442569800000000    0.9442569800000000    0.8344576250000000 Li
   0.6942569800000000    0.1942569800000000    0.3344576249999999 Li
   0.6942569800000000    0.1942569800000000    0.8344576250000000 Li
   0.6942569799999999    0.4442569800000000    0.3344576249999999 Li
   0.6942569799999999    0.4442569800000000    0.8344576250000000 Li
   0.6942569800000001    0.6942569800000000    0.3344576249999999 Li
   0.6942569800000001    0.6942569800000000    0.8344576250000001 Li
   0.6942569800000000    0.9442569800000000    0.3344576250000000 Li
   0.6942569800000000    0.9442569800000000    0.8344576250000000 Li
   0.9442569800000000    0.1942569800000000    0.3344576250000000 Li
   0.9442569800000000    0.1942569800000000    0.8344576250000000 Li
   0.9442569799999998    0.4442569800000000    0.3344576250000000 Li
   0.9442569799999998    0.4442569800000000    0.8344576249999999 Li
   0.9442569799999999    0.6942569800000000    0.3344576250000000 Li
   0.9442569799999999    0.6942569800000000    0.8344576250000000 Li
   0.9442569799999998    0.9442569800000000    0.3344576250000000 Li
   0.9442569799999998    0.9442569800000000    0.8344576250000000 Li
   0.0557430200000000    0.0557430200000000    0.1655423750000000 Li
   0.0557430200000000    0.0557430200000000    0.6655423750000000 Li
   0.0557430200000001    0.3057430200000000    0.1655423750000000 Li
   0.0557430200000001    0.3057430200000000    0.6655423750000000 Li
   0.0557430200000000    0.5557430200000000    0.1655423750000000 Li
   0.0557430200000000    0.5557430200000000    0.6655423750000000 Li
   0.0557430200000001    0.8057430200000000    0.1655423750000000 Li
   0.0557430200000001    0.8057430200000000    0.6655423750000000 Li
   0.3057430200000000    0.0557430200000000    0.1655423750000000 Li
   0.3057430200000000    0.0557430200000000    0.6655423750000000 Li
   0.3057430200000001    0.3057430200000000    0.1655423750000000 Li
   0.3057430200000001    0.3057430200000000    0.6655423750000000 Li
   0.3057430200000000    0.5557430200000000    0.1655423750000000 Li
   0.3057430200000000    0.5557430200000000    0.6655423749999999 Li
   0.3057430200000001    0.8057430200000000    0.1655423750000000 Li
   0.3057430200000001    0.8057430200000000    0.6655423750000000 Li
   0.5557430200000000    0.0557430200000000    0.1655423750000000 Li
   0.5557430200000000    0.0557430200000000    0.6655423750000000 Li
   0.5557430200000000    0.3057430200000000    0.1655423750000000 Li
   0.5557430200000000    0.3057430200000000    0.6655423750000000 Li
   0.5557430200000002    0.5557430200000000    0.1655423750000000 Li
   0.5557430200000002    0.5557430200000000    0.6655423749999999 Li
   0.5557430200000002    0.8057430200000000    0.1655423750000000 Li
   0.5557430200000002    0.8057430200000000    0.6655423750000000 Li
   0.8057430200000000    0.0557430200000000    0.1655423750000000 Li
   0.8057430200000000    0.0557430200000000    0.6655423750000000 Li
   0.8057430200000000    0.3057430200000000    0.1655423750000000 Li
   0.8057430200000000    0.3057430200000000    0.6655423750000000 Li
   0.8057430199999999    0.5557430200000000    0.1655423750000000 Li
   0.8057430199999999    0.5557430200000000    0.6655423750000000 Li
   0.8057430200000000    0.8057430200000000    0.1655423750000000 Li
   0.8057430200000000    0.8057430200000000    0.6655423749999999 Li
   0.0000000000000000    0.0000000000000000    0.0000000000000000 Li
   0.0000000000000000    0.0000000000000000    0.5000000000000000 Li
   0.0000000000000000    0.2500000000000000    0.0000000000000000 Li
   0.0000000000000000    0.2500000000000000    0.5000000000000000 Li
   0.0000000000000000    0.5000000000000000    0.0000000000000000 Li
   0.0000000000000000    0.5000000000000000    0.5000000000000000 Li
   0.0000000000000001    0.7500000000000000    0.0000000000000000 Li
   0.0000000000000001    0.7500000000000000    0.5000000000000000 Li
   0.2500000000000000    0.0000000000000000    0.0000000000000000 Li
   0.2500000000000000    0.0000000000000000    0.5000000000000000 Li
   0.2500000000000001    0.2500000000000000    0.0000000000000000 Li
   0.2500000000000001    0.2500000000000000    0.5000000000000001 Li
   0.2500000000000000    0.5000000000000000    0.0000000000000000 Li
   0.2500000000000000    0.5000000000000000    0.4999999999999999 Li
   0.2499999999999999    0.7500000000000000    0.0000000000000000 Li
   0.2499999999999999    0.7500000000000000    0.5000000000000001 Li
   0.5000000000000000    0.0000000000000000    0.0000000000000000 Li
   0.5000000000000000    0.0000000000000000    0.5000000000000000 Li
   0.5000000000000000    0.2500000000000000    0.0000000000000000 Li
   0.5000000000000000    0.2500000000000000    0.5000000000000000 Li
   0.5000000000000001    0.5000000000000000    0.0000000000000000 Li
   0.5000000000000001    0.5000000000000000    0.5000000000000000 Li
   0.5000000000000000    0.7500000000000000    0.0000000000000000 Li
   0.5000000000000000    0.7500000000000000    0.5000000000000000 Li
   0.7499999999999999    0.0000000000000000    0.0000000000000000 Li
   0.7499999999999999    0.0000000000000000    0.5000000000000000 Li
   0.7499999999999999    0.2500000000000000    0.0000000000000000 Li
   0.7499999999999999    0.2500000000000000    0.5000000000000001 Li
   0.7499999999999999    0.5000000000000000    0.0000000000000000 Li
   0.7499999999999999    0.5000000000000000    0.5000000000000001 Li
   0.7500000000000000    0.7500000000000000    0.0000000000000000 Li
   0.7500000000000000    0.7500000000000000    0.4999999999999999 Li
