Na88 Sb16 S64                           
   1.00000000000000     
    11.7036554800000001    0.0000000000000000   -4.1378687999999988
   -11.7036534400000036   20.2713275199999963   -8.2757375999999958
     0.0000000000000000    0.0000000000000000  106.4446385317966417
   Na   Sb   S 
    88    16    64
Direct
  0.5502710800782019  0.1958217849319813  0.1219240419583828
  0.4811369051522890  0.3994442376760583  0.0776492517092833
  0.2835632501339023  0.7373482809276852  0.1275421462549637
  0.4151923305361181  0.8324692776718339  0.1112714583855578
  0.4220320779019554  0.9895362139132415  0.0574064656021107
  0.7095169857027487  0.2200354960520580  0.0817836859579380
  0.7802541311368529  0.4715619743851625  0.0799728954647727
  0.8805938794433837  0.7490886436401167  0.0540523948918609
  0.9740634810997383  0.9840560600059299  0.1202443509271064
  0.6375892181566155  0.1172833970988027  0.0976743216863554
  0.7489880968139164  0.6158493677716105  0.1479508217495250
  0.2579438329529214  0.9359477252280393  0.1191533931213844
  0.7886097515187959  0.2234440942319922  0.1648294187857418
  0.1316493712425051  0.2853731017793564  0.1034741262552234
  0.2663142480932882  0.5048863614530293  0.1033454525582964
  0.5967627999264741  0.9732567033218287  0.1867296941622004
  0.2976127755131698  0.9726373381570601  0.0956852212818411
  0.0459864786641796  0.1514126856539518  0.1229580372530294
  0.0681775644933247  0.4560765935624854  0.1174799674264843
  0.2266826700972946  0.9183495607420750  0.1588197179614113
  0.8940690362224332  0.0274822548636603  0.1492213063752495
  0.8650353586312198  0.3435449902375379  0.1569385815667212
  0.6576993519957354  0.3577853309031178  0.1069733751726442
  0.6667837853301520  0.6368489915211585  0.1150144055030518
  0.3084401862077708  0.0850981435301349  0.1649191349462923
  0.9017289992022967  0.2559806254666497  0.1242637316862130
  0.0353236508985387  0.6471684760606483  0.1476578967319064
  0.1089537113152806  0.9939935440596274  0.1712284592846173
  0.6929930326619952  0.0805729919382097  0.1696906401309567
  0.5536109118786056  0.3774306261311074  0.1305195244670307
  0.5384877474804628  0.7147512520126327  0.1492735319647604
  0.7523918378471284  0.8137469866509239  0.1246026345415232
  0.0652024399191223  0.2580799235309663  0.1933073559285929
  0.8434465343030385  0.4168483383298544  0.1891575161200026
  0.1211766082229228  0.7030817275671921  0.1920632877495123
  0.9915456477460481  0.9534337958961183  0.2140725141454846
  0.4627214210526662  0.2863086019813518  0.2035237159857930
  0.2862321488293334  0.3379215199037206  0.1778604452740901
  0.3003950655517769  0.6352846111720406  0.1630737179084718
  0.5458745115490488  0.8602418633030706  0.2073147781784524
  0.3205362949356440  0.0349019469070605  0.2056685824742540
  0.1820351968496504  0.4102560429540127  0.2037413026662359
  0.2469208571884069  0.4121519880776014  0.1551635296151364
  0.3184449741160829  0.6151482674568483  0.1930167012628208
  0.8836572845054438  0.1241671427356837  0.2170454821799900
  0.7489889319895651  0.2840905058957438  0.1997605221586134
  0.6502290235513287  0.4885166212395708  0.1799431170626785
  0.7873104917075343  0.8765410291857223  0.1726587197099421
  0.5040654353417655  0.7920270336799490  0.2311378639867778
  0.6041417492332748  0.5654214162261698  0.3534090078246571
  0.7069251851771758  0.1413950321321298  0.6592003539407116
  0.7652644688216834  0.7337203633898887  0.8947826637007451
  0.6594589883008516  0.6898467609380592  0.9194379583095442
  0.5523302449718102  0.4588429379982800  0.2133077733889079
  0.3971858430742306  0.3868304008022812  0.3952105109762157
  0.1344734042397633  0.4457791930234896  0.6889326956080394
  0.4510151620465788  0.8495318795290041  0.9524677371475772
  0.3596237381869260  0.8312958595297147  0.0764720786599383
  0.5516663601488350  0.5880130546466650  0.1818094047573880
  0.5699604602152899  0.6869261315280643  0.3635811652496257
  0.7645691138452633  0.3160169376972052  0.6886528571839204
  0.1415052904843024  0.8145883968271108  0.9329935532655869
  0.5610807129383761  0.6876939275772381  0.9444813856183963
  0.2735160482958849  0.9577116562066862  0.2398112386074798
  0.9853370281747811  0.2469809728120430  0.3503296496357375
  0.2048435149046821  0.4154190439965160  0.6638530143533709
  0.7253217214639883  0.9902870333814834  0.9592354679944410
  0.0635415685895915  0.4443241790017649  0.0587183740238665
  0.2670550986321559  0.8722888843428065  0.2021117081021954
  0.0180460594396011  0.1462710359719488  0.4913537147850219
  0.8127910369657325  0.2681602169377383  0.6564505874932456
  0.2979279045719111  0.8103874328957603  0.9142005451090961
  0.9640372484682415  0.8559509441181707  0.0954663825486072
  0.5173213312085951  0.0060151973048367  0.2246603216505755
  0.1799306853029082  0.2732388661277955  0.3902224687526445
  0.4405336115182799  0.5842826247819718  0.6853606676313292
  0.0423263068540737  0.6674998049714999  0.8843284770785580
  0.5958491241296655  0.6720660931476538  0.0667601724548201
  0.7048400323383607  0.7767535755006248  0.2050707794493668
  0.9053491254185070  0.2049196342509848  0.4738266375291665
  0.6357803118930598  0.4135028384110522  0.6856721870902670
  0.7039451875075803  0.8562392630998490  0.9181718073298051
  0.6867221352830496  0.8983048265084591  0.0765954429303174
  0.3978217132637045  0.1664894073908994  0.2331516505841000
  0.7918557752500676  0.0944661862671906  0.3379718660109043
  0.5027437136479630  0.4696016435986798  0.6648801405234883
  0.2934291821210844  0.6752205555851106  0.9237019521783419
  0.8529554962932431  0.7048433603944220  0.1007306043065211
  0.9914044694291032  0.9581870645482873  0.0776265917247103
  0.8834893096228910  0.1040769505004503  0.0763661369499174
  0.9263895175569725  0.3718808729049419  0.0725529491647979
  0.0467304230091328  0.7113604042224693  0.0811163813866644
  0.6524038410191881  0.9688133877108136  0.1119715896854575
  0.4430260409728838  0.1957897189422541  0.0872273011363082
  0.4339855568248565  0.5170971358089114  0.0668546641295416
  0.4032866298338343  0.6697084247233434  0.0873844584674279
  0.9993724758373618  0.0360183819273529  0.1916464582282747
  0.0088391835852705  0.2014927627685346  0.1520786339558980
  0.8970557685140121  0.4903002754704248  0.1498383144575110
  0.9719557281351473  0.7814345193564304  0.1517672526253240
  0.5593504217634283  0.1196409255617699  0.2034769355735119
  0.4563941292102558  0.2525860856195261  0.1642620214562624
  0.4540405771853290  0.5118553950837840  0.1451593831670255
  0.3727270303558575  0.7929717963799517  0.1646450560680253
  0.0615319746032188  0.9557926943512277  0.1431868294692577
  0.7821324999299663  0.1752936709588802  0.1327604432633769
  0.7892722215670717  0.5019359765497203  0.1287869826324343
  0.7410472675606246  0.7446088975595718  0.1432186904723986
  0.5008108067560740  0.0531461565946261  0.1771735987709047
  0.5924159808448758  0.2537733204525686  0.1515598376137492
  0.4573163073756940  0.5445634033360425  0.1270358734946989
  0.5861566162292891  0.7888172655014155  0.1776542540920412
  0.1084979848870850  0.9666783172475356  0.1022762995846259
  0.9447204459415741  0.1908226521849722  0.1006475441197023
  0.0447450085141100  0.4948415888471757  0.0866859868481568
  0.0880520269938786  0.7340300680081762  0.0621671458986174
  0.4881718112793303  0.9513748801840748  0.1198377049365363
  0.6798525856158454  0.2586197653086484  0.1083901386491914
  0.6440368192593070  0.5334415811373940  0.0858590299425591
  0.6433888782201935  0.7188836082608385  0.0955604546515777
  0.5024298720692735  0.9720786993631485  0.0906308717504732
  0.3771865195735208  0.2698389469754851  0.1001303964308107
  0.2709320883861863  0.4067233709126039  0.0576956022427929
  0.4390731302139619  0.7315413283747114  0.1122211946362085
  0.7993303993860545  0.8488739440688597  0.0621405451659631
  0.6760148498434997  0.1009917862712592  0.0630283429592231
  0.6797117909422458  0.3299647280160564  0.0616519413891565
  0.8176308955268238  0.6843867950825386  0.0729097550994678
  0.8643750867965444  0.0118077962847645  0.0838352781392885
  0.9629447267342148  0.3543196209147644  0.0931691265709797
  0.1674728133920659  0.8058574730425080  0.1043383187812670
  0.4870716458233170  0.9165439331768568  0.0703301329179022
  0.3914519884905305  0.1017721049440252  0.0924489052762332
  0.6534802039013935  0.3387026807132342  0.0795893943152797
  0.3265331781978025  0.5507854669384249  0.0821270635988028
  0.6610455128831260  0.8658890718604175  0.1012415586575736
  0.9331010238418451  0.8941307573459002  0.2321914162192214
  0.9259566172339776  0.3388133337243679  0.1874670892981888
  0.7040529935684954  0.3885442911831888  0.2066241782665487
  0.3745844982849246  0.0494217964156104  0.2369432840407267
  0.2685948758662854  0.8461547958859496  0.2258133759060029
  0.3252924407115372  0.3454383770820910  0.2036883481055816
  0.6102919822235262  0.5533572304614138  0.2061502430648772
  0.4819124367780479  0.7440772481411440  0.2051962060496577
  0.0200611847410330  0.0670856185749671  0.2192990157295081
  0.4081776489882749  0.4869262370206608  0.1877137274305647
  0.0837572440751727  0.6008356936260429  0.1701354036042873
  0.4691722089966716  0.9135194191957633  0.2364986388098679
  0.7811316420765908  0.2074115070607498  0.2122806710749023
  0.5788151115435762  0.3803489242459042  0.1869083660519063
  0.6797433226651114  0.5697929214721282  0.1654970924368521
  0.9447515885675692  0.8101110240241960  0.2278798473578210
  0.3541072654011690  0.1416823219520507  0.1970815979765392
  0.1375294972385482  0.2756473235277862  0.1450955900639166
  0.3110866331395557  0.5298587926399588  0.1541554329467567
  0.4209370305316715  0.8684262885692257  0.1550812204147241
  0.7655590251889005  0.9754756996633646  0.1730244289221006
  0.8839431383282845  0.1343624439865136  0.1659363439846484
  0.7957898486800634  0.4468090813743701  0.1626211955491330
  0.0369744237348497  0.7496095435634028  0.1731157748532656
  0.0544793094412229  0.1101944630965054  0.1424774388127970
  0.9942067434961531  0.4246790335383687  0.1426363231756326
  0.9144857646999992  0.6909457292750320  0.1262760108431957
  0.0753736223518498  0.9457487559561131  0.1911958695647554
  0.4935665657383524  0.2062087360561851  0.1795838269105570
  0.3687951284522443  0.3992837609613305  0.1353355995689209
  0.2740369207359877  0.6844439256904324  0.1415592971085634
  0.3817051350232004  0.9308313474805389  0.1902724303302938
 
 -0.70907465E-03  0.50152218E-02  0.82577573E-03
 -0.60189363E-03 -0.12477560E-01 -0.23156457E-02
 -0.12708358E-01  0.33039064E-02 -0.13580355E-01
 -0.18163292E-02 -0.90089098E-03  0.60274263E-02
  0.60251739E-02  0.42113438E-02 -0.10708881E-02
  0.19015669E-02 -0.10450294E-01 -0.62406531E-02
 -0.56223818E-02  0.30825796E-03 -0.70130205E-02
 -0.10258672E-01  0.44799591E-02 -0.62959020E-02
 -0.44652740E-02  0.45995366E-02 -0.42765711E-02
 -0.39739741E-02 -0.81298676E-04  0.28433092E-02
  0.75211326E-02  0.12321570E-02  0.54822286E-02
  0.13793802E-02  0.17471423E-02 -0.17521731E-02
  0.74897458E-02 -0.30758809E-02  0.10486597E-01
  0.55365453E-02 -0.47776001E-03 -0.73982921E-03
 -0.30813563E-02 -0.13770359E-01  0.43156118E-02
 -0.76138319E-02  0.66521273E-03  0.56577256E-02
  0.57558893E-02  0.63416892E-02 -0.75819083E-02
 -0.21186559E-02  0.35643475E-02  0.34246089E-02
  0.33553351E-02 -0.48097920E-02 -0.33793561E-02
  0.47154211E-02  0.21717710E-02  0.20502170E-02
 -0.44254459E-02  0.14196082E-02 -0.69733545E-02
  0.36199462E-02  0.80604069E-02 -0.90743837E-02
  0.45382068E-02 -0.68345177E-02 -0.61479024E-02
  0.11384501E-01  0.17444226E-02  0.91595315E-03
 -0.11063991E-01  0.17857143E-02 -0.29544235E-02
  0.26525813E-02 -0.24239727E-02  0.38345048E-02
  0.14745043E-02 -0.79420307E-02  0.29002292E-02
  0.44662025E-02 -0.23067244E-02  0.89075031E-03
  0.14284844E-03 -0.92571253E-02 -0.49906647E-02
 -0.88821069E-03 -0.32635903E-03  0.22018466E-02
  0.82031691E-03  0.26458481E-02 -0.96192393E-04
  0.49259085E-02 -0.23375718E-02 -0.38186086E-03
  0.41403186E-03  0.43567560E-02  0.24379052E-02
 -0.32305617E-02 -0.10795546E-02  0.24482048E-02
 -0.10656227E-01 -0.61755945E-02 -0.32487871E-02
  0.26572090E-02 -0.16260262E-01  0.15391637E-01
  0.10991032E-01 -0.97279049E-02 -0.38338191E-02
  0.15003509E-01  0.57811051E-02 -0.23166372E-02
 -0.10079813E-02  0.10938131E-01  0.14593380E-02
 -0.23126299E-02 -0.82121060E-02  0.79979540E-02
 -0.11387298E-02  0.10431623E-02  0.35390294E-02
 -0.59271836E-02 -0.87873635E-02 -0.36417527E-02
  0.67602217E-02  0.18384985E-02 -0.60503884E-02
 -0.15480305E-01  0.11393349E-01  0.15925606E-02
 -0.13503904E-02 -0.13447224E-02  0.18099836E-02
  0.28650870E-02  0.76756929E-02 -0.78965480E-02
 -0.62193247E-02 -0.34643293E-02  0.50068085E-02
  0.10824450E-01  0.43874785E-02  0.79670974E-02
 -0.21441209E-02  0.91331183E-02  0.16175079E-02
 -0.36626905E-02  0.12830749E-02  0.15114223E-02
 -0.83855387E-04  0.26282293E-02 -0.14474759E-02
 -0.24937876E-02  0.11591005E-01  0.44219277E-02
  0.79006655E-03  0.25887525E-02  0.65320749E-02
 -0.32071212E-02 -0.17606145E-02  0.16160516E-02
 -0.42475343E-02 -0.27905484E-02 -0.37807402E-02
  0.18785470E-02  0.55276321E-02 -0.69934855E-02
 -0.15470310E-02  0.61028642E-02 -0.16547004E-02
 -0.23172707E-02  0.11314583E-03  0.69520206E-02
 -0.12857193E-02 -0.27460765E-02  0.48419447E-02
  0.48576459E-03 -0.42318675E-02 -0.46449291E-03
 -0.22790544E-02 -0.10166689E-02 -0.64688997E-02
  0.59358376E-02  0.38544848E-02  0.60585366E-02
  0.35228363E-03  0.45536737E-03 -0.10863013E-02
  0.10698580E-01 -0.56724812E-02  0.25363221E-02
  0.30002629E-02 -0.42042570E-03 -0.15784116E-02
  0.28683301E-02  0.44136042E-02 -0.40030825E-02
  0.45309088E-02 -0.68699557E-02 -0.62092027E-02
 -0.54909539E-02 -0.50958218E-02 -0.77678341E-02
 -0.64703869E-04  0.96606531E-02  0.23885832E-02
 -0.22054348E-02  0.24331234E-02 -0.13128760E-02
 -0.17757567E-02 -0.26993057E-02  0.10447443E-01
 -0.80324264E-02 -0.10402723E-01 -0.31382501E-02
  0.47852122E-03 -0.10845330E-01 -0.21874827E-02
  0.27841234E-02  0.11659258E-01 -0.39582013E-02
  0.22988425E-03  0.41489854E-02 -0.21702446E-02
  0.43826281E-02 -0.39486433E-02 -0.18899809E-02
  0.19643100E-02  0.66019056E-02  0.76736654E-02
 -0.59411110E-02  0.12658350E-01  0.30863930E-02
  0.47326736E-02  0.30463118E-02 -0.58531911E-02
  0.11297875E-02 -0.15735617E-02 -0.17745924E-03
 -0.44091604E-02  0.83585778E-02  0.60720588E-03
  0.25359102E-02 -0.23136312E-02 -0.27153950E-02
 -0.34773019E-02 -0.33286851E-02  0.36314675E-03
 -0.32544661E-04  0.89036419E-03  0.13167883E-01
  0.22946775E-02 -0.45199125E-02 -0.47706232E-02
  0.52696930E-02 -0.10147859E-01  0.12703026E-01
 -0.23303669E-02  0.11420270E-01  0.16039728E-02
 -0.30606132E-02 -0.13575280E-02  0.24148571E-02
  0.82593506E-03  0.14238583E-03  0.26081448E-02
  0.30108661E-02 -0.52007484E-04 -0.67390709E-03
  0.35541366E-02 -0.48920801E-02  0.21105880E-02
  0.77784007E-03  0.21756799E-02  0.10291104E-02
  0.15971133E-02 -0.21397925E-02  0.92158869E-03
  0.45103265E-02  0.21060182E-02 -0.17624878E-02
 -0.14135788E-02 -0.77787090E-03 -0.39374900E-02
 -0.72855498E-03 -0.64036835E-03  0.33836053E-02
  0.66305998E-03  0.16890915E-02  0.14200134E-02
 -0.11654973E-02 -0.36566500E-02  0.59433280E-03
 -0.57126038E-03 -0.47664441E-03  0.20873170E-02
 -0.62462168E-02  0.60134934E-03 -0.28127905E-03
  0.14576318E-02 -0.58739379E-03 -0.74541987E-04
 -0.32366107E-02 -0.59257625E-03 -0.87065580E-03
 -0.40095998E-03 -0.27590382E-03 -0.18868185E-02
  0.45485297E-04  0.10003165E-02 -0.23125706E-02
 -0.42625931E-02  0.18816441E-02 -0.42270606E-02
 -0.54144716E-02 -0.36391396E-02  0.48662258E-02
 -0.31186975E-02  0.77982174E-03 -0.64668909E-02
  0.97834303E-03  0.80753034E-02  0.10994868E-01
 -0.11042390E-01 -0.25479348E-02 -0.90507179E-02
  0.64972765E-02  0.62574616E-02  0.46047603E-02
  0.51857186E-02  0.51345268E-03 -0.23698208E-02
  0.60286403E-02 -0.93090392E-02 -0.26429211E-02
 -0.10248146E-02 -0.11000381E-02  0.87445255E-03
 -0.31417082E-03 -0.13402431E-02 -0.74302541E-03
 -0.61486145E-03 -0.44583223E-02  0.36492340E-02
  0.38022276E-02  0.14328946E-02 -0.57983494E-02
  0.91895723E-02  0.32421462E-02  0.73680437E-02
 -0.20995503E-02 -0.93966599E-03  0.20730004E-02
 -0.42160265E-03  0.48214311E-02 -0.91403740E-03
 -0.24751233E-02 -0.67818046E-02  0.92417481E-02
 -0.40216332E-02 -0.12546406E-03  0.44919352E-03
  0.22379616E-02 -0.10290974E-01 -0.30729542E-02
  0.37842892E-02  0.50375873E-03 -0.32746670E-03
 -0.75719337E-02 -0.52618957E-02 -0.14982119E-02
  0.50761838E-02  0.34732501E-02 -0.13302685E-01
 -0.12872189E-03  0.52190635E-02  0.55721815E-03
  0.62632845E-02 -0.24013390E-02 -0.18024470E-02
  0.93162782E-02  0.56833470E-02  0.60006653E-02
 -0.12665405E-02 -0.15733860E-02  0.17946457E-02
  0.42547693E-02  0.58404003E-03 -0.12334389E-02
 -0.28957257E-02 -0.54865718E-02 -0.16295882E-02
 -0.17920730E-02 -0.22416952E-02  0.29652415E-02
  0.98549606E-02  0.18392008E-03  0.56897996E-02
  0.25761836E-02 -0.16283891E-02  0.88722637E-03
 -0.18751177E-02  0.92875006E-02 -0.12161049E-01
 -0.19087386E-02  0.25046726E-02  0.26880520E-03
 -0.65720685E-02 -0.42524741E-02  0.48965734E-02
 -0.69057727E-02  0.37639793E-02 -0.33525384E-02
 -0.35546571E-02 -0.85697057E-02 -0.38153059E-02
 -0.44078505E-02  0.50611828E-02 -0.71267220E-02
 -0.65192410E-03 -0.48718365E-02  0.79622970E-03
  0.65893296E-02 -0.15127344E-02 -0.16102156E-02
 -0.41637828E-02  0.12642086E-02  0.27627454E-02
  0.80547210E-02  0.68021278E-04  0.56707040E-02
 -0.66911931E-02  0.45310344E-02 -0.42919295E-02
  0.41397033E-02  0.57961988E-02 -0.91109602E-02
 -0.38587409E-02 -0.65493364E-02 -0.25097411E-02
  0.47932364E-02  0.64050109E-02  0.28614147E-02
 -0.58161600E-02  0.13786522E-02 -0.18119612E-02
  0.10533698E-02 -0.21581586E-02  0.22161727E-04
 -0.38158154E-02  0.36860930E-02 -0.18357885E-02
  0.32320469E-02  0.19294804E-02  0.13630619E-02
 -0.55555003E-02  0.56367314E-02 -0.45925900E-02
  0.19824984E-02  0.41222342E-02  0.78968311E-03
 -0.37664708E-02  0.36052827E-02  0.12806322E-02
 -0.45980259E-02 -0.10773112E-01 -0.32570010E-02
 -0.55689863E-02  0.51203126E-02  0.13133857E-02
 -0.29828796E-02  0.48924994E-02 -0.72333447E-03
  0.26562949E-02  0.67144043E-03 -0.50252466E-03
  0.24229479E-02  0.22620895E-02 -0.18184084E-02
 -0.63743143E-03 -0.59218441E-03  0.65926412E-03
 -0.70820659E-02 -0.31734214E-02  0.55540351E-02
  0.96441006E-03  0.42762252E-02 -0.61650377E-02
  0.33674685E-02  0.37049176E-02  0.29324719E-02
  0.35816403E-02  0.30039763E-03 -0.66941075E-02
  0.27540488E-02  0.48835016E-02  0.15072203E-02
  0.12500150E-02 -0.57571448E-03  0.74861575E-02
 -0.80621580E-02 -0.50331312E-02  0.77583448E-02
 
           1
   2.00000000000000     
  0.30503914E+01  0.93405501E-02  0.19654860E-17  0.00000000E+00
  0.55064472E+00  0.19631659E+00  0.12199255E+00
  0.47980299E+00  0.39821318E+00  0.77458178E-01
  0.28171753E+00  0.73767425E+00  0.12724058E+00
  0.41479306E+00  0.83238039E+00  0.11136228E+00
  0.42347720E+00  0.98995171E+00  0.57474825E-01
  0.70881090E+00  0.21900445E+00  0.81558821E-01
  0.77932375E+00  0.47159239E+00  0.79807325E-01
  0.87928281E+00  0.74953064E+00  0.53917499E-01
  0.97375422E+00  0.98450986E+00  0.12018726E+00
  0.63690210E+00  0.11727538E+00  0.97700411E-01
  0.75039493E+00  0.61597093E+00  0.14811797E+00
  0.25835193E+00  0.93612010E+00  0.11914974E+00
  0.78958618E+00  0.22314062E+00  0.16504082E+00
  0.13254836E+00  0.28532597E+00  0.10349151E+00
  0.26442908E+00  0.50352776E+00  0.10324763E+00
  0.59552733E+00  0.97332233E+00  0.18679307E+00
  0.29922206E+00  0.97326302E+00  0.95653967E-01
  0.45976092E-01  0.15176435E+00  0.12304932E+00
  0.68276406E-01  0.45560205E+00  0.11738342E+00
  0.22770274E+00  0.91856383E+00  0.15891455E+00
  0.89345285E+00  0.27622316E-01  0.14907722E+00
  0.86644921E+00  0.34434024E+00  0.15688487E+00
  0.65780057E+00  0.35711103E+00  0.10680937E+00
  0.66890135E+00  0.63702110E+00  0.11512731E+00
  0.30672568E+00  0.85274325E-01  0.16481067E+00
  0.90194314E+00  0.25574147E+00  0.12432551E+00
  0.34792052E-01  0.64638490E+00  0.14763080E+00
  0.10948934E+00  0.99376596E+00  0.17124832E+00
  0.69210412E+00  0.79659670E-01  0.16949131E+00
  0.55342693E+00  0.37739843E+00  0.13055124E+00
  0.53888897E+00  0.71501230E+00  0.14930762E+00
  0.75300298E+00  0.81351636E+00  0.12460129E+00
  0.65703037E-01  0.25850977E+00  0.19340604E+00
  0.84278796E+00  0.41674183E+00  0.18916963E+00
  0.11874631E+00  0.70247243E+00  0.19186040E+00
  0.99039547E+00  0.95182953E+00  0.21419227E+00
  0.46363987E+00  0.28534883E+00  0.20341277E+00
  0.28936642E+00  0.33849189E+00  0.17798310E+00
  0.30130199E+00  0.63636378E+00  0.16322030E+00
  0.54466909E+00  0.85943164E+00  0.20735520E+00
  0.32044462E+00  0.35004867E-01  0.20573952E+00
  0.18015535E+00  0.40938907E+00  0.20353240E+00
  0.24825748E+00  0.41233338E+00  0.15511591E+00
  0.31692368E+00  0.61627235E+00  0.19307488E+00
  0.88329385E+00  0.12403447E+00  0.21705505E+00
  0.75023583E+00  0.28484780E+00  0.19971950E+00
  0.64882443E+00  0.48817483E+00  0.17995602E+00
  0.78959312E+00  0.87697390E+00  0.17293080E+00
  0.50460012E+00  0.79292812E+00  0.23125910E+00
  0.60364243E+00  0.56554801E+00  0.35342784E+00
  0.70717016E+00  0.14165434E+00  0.65920284E+00
  0.76598190E+00  0.73486395E+00  0.89498255E+00
  0.65984941E+00  0.69010217E+00  0.91959572E+00
  0.55160849E+00  0.45866923E+00  0.21329658E+00
  0.39618468E+00  0.38655508E+00  0.39507915E+00
  0.13533979E+00  0.44632456E+00  0.68887737E+00
  0.45135291E+00  0.85013400E+00  0.95249659E+00
  0.35923891E+00  0.83130702E+00  0.76588609E-01
  0.55117572E+00  0.58774212E+00  0.18186024E+00
  0.56962595E+00  0.68650861E+00  0.36352697E+00
  0.76407935E+00  0.31591663E+00  0.68850447E+00
  0.14289994E+00  0.81496869E+00  0.93319117E+00
  0.56118584E+00  0.68773885E+00  0.94446855E+00
  0.27478464E+00  0.95715200E+00  0.23986470E+00
  0.98580825E+00  0.24693949E+00  0.35031509E+00
  0.20576913E+00  0.41585450E+00  0.66384764E+00
  0.72541819E+00  0.98960923E+00  0.95906986E+00
  0.62100476E-01  0.44382142E+00  0.58477315E-01
  0.26799718E+00  0.87324202E+00  0.20226731E+00
  0.17909235E-01  0.14651109E+00  0.49134239E+00
  0.81222127E+00  0.26789390E+00  0.65660403E+00
  0.29552892E+00  0.80936108E+00  0.91396853E+00
  0.96304900E+00  0.85488093E+00  0.95303675E-01
  0.51894742E+00  0.71655174E-02  0.22473860E+00
  0.18037931E+00  0.27364821E+00  0.39023096E+00
  0.44089297E+00  0.58389305E+00  0.68530884E+00
  0.43313335E-01  0.66815116E+00  0.88456167E+00
  0.59608276E+00  0.67331499E+00  0.66924343E-01
  0.70594934E+00  0.77705413E+00  0.20502729E+00
  0.90538694E+00  0.20476438E+00  0.47381270E+00
  0.63585151E+00  0.41432751E+00  0.68575048E+00
  0.70415027E+00  0.85601100E+00  0.91811101E+00
  0.68579950E+00  0.89797641E+00  0.76540867E-01
  0.39790400E+00  0.16657725E+00  0.23340909E+00
  0.79180196E+00  0.94020245E-01  0.33784547E+00
  0.50264303E+00  0.46860044E+00  0.66503706E+00
  0.29415769E+00  0.67634730E+00  0.92384801E+00
  0.85229854E+00  0.70470942E+00  0.10074003E+00
  0.99155966E+00  0.95820111E+00  0.77682721E-01
  0.88399870E+00  0.10407182E+00  0.76372877E-01
  0.92651421E+00  0.37139821E+00  0.72559927E-01
  0.47078001E-01  0.71157506E+00  0.81165918E-01
  0.65246565E+00  0.96860227E+00  0.11197489E+00
  0.44400458E+00  0.19599750E+00  0.87248379E-01
  0.43366725E+00  0.51702039E+00  0.66762342E-01
  0.40309895E+00  0.66964525E+00  0.87435826E-01
  0.99965243E+00  0.36185030E-01  0.19169698E+00
  0.82792449E-02  0.20113199E+00  0.15203999E+00
  0.89691112E+00  0.49025325E+00  0.14986825E+00
  0.97094766E+00  0.78149385E+00  0.15172739E+00
  0.55954156E+00  0.11958297E+00  0.20347846E+00
  0.45578257E+00  0.25252762E+00  0.16421734E+00
  0.45394484E+00  0.51182817E+00  0.14511809E+00
  0.37283350E+00  0.79307049E+00  0.16461342E+00
  0.60989200E-01  0.95597834E+00  0.14310074E+00
  0.78084820E+00  0.17493463E+00  0.13277404E+00
  0.78881622E+00  0.50201291E+00  0.12865373E+00
  0.74201118E+00  0.74540562E+00  0.14352469E+00
  0.49867243E+00  0.52894773E-01  0.17690087E+00
  0.59414365E+00  0.25439069E+00  0.15176152E+00
  0.45825314E+00  0.54461406E+00  0.12703170E+00
  0.58626839E+00  0.78789882E+00  0.17753753E+00
  0.10821433E+00  0.96656979E+00  0.10227327E+00
  0.94453453E+00  0.19069042E+00  0.10061608E+00
  0.44200072E-01  0.49440172E+00  0.86699171E-01
  0.88843149E-01  0.73417144E+00  0.62099945E-01
  0.49006206E+00  0.95169476E+00  0.12007449E+00
  0.67940109E+00  0.25852706E+00  0.10840433E+00
  0.64444046E+00  0.53391727E+00  0.85894530E-01
  0.64229681E+00  0.71821451E+00  0.95639626E-01
  0.50173025E+00  0.97206632E+00  0.90611153E-01
  0.37655363E+00  0.26882362E+00  0.99969118E-01
  0.27162847E+00  0.40677307E+00  0.57720385E-01
  0.43726004E+00  0.73102218E+00  0.11208220E+00
  0.80054053E+00  0.84921662E+00  0.61964283E-01
  0.67650777E+00  0.10150671E+00  0.63098008E-01
  0.68054518E+00  0.32972781E+00  0.61632052E-01
  0.81978365E+00  0.68494752E+00  0.73149782E-01
  0.86400342E+00  0.11652564E-01  0.83842481E-01
  0.96372943E+00  0.35437724E+00  0.93180936E-01
  0.16643666E+00  0.80531616E+00  0.10422534E+00
  0.48654424E+00  0.91632276E+00  0.70348150E-01
  0.39315422E+00  0.10179025E+00  0.92623394E-01
  0.65375978E+00  0.33854202E+00  0.79604442E-01
  0.32712906E+00  0.55170179E+00  0.81992973E-01
  0.66096645E+00  0.86613619E+00  0.10126275E+00
  0.93155839E+00  0.89371120E+00  0.23219083E+00
  0.92514787E+00  0.33918469E+00  0.18740153E+00
  0.70260005E+00  0.38769879E+00  0.20643028E+00
  0.37433060E+00  0.49921140E-01  0.23683833E+00
  0.26800281E+00  0.84567413E+00  0.22576795E+00
  0.32626922E+00  0.34528913E+00  0.20368446E+00
  0.60970518E+00  0.55348196E+00  0.20618904E+00
  0.48329559E+00  0.74408396E+00  0.20535704E+00
  0.19364787E-01  0.67532657E-01  0.21922606E+00
  0.40945693E+00  0.48749810E+00  0.18763673E+00
  0.82451669E-01  0.60018953E+00  0.16998726E+00
  0.47062324E+00  0.91415135E+00  0.23665794E+00
  0.78027376E+00  0.20754753E+00  0.21222385E+00
  0.57878219E+00  0.38013600E+00  0.18689095E+00
  0.67945493E+00  0.57015660E+00  0.16547966E+00
  0.94549427E+00  0.81030139E+00  0.22794913E+00
  0.35371403E+00  0.14223845E+00  0.19702326E+00
  0.13827499E+00  0.27605403E+00  0.14517103E+00
  0.31079870E+00  0.53021450E+00  0.15419596E+00
  0.41908840E+00  0.86736340E+00  0.15486553E+00
  0.76511254E+00  0.97598088E+00  0.17307103E+00
  0.88391610E+00  0.13484515E+00  0.16595923E+00
  0.79631002E+00  0.44687533E+00  0.16263712E+00
  0.37611655E-01  0.74983272E+00  0.17312373E+00
  0.54311955E-01  0.11013604E+00  0.14247878E+00
  0.99268342E+00  0.42436594E+00  0.14265712E+00
  0.91507247E+00  0.69136763E+00  0.12621578E+00
  0.76314611E-01  0.94611429E+00  0.19131597E+00
  0.49420826E+00  0.20623837E+00  0.17948530E+00
  0.36974757E+00  0.39976557E+00  0.13543840E+00
  0.27419373E+00  0.68438712E+00  0.14170164E+00
  0.37983084E+00  0.93033477E+00  0.19030674E+00
  0.36320054E-03  0.48908599E-03  0.64583113E-04
 -0.13288298E-02 -0.12332706E-02 -0.18973258E-03
 -0.18445695E-02  0.28301520E-03 -0.29079921E-03
 -0.40301852E-03 -0.69512976E-04  0.90843794E-04
  0.14007730E-02  0.40046763E-03  0.65290420E-04
 -0.74292412E-03 -0.10520694E-02 -0.22699209E-03
 -0.94876035E-03  0.28540521E-04 -0.16664478E-03
 -0.13013907E-02  0.43809851E-03 -0.13750902E-03
 -0.31568482E-03  0.44765693E-03 -0.59879810E-04
 -0.70730446E-03 -0.12144773E-04  0.22932807E-04
  0.13874060E-02  0.10670633E-03  0.16610205E-03
  0.37368232E-03  0.16767604E-03 -0.10638574E-04
  0.10259975E-02 -0.27159198E-03  0.21869253E-03
  0.84457035E-03 -0.72506110E-04  0.15749657E-04
 -0.18372029E-02 -0.13494245E-02 -0.88068425E-04
 -0.12017306E-02  0.78695904E-04  0.68698375E-04
  0.15692578E-02  0.61099790E-03 -0.31990454E-04
 -0.16322717E-04  0.34966881E-03  0.96078919E-04
  0.77407169E-04 -0.50911917E-03 -0.10731990E-03
  0.96996641E-03  0.21704951E-03  0.93443106E-04
 -0.63447142E-03  0.12740965E-03 -0.14655580E-03
  0.14238401E-02  0.79745270E-03 -0.55058996E-04
  0.81522673E-04 -0.68968589E-03 -0.16479584E-03
  0.21712989E-02  0.18154278E-03  0.11749237E-03
 -0.16850525E-02  0.18794859E-03 -0.10620808E-03
  0.19127865E-03 -0.25139361E-03  0.59604684E-04
 -0.53688614E-03 -0.79499304E-03 -0.26272881E-04
  0.52187954E-03 -0.23226814E-03  0.16927611E-04
 -0.87734769E-03 -0.90393903E-03 -0.20035800E-03
 -0.18407139E-03 -0.27928314E-04  0.29146868E-04
  0.41910021E-03  0.27157225E-03  0.35544509E-04
  0.61100435E-03 -0.23779629E-03 -0.34734569E-05
  0.50405225E-03  0.43617441E-03  0.10129251E-03
 -0.61669794E-03 -0.10712540E-03  0.12368832E-04
 -0.24499066E-02 -0.63567376E-03 -0.20680919E-03
 -0.11730197E-02 -0.15960989E-02  0.11933606E-03
  0.92087943E-03 -0.94697391E-03 -0.10902101E-03
  0.31171911E-02  0.56345646E-03  0.12433149E-03
  0.88920654E-03  0.10428028E-02  0.14425273E-03
 -0.11888301E-02 -0.81013531E-03  0.43336596E-04
 -0.10283187E-03  0.10857880E-03  0.69528046E-04
 -0.19043065E-02 -0.86515980E-03 -0.20888013E-03
  0.13436026E-02  0.18587100E-03 -0.47189887E-04
 -0.15251048E-02  0.11317817E-02  0.58784959E-04
 -0.35569616E-03 -0.15393678E-03  0.95845102E-05
  0.12126946E-02  0.75161234E-03 -0.40663644E-04
 -0.13978189E-02 -0.33500864E-03  0.12556580E-04
  0.22975227E-02  0.46694854E-03  0.27393428E-03
  0.53604377E-03  0.87782688E-03  0.11760127E-03
 -0.50047411E-03  0.12671776E-03  0.18978856E-04
  0.25004433E-03  0.26186052E-03  0.21474117E-05
  0.70020017E-03  0.11408119E-02  0.19782451E-03
  0.38707728E-03  0.24865125E-03  0.15864119E-03
 -0.71132616E-03 -0.15732338E-03 -0.94837457E-05
 -0.10170834E-02 -0.28463998E-03 -0.13182154E-03
  0.88673261E-03  0.54700270E-03 -0.56308127E-04
  0.32779202E-03  0.60197486E-03  0.28466055E-04
 -0.35133384E-03  0.33357910E-04  0.11725390E-03
 -0.49197402E-03 -0.27745109E-03  0.45543044E-04
 -0.33549269E-03 -0.41813112E-03 -0.54444859E-04
 -0.49368918E-03 -0.10005952E-03 -0.14758032E-03
  0.14250786E-02  0.38791076E-03  0.19870313E-03
  0.98657590E-04  0.42146133E-04 -0.14187758E-04
  0.13070635E-02 -0.53072463E-03  0.50903932E-04
  0.46689382E-03 -0.40695604E-04 -0.15607636E-04
  0.92869644E-03  0.43919906E-03 -0.40835816E-05
  0.10882749E-03 -0.66894642E-03 -0.16329565E-03
 -0.14931748E-02 -0.51432945E-03 -0.24500636E-03
  0.99850872E-03  0.96865606E-03  0.15872841E-03
 -0.13928190E-03  0.24177781E-03 -0.11705191E-04
 -0.58733403E-03 -0.27696346E-03  0.15247642E-03
 -0.24211072E-02 -0.10287335E-02 -0.23219366E-03
 -0.89417245E-03 -0.99694454E-03 -0.15498733E-03
  0.16418962E-02  0.11505339E-02  0.76945117E-04
  0.47292936E-03  0.42065944E-03  0.10257836E-04
  0.36727943E-03 -0.38420753E-03 -0.51417429E-04
  0.98466083E-03  0.65109324E-03  0.23228065E-03
  0.25938654E-03  0.12513913E-02  0.16423109E-03
  0.11004239E-02  0.29651499E-03 -0.43203018E-04
  0.40767612E-04 -0.15665700E-03 -0.13565952E-04
  0.66300707E-04  0.82641272E-03  0.78154049E-04
  0.21338147E-03 -0.22529950E-03 -0.62257559E-04
 -0.91630835E-03 -0.30991658E-03 -0.55602611E-04
  0.11216062E-03  0.11473338E-03  0.25971354E-03
 -0.56676718E-04 -0.44884849E-03 -0.12678783E-03
 -0.10674840E-03 -0.10053529E-02  0.15727504E-03
  0.74138094E-03  0.11246263E-02  0.14845299E-03
 -0.67645526E-03 -0.12425634E-03  0.78531324E-05
  0.16098047E-03  0.14105256E-04  0.57656651E-04
  0.51506196E-03 -0.68988994E-05  0.72082759E-05
  0.12264690E-03 -0.48478411E-03  0.80211615E-05
  0.36095113E-03  0.23534004E-03  0.52905236E-04
  0.43799691E-04 -0.21561238E-03  0.96645913E-06
  0.98071653E-03  0.20930322E-03  0.20368195E-04
 -0.32441769E-03 -0.75905035E-04 -0.93267992E-04
 -0.19509075E-03 -0.66899904E-04  0.51176864E-04
  0.27345007E-03  0.16574329E-03  0.47861071E-04
 -0.54378651E-03 -0.35470391E-03 -0.38837027E-04
 -0.16703731E-03 -0.49147730E-04  0.27748354E-04
 -0.10129853E-02  0.63037413E-04 -0.40534164E-04
  0.19419887E-03 -0.60136057E-04  0.21631932E-05
 -0.60728715E-03 -0.61855543E-04 -0.42634263E-04
 -0.10306594E-03 -0.30125496E-04 -0.41890331E-04
  0.99982417E-04  0.95839779E-04 -0.32815764E-04
 -0.53340899E-03  0.19242417E-03 -0.84597382E-04
 -0.13096286E-02 -0.36076513E-03  0.12149538E-04
 -0.43278301E-03  0.80929285E-04 -0.13267900E-03
  0.97254796E-03  0.79249819E-03  0.30602113E-03
 -0.21300283E-02 -0.24491278E-03 -0.27227049E-03
  0.17357134E-02  0.61770025E-03  0.20085098E-03
  0.87241032E-03  0.29164741E-04 -0.10039950E-04
  0.10382119E-03 -0.93576324E-03 -0.11797837E-03
 -0.30829303E-03 -0.14155550E-03 -0.73541906E-05
 -0.17111445E-03 -0.11652943E-03 -0.32224936E-04
 -0.48362378E-03 -0.42107358E-03  0.17388742E-04
  0.76714061E-03  0.12439409E-03 -0.67293955E-04
  0.18814451E-02  0.30257662E-03  0.23643642E-03
 -0.42612856E-03 -0.80507043E-04  0.17872231E-04
  0.45435887E-03  0.48264053E-03  0.38013835E-04
 -0.10440109E-02 -0.64900112E-03  0.82820304E-04
 -0.67553057E-03 -0.24925184E-04 -0.17982675E-04
 -0.65100847E-03 -0.10202104E-02 -0.16151945E-03
  0.69616586E-03  0.53424737E-04  0.25767641E-04
 -0.18114189E-02 -0.51524282E-03 -0.14108103E-03
  0.11905317E-02  0.35185098E-03 -0.17766701E-03
  0.52076663E-03  0.54104949E-03  0.70519017E-04
  0.81679864E-03 -0.24365751E-03 -0.15302583E-04
  0.21341088E-02  0.54462576E-03  0.24214265E-03
 -0.39249865E-03 -0.17674752E-03  0.35733044E-05
  0.78650812E-03  0.92896719E-04  0.11563284E-04
 -0.10663994E-02 -0.59551135E-03 -0.12557212E-03
 -0.48887478E-03 -0.21268839E-03  0.27537246E-04
  0.17228085E-02  0.26606585E-04  0.17888707E-03
  0.31794820E-03 -0.16399912E-03  0.96181212E-05
  0.55909029E-03  0.89949239E-03 -0.13715424E-03
 -0.49548318E-04  0.23456123E-03  0.23103892E-04
 -0.15493872E-02 -0.41588466E-03  0.53183455E-06
 -0.86428867E-03  0.36693361E-03 -0.68995618E-04
 -0.14755594E-02 -0.86255836E-03 -0.19970261E-03
 -0.29600014E-03  0.45737461E-03 -0.10059463E-03
 -0.57346942E-03 -0.45968036E-03 -0.41675795E-04
  0.99203095E-03 -0.16050508E-03 -0.73957692E-05
 -0.57908600E-03  0.12518456E-03  0.43357139E-04
  0.14317971E-02  0.35980079E-04  0.16565179E-03
 -0.69135805E-03  0.44557490E-03 -0.65476077E-04
  0.12794184E-02  0.56282868E-03 -0.77859495E-04
 -0.13087027E-02 -0.63026900E-03 -0.14435779E-03
  0.14253159E-02  0.63819702E-03  0.16088964E-03
 -0.84518455E-03  0.14735711E-03 -0.57733382E-04
 -0.23079213E-04 -0.20178324E-03 -0.12163738E-04
 -0.25458017E-03  0.36850972E-03 -0.17000885E-04
  0.74224339E-03  0.18148281E-03  0.69363800E-04
 -0.43746885E-03  0.56574955E-03 -0.63711701E-04
  0.72114203E-03  0.38697883E-03  0.75330901E-04
 -0.29545814E-03  0.36542503E-03  0.42414200E-04
 -0.18318516E-02 -0.10448683E-02 -0.21269373E-03
 -0.46889544E-03  0.49010988E-03  0.44168031E-04
 -0.52278224E-04  0.46752543E-03  0.21383384E-04
  0.54424891E-03  0.75735533E-04  0.19391375E-04
  0.67984043E-03  0.23329654E-03  0.17460728E-04
 -0.15869731E-03 -0.60385231E-04  0.16576517E-05
 -0.14989413E-02 -0.31117825E-03  0.22023755E-04
  0.52508519E-03  0.40456826E-03 -0.68800389E-04
  0.10303497E-02  0.36100372E-03  0.12560609E-03
  0.61037207E-03  0.21985753E-04 -0.10184184E-03
  0.98006246E-03  0.50114954E-03  0.10470187E-03
  0.17869567E-03 -0.14342892E-04  0.13657699E-03
 -0.19229085E-02 -0.51191660E-03  0.27617287E-04
  0.00000000E+00  0.00000000E+00  0.00000000E+00
  0.00000000E+00  0.00000000E+00  0.00000000E+00
  0.00000000E+00  0.00000000E+00  0.00000000E+00
  0.00000000E+00  0.00000000E+00  0.00000000E+00
  0.00000000E+00  0.00000000E+00  0.00000000E+00
  0.00000000E+00  0.00000000E+00  0.00000000E+00
  0.00000000E+00  0.00000000E+00  0.00000000E+00
  0.00000000E+00  0.00000000E+00  0.00000000E+00
  0.00000000E+00  0.00000000E+00  0.00000000E+00
  0.00000000E+00  0.00000000E+00  0.00000000E+00
  0.00000000E+00  0.00000000E+00  0.00000000E+00
  0.00000000E+00  0.00000000E+00  0.00000000E+00
  0.00000000E+00  0.00000000E+00  0.00000000E+00
  0.00000000E+00  0.00000000E+00  0.00000000E+00
  0.00000000E+00  0.00000000E+00  0.00000000E+00
  0.00000000E+00  0.00000000E+00  0.00000000E+00
  0.00000000E+00  0.00000000E+00  0.00000000E+00
  0.00000000E+00  0.00000000E+00  0.00000000E+00
  0.00000000E+00  0.00000000E+00  0.00000000E+00
  0.00000000E+00  0.00000000E+00  0.00000000E+00
  0.00000000E+00  0.00000000E+00  0.00000000E+00
  0.00000000E+00  0.00000000E+00  0.00000000E+00
  0.00000000E+00  0.00000000E+00  0.00000000E+00
  0.00000000E+00  0.00000000E+00  0.00000000E+00
  0.00000000E+00  0.00000000E+00  0.00000000E+00
  0.00000000E+00  0.00000000E+00  0.00000000E+00
  0.00000000E+00  0.00000000E+00  0.00000000E+00
  0.00000000E+00  0.00000000E+00  0.00000000E+00
  0.00000000E+00  0.00000000E+00  0.00000000E+00
  0.00000000E+00  0.00000000E+00  0.00000000E+00
  0.00000000E+00  0.00000000E+00  0.00000000E+00
  0.00000000E+00  0.00000000E+00  0.00000000E+00
  0.00000000E+00  0.00000000E+00  0.00000000E+00
  0.00000000E+00  0.00000000E+00  0.00000000E+00
  0.00000000E+00  0.00000000E+00  0.00000000E+00
  0.00000000E+00  0.00000000E+00  0.00000000E+00
  0.00000000E+00  0.00000000E+00  0.00000000E+00
  0.00000000E+00  0.00000000E+00  0.00000000E+00
  0.00000000E+00  0.00000000E+00  0.00000000E+00
  0.00000000E+00  0.00000000E+00  0.00000000E+00
  0.00000000E+00  0.00000000E+00  0.00000000E+00
  0.00000000E+00  0.00000000E+00  0.00000000E+00
  0.00000000E+00  0.00000000E+00  0.00000000E+00
  0.00000000E+00  0.00000000E+00  0.00000000E+00
  0.00000000E+00  0.00000000E+00  0.00000000E+00
  0.00000000E+00  0.00000000E+00  0.00000000E+00
  0.00000000E+00  0.00000000E+00  0.00000000E+00
  0.00000000E+00  0.00000000E+00  0.00000000E+00
  0.00000000E+00  0.00000000E+00  0.00000000E+00
  0.00000000E+00  0.00000000E+00  0.00000000E+00
  0.00000000E+00  0.00000000E+00  0.00000000E+00
  0.00000000E+00  0.00000000E+00  0.00000000E+00
  0.00000000E+00  0.00000000E+00  0.00000000E+00
  0.00000000E+00  0.00000000E+00  0.00000000E+00
  0.00000000E+00  0.00000000E+00  0.00000000E+00
  0.00000000E+00  0.00000000E+00  0.00000000E+00
  0.00000000E+00  0.00000000E+00  0.00000000E+00
  0.00000000E+00  0.00000000E+00  0.00000000E+00
  0.00000000E+00  0.00000000E+00  0.00000000E+00
  0.00000000E+00  0.00000000E+00  0.00000000E+00
  0.00000000E+00  0.00000000E+00  0.00000000E+00
  0.00000000E+00  0.00000000E+00  0.00000000E+00
  0.00000000E+00  0.00000000E+00  0.00000000E+00
  0.00000000E+00  0.00000000E+00  0.00000000E+00
  0.00000000E+00  0.00000000E+00  0.00000000E+00
  0.00000000E+00  0.00000000E+00  0.00000000E+00
  0.00000000E+00  0.00000000E+00  0.00000000E+00
  0.00000000E+00  0.00000000E+00  0.00000000E+00
  0.00000000E+00  0.00000000E+00  0.00000000E+00
  0.00000000E+00  0.00000000E+00  0.00000000E+00
  0.00000000E+00  0.00000000E+00  0.00000000E+00
  0.00000000E+00  0.00000000E+00  0.00000000E+00
  0.00000000E+00  0.00000000E+00  0.00000000E+00
  0.00000000E+00  0.00000000E+00  0.00000000E+00
  0.00000000E+00  0.00000000E+00  0.00000000E+00
  0.00000000E+00  0.00000000E+00  0.00000000E+00
  0.00000000E+00  0.00000000E+00  0.00000000E+00
  0.00000000E+00  0.00000000E+00  0.00000000E+00
  0.00000000E+00  0.00000000E+00  0.00000000E+00
  0.00000000E+00  0.00000000E+00  0.00000000E+00
  0.00000000E+00  0.00000000E+00  0.00000000E+00
  0.00000000E+00  0.00000000E+00  0.00000000E+00
  0.00000000E+00  0.00000000E+00  0.00000000E+00
  0.00000000E+00  0.00000000E+00  0.00000000E+00
  0.00000000E+00  0.00000000E+00  0.00000000E+00
  0.00000000E+00  0.00000000E+00  0.00000000E+00
  0.00000000E+00  0.00000000E+00  0.00000000E+00
  0.00000000E+00  0.00000000E+00  0.00000000E+00
  0.00000000E+00  0.00000000E+00  0.00000000E+00
  0.00000000E+00  0.00000000E+00  0.00000000E+00
  0.00000000E+00  0.00000000E+00  0.00000000E+00
  0.00000000E+00  0.00000000E+00  0.00000000E+00
  0.00000000E+00  0.00000000E+00  0.00000000E+00
  0.00000000E+00  0.00000000E+00  0.00000000E+00
  0.00000000E+00  0.00000000E+00  0.00000000E+00
  0.00000000E+00  0.00000000E+00  0.00000000E+00
  0.00000000E+00  0.00000000E+00  0.00000000E+00
  0.00000000E+00  0.00000000E+00  0.00000000E+00
  0.00000000E+00  0.00000000E+00  0.00000000E+00
  0.00000000E+00  0.00000000E+00  0.00000000E+00
  0.00000000E+00  0.00000000E+00  0.00000000E+00
  0.00000000E+00  0.00000000E+00  0.00000000E+00
  0.00000000E+00  0.00000000E+00  0.00000000E+00
  0.00000000E+00  0.00000000E+00  0.00000000E+00
  0.00000000E+00  0.00000000E+00  0.00000000E+00
  0.00000000E+00  0.00000000E+00  0.00000000E+00
  0.00000000E+00  0.00000000E+00  0.00000000E+00
  0.00000000E+00  0.00000000E+00  0.00000000E+00
  0.00000000E+00  0.00000000E+00  0.00000000E+00
  0.00000000E+00  0.00000000E+00  0.00000000E+00
  0.00000000E+00  0.00000000E+00  0.00000000E+00
  0.00000000E+00  0.00000000E+00  0.00000000E+00
  0.00000000E+00  0.00000000E+00  0.00000000E+00
  0.00000000E+00  0.00000000E+00  0.00000000E+00
  0.00000000E+00  0.00000000E+00  0.00000000E+00
  0.00000000E+00  0.00000000E+00  0.00000000E+00
  0.00000000E+00  0.00000000E+00  0.00000000E+00
  0.00000000E+00  0.00000000E+00  0.00000000E+00
  0.00000000E+00  0.00000000E+00  0.00000000E+00
  0.00000000E+00  0.00000000E+00  0.00000000E+00
  0.00000000E+00  0.00000000E+00  0.00000000E+00
  0.00000000E+00  0.00000000E+00  0.00000000E+00
  0.00000000E+00  0.00000000E+00  0.00000000E+00
  0.00000000E+00  0.00000000E+00  0.00000000E+00
  0.00000000E+00  0.00000000E+00  0.00000000E+00
  0.00000000E+00  0.00000000E+00  0.00000000E+00
  0.00000000E+00  0.00000000E+00  0.00000000E+00
  0.00000000E+00  0.00000000E+00  0.00000000E+00
  0.00000000E+00  0.00000000E+00  0.00000000E+00
  0.00000000E+00  0.00000000E+00  0.00000000E+00
  0.00000000E+00  0.00000000E+00  0.00000000E+00
  0.00000000E+00  0.00000000E+00  0.00000000E+00
  0.00000000E+00  0.00000000E+00  0.00000000E+00
  0.00000000E+00  0.00000000E+00  0.00000000E+00
  0.00000000E+00  0.00000000E+00  0.00000000E+00
  0.00000000E+00  0.00000000E+00  0.00000000E+00
  0.00000000E+00  0.00000000E+00  0.00000000E+00
  0.00000000E+00  0.00000000E+00  0.00000000E+00
  0.00000000E+00  0.00000000E+00  0.00000000E+00
  0.00000000E+00  0.00000000E+00  0.00000000E+00
  0.00000000E+00  0.00000000E+00  0.00000000E+00
  0.00000000E+00  0.00000000E+00  0.00000000E+00
  0.00000000E+00  0.00000000E+00  0.00000000E+00
  0.00000000E+00  0.00000000E+00  0.00000000E+00
  0.00000000E+00  0.00000000E+00  0.00000000E+00
  0.00000000E+00  0.00000000E+00  0.00000000E+00
  0.00000000E+00  0.00000000E+00  0.00000000E+00
  0.00000000E+00  0.00000000E+00  0.00000000E+00
  0.00000000E+00  0.00000000E+00  0.00000000E+00
  0.00000000E+00  0.00000000E+00  0.00000000E+00
  0.00000000E+00  0.00000000E+00  0.00000000E+00
  0.00000000E+00  0.00000000E+00  0.00000000E+00
  0.00000000E+00  0.00000000E+00  0.00000000E+00
  0.00000000E+00  0.00000000E+00  0.00000000E+00
  0.00000000E+00  0.00000000E+00  0.00000000E+00
  0.00000000E+00  0.00000000E+00  0.00000000E+00
  0.00000000E+00  0.00000000E+00  0.00000000E+00
  0.00000000E+00  0.00000000E+00  0.00000000E+00
  0.00000000E+00  0.00000000E+00  0.00000000E+00
  0.00000000E+00  0.00000000E+00  0.00000000E+00
  0.00000000E+00  0.00000000E+00  0.00000000E+00
  0.00000000E+00  0.00000000E+00  0.00000000E+00
  0.00000000E+00  0.00000000E+00  0.00000000E+00
  0.00000000E+00  0.00000000E+00  0.00000000E+00
  0.00000000E+00  0.00000000E+00  0.00000000E+00
  0.00000000E+00  0.00000000E+00  0.00000000E+00
  0.00000000E+00  0.00000000E+00  0.00000000E+00
  0.00000000E+00  0.00000000E+00  0.00000000E+00
