Na36                                    
   1.00000000000000     
    11.0663130000000010    0.0000000000000000    0.0000000000000000
    -5.5331549999999998    9.5837070000000004    0.0000000000000000
     0.0000000000000000    0.0000000000000000   12.5383879999999994
   Na
    36
Direct
  0.4625704001555902  0.2455277336777067  0.0828463886124668
  0.4181231840904489  0.6396346222335153  0.1886799038616368
  0.0357162878025995  0.3818015428028315  0.0661364966325930
  0.3283904520936622  0.2243570072062489  0.6763831886117515
  0.0008296003886207  0.7765336790086651  0.0069987166547892
  0.0153160533562647  0.1590626171481593  0.5147062327597973
  0.1021623667020749  0.9555112177482296  0.2377295374868012
  0.5906524753553727  0.1249349471449456  0.6764600956401794
  0.6164145221262186  0.3872069350650936  0.5700654405041399
  0.1754529559295011  0.8711336093754900  0.4979059548443726
  0.0406470700640240  0.9992729703621438  0.7329187471217582
  0.3606720502458327  0.8261451461469048  0.6622064887555908
  0.0099651980035780  0.0668760206952825  0.9903179129799683
  0.8303738875161144  0.6842832553055517  0.5357978446773766
  0.7778501583414114  0.4262378052207801  0.1351260974883649
  0.7292087032250918  0.1939559618320187  0.3541519814796018
  0.6768123976328857  0.7030775254390478  0.0334295939168077
  0.4221341282470064  0.5893312626521949  0.7545556436078604
  0.7114283651112875  0.8800767073035611  0.5370785235420193
  0.3588086513887392  0.3820692816245494  0.9416438745364283
  0.0628187702114174  0.5067795477955147  0.5394626314402338
  0.4230641549539093  0.9519186188012175  0.1493761000810137
  0.4441518767257105  0.3497489184692995  0.3146256275799366
  0.0453989527103051  0.3352604012953599  0.8216296355459886
  0.7885908144557277  0.0523475272169437  0.1579983518527220
  0.2651288526979857  0.6435688740242188  0.9700360870085960
  0.5040052064799291  0.9557598087489786  0.3789334069070902
  0.2960876139428754  0.9748197615500456  0.8350790341063613
  0.3505331550562886  0.4607674463249853  0.5316129319773069
  0.0518757278276246  0.6394274504796448  0.7690657399664733
  0.0655740853724697  0.6138398773203501  0.2763900711758884
  0.6422302708424292  0.3566066669020789  0.8443888661536776
  0.1016134980325780  0.2620680812819800  0.2837976588740523
  0.7944387600442998  0.6659251318830113  0.7627386676390183
  0.8412092065009523  0.7264561445846681  0.2938582294391127
  0.6597501463691771  0.9876758953287731  0.8758682965382255
 
 -0.16860369E-02  0.70450711E-02 -0.41558372E-02
 -0.40455457E-02  0.66880184E-02 -0.11479100E-02
 -0.88272064E-02 -0.25831980E-02 -0.12327723E-02
 -0.64222789E-02 -0.43369033E-02  0.58035977E-02
 -0.18003931E-02  0.33137508E-03 -0.62285821E-02
 -0.13499568E-02  0.17230212E-02 -0.22749355E-02
 -0.48273757E-03 -0.11210368E-02 -0.50032396E-02
 -0.60861515E-03 -0.54346947E-02 -0.13746876E-02
  0.59241600E-02  0.31319794E-02  0.73198924E-02
  0.56859238E-02 -0.46843822E-02  0.27746834E-02
 -0.33602977E-02 -0.40434676E-02 -0.12594961E-02
 -0.59220104E-04  0.12328516E-02 -0.36475895E-02
  0.15770631E-02  0.47830848E-02 -0.66090864E-02
 -0.11389347E-02  0.61265837E-02 -0.12333711E-01
  0.12848967E-02  0.81666802E-02  0.12317753E-01
  0.48120528E-02 -0.90739930E-02 -0.33689937E-02
  0.47835938E-02  0.23859306E-02  0.10230769E-01
  0.50020100E-02 -0.33709855E-02 -0.62853215E-03
  0.81748718E-02 -0.58648952E-02  0.63853318E-02
 -0.93020512E-02 -0.40404094E-02  0.46827385E-02
 -0.61371833E-02  0.42254906E-02  0.54505851E-02
 -0.47627625E-03 -0.49059003E-02 -0.75947825E-02
 -0.95314495E-02 -0.30925301E-02  0.79946375E-02
 -0.93793807E-02  0.51662324E-02 -0.10793951E-01
  0.24450006E-02  0.31141018E-02 -0.10827890E-02
  0.14806644E-02  0.13182118E-02  0.63175503E-02
  0.20931761E-02 -0.48552926E-02  0.30700837E-02
  0.10130906E-02  0.42652114E-02 -0.25550094E-02
  0.73444453E-02 -0.24695667E-02  0.35806599E-02
  0.19715477E-02  0.66653635E-02  0.25772225E-02
  0.43980106E-02 -0.45099040E-03  0.69149258E-02
  0.47066253E-03  0.20212991E-02  0.11728065E-03
  0.48427688E-02  0.67622920E-03 -0.10249297E-01
  0.35275281E-03 -0.75628756E-02 -0.45241147E-02
  0.13968091E-02  0.17191325E-02 -0.25624668E-02
 -0.44593634E-03 -0.28947472E-02  0.30900727E-02
 
           1
   2.00000000000000     
  0.14789007E+01 -0.89985347E-02 -0.41391697E-18  0.00000000E+00
  0.46300079E+00  0.24699795E+00  0.82183490E-01
  0.41808989E+00  0.64103033E+00  0.18849680E+00
  0.33851418E-01  0.38126246E+00  0.65939857E-01
  0.32677723E+00  0.22345195E+00  0.67730892E+00
  0.53879465E-03  0.77660283E+00  0.60051947E-02
  0.15251864E-01  0.15942219E+00  0.51434336E+00
  0.10195815E+00  0.95527727E+00  0.23693147E+00
  0.58997540E+00  0.12380079E+00  0.67624082E+00
  0.61781199E+00  0.38786054E+00  0.57123304E+00
  0.17599178E+00  0.87015604E+00  0.49834854E+00
  0.39617857E-01  0.99842915E+00  0.73271784E+00
  0.36078999E+00  0.82640243E+00  0.66162466E+00
  0.10749303E-01  0.67874191E-01  0.98926370E+00
  0.83080732E+00  0.68556180E+00  0.53383049E+00
  0.77893452E+00  0.42794209E+00  0.13709090E+00
  0.72913156E+00  0.19206233E+00  0.35361459E+00
  0.67792589E+00  0.70357544E+00  0.35061505E-01
  0.42268639E+00  0.58862778E+00  0.75445539E+00
  0.71229383E+00  0.87885278E+00  0.53809705E+00
  0.35670591E+00  0.38122610E+00  0.94239082E+00
  0.62150509E-01  0.50766135E+00  0.54033206E+00
  0.42246618E+00  0.95089482E+00  0.14816466E+00
  0.44210658E+00  0.34910355E+00  0.31590085E+00
  0.44242894E-01  0.33633853E+00  0.81990789E+00
  0.78935763E+00  0.52997401E-01  0.15782564E+00
  0.26553400E+00  0.64384397E+00  0.97104380E+00
  0.50387688E+00  0.95474657E+00  0.37942312E+00
  0.29671576E+00  0.97570986E+00  0.83467148E+00
  0.35160282E+00  0.46025208E+00  0.53218408E+00
  0.52927532E-01  0.64081843E+00  0.76947683E+00
  0.66321874E-01  0.61374576E+00  0.27749307E+00
  0.64252624E+00  0.35702849E+00  0.84440757E+00
  0.10255929E+00  0.26220920E+00  0.28216279E+00
  0.79371337E+00  0.66434685E+00  0.76201703E+00
  0.84164103E+00  0.72681491E+00  0.29344949E+00
  0.65936750E+00  0.98707180E+00  0.87636119E+00
  0.44581186E-03  0.14919370E-02 -0.66252588E-03
 -0.31370933E-04  0.14005562E-02 -0.20644466E-03
 -0.18456861E-02 -0.52549521E-03 -0.20576078E-03
 -0.16109776E-02 -0.90145315E-03  0.91810916E-03
 -0.30110619E-03  0.90671221E-04 -0.99151694E-03
 -0.60941471E-04  0.36287785E-03 -0.36902159E-03
 -0.25242991E-03 -0.28001436E-03 -0.79287823E-03
 -0.70671859E-03 -0.11358242E-02 -0.19729125E-03
  0.13813989E-02  0.65156476E-03  0.11827987E-02
  0.53751818E-03 -0.99900430E-03  0.44632854E-03
 -0.98984448E-03 -0.81934141E-03 -0.20240182E-03
  0.10953080E-03  0.28481189E-03 -0.56635209E-03
  0.76571365E-03  0.98501946E-03 -0.10486139E-02
  0.40560700E-03  0.12697744E-02 -0.19459407E-02
  0.10833474E-02  0.16968953E-02  0.19629000E-02
 -0.14442060E-03 -0.19761306E-02 -0.54455268E-03
  0.11169822E-02  0.50139430E-03  0.16368141E-02
  0.52654497E-03 -0.72149919E-03 -0.10516310E-03
  0.88898281E-03 -0.12183567E-02  0.10102150E-02
 -0.20774693E-02 -0.83782060E-03  0.74417851E-03
 -0.65151485E-03  0.89380308E-03  0.87240797E-03
 -0.58425518E-03 -0.10108121E-02 -0.11853799E-02
 -0.20532455E-02 -0.64101995E-03  0.12640567E-02
 -0.11390721E-02  0.10919503E-02 -0.16880360E-02
  0.78502199E-03  0.67183579E-03 -0.17357372E-03
  0.38023058E-03  0.23268743E-03  0.10153014E-02
 -0.62146411E-04 -0.93927425E-03  0.46276093E-03
  0.61507334E-03  0.87175374E-03 -0.44274669E-03
  0.10629406E-02 -0.54294012E-03  0.59564341E-03
  0.10509382E-02  0.13977437E-02  0.40606963E-03
  0.72051867E-03 -0.95877720E-04  0.10980250E-02
  0.28326602E-03  0.42141274E-03  0.16404309E-05
  0.93469335E-03  0.12367088E-03 -0.16219103E-02
 -0.69038078E-03 -0.15866953E-02 -0.74765059E-03
  0.49104769E-03  0.38386058E-03 -0.40137156E-03
 -0.38358827E-03 -0.59266150E-03  0.48188288E-03
  0.00000000E+00  0.00000000E+00  0.00000000E+00
  0.00000000E+00  0.00000000E+00  0.00000000E+00
  0.00000000E+00  0.00000000E+00  0.00000000E+00
  0.00000000E+00  0.00000000E+00  0.00000000E+00
  0.00000000E+00  0.00000000E+00  0.00000000E+00
  0.00000000E+00  0.00000000E+00  0.00000000E+00
  0.00000000E+00  0.00000000E+00  0.00000000E+00
  0.00000000E+00  0.00000000E+00  0.00000000E+00
  0.00000000E+00  0.00000000E+00  0.00000000E+00
  0.00000000E+00  0.00000000E+00  0.00000000E+00
  0.00000000E+00  0.00000000E+00  0.00000000E+00
  0.00000000E+00  0.00000000E+00  0.00000000E+00
  0.00000000E+00  0.00000000E+00  0.00000000E+00
  0.00000000E+00  0.00000000E+00  0.00000000E+00
  0.00000000E+00  0.00000000E+00  0.00000000E+00
  0.00000000E+00  0.00000000E+00  0.00000000E+00
  0.00000000E+00  0.00000000E+00  0.00000000E+00
  0.00000000E+00  0.00000000E+00  0.00000000E+00
  0.00000000E+00  0.00000000E+00  0.00000000E+00
  0.00000000E+00  0.00000000E+00  0.00000000E+00
  0.00000000E+00  0.00000000E+00  0.00000000E+00
  0.00000000E+00  0.00000000E+00  0.00000000E+00
  0.00000000E+00  0.00000000E+00  0.00000000E+00
  0.00000000E+00  0.00000000E+00  0.00000000E+00
  0.00000000E+00  0.00000000E+00  0.00000000E+00
  0.00000000E+00  0.00000000E+00  0.00000000E+00
  0.00000000E+00  0.00000000E+00  0.00000000E+00
  0.00000000E+00  0.00000000E+00  0.00000000E+00
  0.00000000E+00  0.00000000E+00  0.00000000E+00
  0.00000000E+00  0.00000000E+00  0.00000000E+00
  0.00000000E+00  0.00000000E+00  0.00000000E+00
  0.00000000E+00  0.00000000E+00  0.00000000E+00
  0.00000000E+00  0.00000000E+00  0.00000000E+00
  0.00000000E+00  0.00000000E+00  0.00000000E+00
  0.00000000E+00  0.00000000E+00  0.00000000E+00
  0.00000000E+00  0.00000000E+00  0.00000000E+00
