Na36
1.0
  11.0663130000000010    0.0000000000000000    0.0000000000000000
  -5.5331549999999998    9.5837070000000004    0.0000000000000000
   0.0000000000000000    0.0000000000000000   12.5383879999999994
Na
36
direct
   0.1111110000000000    0.2222223333333334    0.1250000000000000 Na
   0.1111110000000000    0.2222223333333334    0.6249999999999999 Na
   0.1111110000000000    0.5555556666666668    0.1250000000000000 Na
   0.1111110000000000    0.5555556666666668    0.6249999999999999 Na
   0.1111110000000000    0.8888890000000000    0.1250000000000000 Na
   0.1111110000000000    0.8888890000000000    0.6249999999999999 Na
   0.4444443333333333    0.2222223333333334    0.1250000000000000 Na
   0.4444443333333333    0.2222223333333334    0.6249999999999999 Na
   0.4444443333333333    0.5555556666666668    0.1250000000000000 Na
   0.4444443333333333    0.5555556666666668    0.6249999999999999 Na
   0.4444443333333333    0.8888890000000000    0.1250000000000000 Na
   0.4444443333333333    0.8888890000000000    0.6249999999999999 Na
   0.7777776666666666    0.2222223333333334    0.1250000000000000 Na
   0.7777776666666666    0.2222223333333334    0.6249999999999999 Na
   0.7777776666666666    0.5555556666666668    0.1250000000000000 Na
   0.7777776666666666    0.5555556666666668    0.6249999999999999 Na
   0.7777776666666666    0.8888890000000000    0.1250000000000000 Na
   0.7777776666666666    0.8888890000000000    0.6249999999999999 Na
   0.2222223333333334    0.1111110000000000    0.3750000000000000 Na
   0.2222223333333334    0.1111110000000000    0.8750000000000000 Na
   0.2222223333333333    0.4444443333333333    0.3750000000000000 Na
   0.2222223333333333    0.4444443333333333    0.8750000000000000 Na
   0.2222223333333334    0.7777776666666667    0.3750000000000000 Na
   0.2222223333333334    0.7777776666666667    0.8750000000000000 Na
   0.5555556666666666    0.1111110000000000    0.3750000000000000 Na
   0.5555556666666666    0.1111110000000000    0.8750000000000000 Na
   0.5555556666666667    0.4444443333333333    0.3750000000000000 Na
   0.5555556666666667    0.4444443333333333    0.8750000000000000 Na
   0.5555556666666667    0.7777776666666667    0.3750000000000000 Na
   0.5555556666666667    0.7777776666666667    0.8750000000000000 Na
   0.8888889999999999    0.1111110000000000    0.3750000000000000 Na
   0.8888889999999999    0.1111110000000000    0.8750000000000000 Na
   0.8888889999999999    0.4444443333333333    0.3750000000000000 Na
   0.8888889999999999    0.4444443333333333    0.8750000000000000 Na
   0.8888889999999999    0.7777776666666667    0.3750000000000000 Na
   0.8888889999999999    0.7777776666666667    0.8750000000000000 Na
